Phosphorus - aP42
1.0
       12.1979999542         0.0000000000         0.0000000000
       -1.7871006526        12.8624441240         0.0000000000
       -1.9869017797        -3.5177847416         5.8080146462
    P
   42
Direct
     0.151500002         0.330799997         0.746899962
     0.848500013         0.669200003         0.253100008
     0.275400013         0.472900003         0.748399973
     0.724599957         0.527099967         0.251599997
     0.150999993         0.580100000         0.742100000
     0.848999977         0.419900000         0.257900000
     0.279599994         0.724300027         0.759899974
     0.720399976         0.275699973         0.240099996
     0.160300002         0.835999966         0.739400029
     0.839699984         0.164000005         0.260600001
     0.287600011         0.971599996         0.737300038
     0.712399960         0.028400000         0.262699991
     0.157800004         0.072800003         0.733799994
     0.842199981         0.927200019         0.266200006
     0.277700007         0.225999996         0.758599997
     0.722299993         0.773999989         0.241400003
     0.354999989         0.492399991         0.291900009
     0.644999981         0.507600009         0.708099961
     0.412299991         0.581300020         0.118500002
     0.587700009         0.418699980         0.881500006
     0.353300005         0.740999997         0.291299999
     0.646700025         0.259000003         0.708700001
     0.415199995         0.831799984         0.126699999
     0.584800005         0.168200016         0.873300016
     0.363599986         0.996299982         0.283899993
     0.636399984         0.003700000         0.716099977
     0.425500005         0.082500003         0.108599998
     0.574499965         0.917500019         0.891399980
     0.359800011         0.236499995         0.283499986
     0.640200019         0.763499975         0.716500044
     0.414400011         0.335200012         0.127000004
     0.585600019         0.664799988         0.873000026
     0.158700004         0.405499995         0.101199999
     0.841300011         0.594500005         0.898800015
     0.157199994         0.684400022         0.097300000
     0.842800021         0.315599978         0.902700007
     0.169499993         0.953999996         0.091499999
     0.830500007         0.046000000         0.908500016
     0.165500000         0.130999997         0.089000002
     0.834500015         0.869000018         0.911000013
     0.076499999         0.551699996         0.170499995
     0.923500001         0.448300004         0.829500020
