Phosphorus - aP42                       
   1.00000000000000     
    12.3706878776827072    0.0173326492909531    0.0489246418062498
    -1.7938696964094143   12.8964508522616423   -0.0045609394008733
    -1.9965308033586897   -3.5293962858626937    5.9334845621850825
   P 
    42
Direct
  0.1457089019575110  0.3273745329340398  0.7437375553208818
  0.8542911130424863  0.6726254670659604  0.2562624146791158
  0.2695708321599454  0.4732603601719494  0.7566322338572051
  0.7304291378400594  0.5267396098280480  0.2433677361427926
  0.1474107697391827  0.5827154461475627  0.7460718041037750
  0.8525892002608150  0.4172845538524372  0.2539281958962250
  0.2738234939556585  0.7240513105047485  0.7579509329514569
  0.7261764760443459  0.2759486894952513  0.2420490370485406
  0.1652036848748617  0.8425426881462472  0.7415988846245256
  0.8347963011251374  0.1574572828537534  0.2584011453754771
  0.2943992738663255  0.9723747681269050  0.7311095270980426
  0.7056006971336758  0.0276252278730944  0.2688905019019562
  0.1622784195634820  0.0698822843293579  0.7392722552166987
  0.8377215654365201  0.9301177376706369  0.2607277447833010
  0.2717255703482579  0.2244276326522544  0.7562120333117495
  0.7282744296517417  0.7755723523477480  0.2437879666882509
  0.3433672397896430  0.4884005474547181  0.2856633081956234
  0.6566327302103547  0.5115994525452821  0.7143366618043810
  0.4025689326393123  0.5801806806325099  0.1192583061810512
  0.5974310673606877  0.4198193193674899  0.8807417018189500
  0.3448663344266615  0.7400406513215035  0.2867785570345907
  0.6551336955733408  0.2599593486784967  0.7132214429654091
  0.4081227854147087  0.8287591958342838  0.1205432789257554
  0.5918772145852913  0.1712408041657161  0.8794567360742493
  0.3682797499138281  0.0008722333486540  0.2718063112438685
  0.6317202200861690 -0.0008722513486555  0.7281936587561293
  0.4326687192015958  0.0816159765136090  0.0944172307801808
  0.5673312507984085  0.9183840454863924  0.9055827472198246
  0.3633154993567789  0.2286459860723086  0.2727904234008215
  0.6366845306432167  0.7713539839276959  0.7272096065991811
  0.4058592515881821  0.3339025175637930  0.1205841528147005
  0.5941407784118129  0.6660974824362068  0.8794158771853019
  0.1522247765506651  0.3968032250199757  0.0910729473912270
  0.8477752384493394  0.6031967749800243  0.9089270666087740
  0.1539457292920700  0.6867920032385252  0.0928671900685838
  0.8460542857079349  0.3132079967614749  0.9071328169314135
  0.1732627124142264  0.9554353716278819  0.0934014114263959
  0.8267372875857736  0.0445646243721178  0.9065986035736017
  0.1694434601689067  0.1314051749479196  0.0915718614030067
  0.8305565548310980  0.8685948400520853  0.9084281535969908
  0.0763428996434424  0.5505181227576865  0.1663554060334870
  0.9236571003565576  0.4494818772423063  0.8336446089665106
 
  0.00000000E+00  0.00000000E+00  0.00000000E+00
  0.00000000E+00  0.00000000E+00  0.00000000E+00
  0.00000000E+00  0.00000000E+00  0.00000000E+00
  0.00000000E+00  0.00000000E+00  0.00000000E+00
  0.00000000E+00  0.00000000E+00  0.00000000E+00
  0.00000000E+00  0.00000000E+00  0.00000000E+00
  0.00000000E+00  0.00000000E+00  0.00000000E+00
  0.00000000E+00  0.00000000E+00  0.00000000E+00
  0.00000000E+00  0.00000000E+00  0.00000000E+00
  0.00000000E+00  0.00000000E+00  0.00000000E+00
  0.00000000E+00  0.00000000E+00  0.00000000E+00
  0.00000000E+00  0.00000000E+00  0.00000000E+00
  0.00000000E+00  0.00000000E+00  0.00000000E+00
  0.00000000E+00  0.00000000E+00  0.00000000E+00
  0.00000000E+00  0.00000000E+00  0.00000000E+00
  0.00000000E+00  0.00000000E+00  0.00000000E+00
  0.00000000E+00  0.00000000E+00  0.00000000E+00
  0.00000000E+00  0.00000000E+00  0.00000000E+00
  0.00000000E+00  0.00000000E+00  0.00000000E+00
  0.00000000E+00  0.00000000E+00  0.00000000E+00
  0.00000000E+00  0.00000000E+00  0.00000000E+00
  0.00000000E+00  0.00000000E+00  0.00000000E+00
  0.00000000E+00  0.00000000E+00  0.00000000E+00
  0.00000000E+00  0.00000000E+00  0.00000000E+00
  0.00000000E+00  0.00000000E+00  0.00000000E+00
  0.00000000E+00  0.00000000E+00  0.00000000E+00
  0.00000000E+00  0.00000000E+00  0.00000000E+00
  0.00000000E+00  0.00000000E+00  0.00000000E+00
  0.00000000E+00  0.00000000E+00  0.00000000E+00
  0.00000000E+00  0.00000000E+00  0.00000000E+00
  0.00000000E+00  0.00000000E+00  0.00000000E+00
  0.00000000E+00  0.00000000E+00  0.00000000E+00
  0.00000000E+00  0.00000000E+00  0.00000000E+00
  0.00000000E+00  0.00000000E+00  0.00000000E+00
  0.00000000E+00  0.00000000E+00  0.00000000E+00
  0.00000000E+00  0.00000000E+00  0.00000000E+00
  0.00000000E+00  0.00000000E+00  0.00000000E+00
  0.00000000E+00  0.00000000E+00  0.00000000E+00
  0.00000000E+00  0.00000000E+00  0.00000000E+00
  0.00000000E+00  0.00000000E+00  0.00000000E+00
  0.00000000E+00  0.00000000E+00  0.00000000E+00
  0.00000000E+00  0.00000000E+00  0.00000000E+00
