Phosphorus - white                      
   1.00000000000000     
     6.0297935551987853    0.0288157470283352    0.0548213538336758
    -2.1444558231847854   11.6714045841333967    0.0417350550006251
    -1.9216776682103955   -1.2478001153280827   11.8115356259886770
   P 
    24
Direct
  0.0723758884046929  0.0022217428971334  0.1868035444706208
  0.9276240895953054  0.9977782451028661  0.8131964705293843
  0.8504871134321312  0.9532029135606008  0.3119086390898483
  0.1495128865678683  0.0467970714394013  0.6880913609101512
  0.0067817165197332  0.1349947591220073  0.3086272994910225
  0.9932182574802717  0.8650052708779956  0.6913727005089839
  0.2214554582980107  0.0114568225086222  0.3667545039475955
  0.7785445717019845  0.9885432054913798  0.6332455260524066
  0.7629521739399077  0.3687439647265871  0.0576949962862743
  0.2370478260600921  0.6312560352734126  0.9423050267137310
  0.5934323425750219  0.1865625440688579  0.0348930703426276
  0.4065676574249781  0.8134374559311421  0.9651069176573712
  0.5135650265985103  0.3052867163957082  0.1658863249723191
  0.4864349734014894  0.6947132836042920  0.8341136900276854
  0.3968129396688104  0.3203260742985397  0.9860230539514049
  0.6031870603311899  0.6796739257014602  0.0139769310485903
  0.2965165835408709  0.6834825493438513  0.4630800749642279
  0.7034833864591263  0.3165174506561488  0.5369199250357721
  0.9478526489742736  0.6272215016886487  0.3677169797864214
  0.0521473660257240  0.3727784983113513  0.6322829902135769
  0.2024299427910847  0.5158534083536795  0.3602729122223024
  0.7975700722089132  0.4841465916463202  0.6397270577776952
  0.2364221542828865  0.6763460263874089  0.2773308789181347
  0.7635778307171087  0.3236539736125916  0.7226691210818655
 
  0.00000000E+00  0.00000000E+00  0.00000000E+00
  0.00000000E+00  0.00000000E+00  0.00000000E+00
  0.00000000E+00  0.00000000E+00  0.00000000E+00
  0.00000000E+00  0.00000000E+00  0.00000000E+00
  0.00000000E+00  0.00000000E+00  0.00000000E+00
  0.00000000E+00  0.00000000E+00  0.00000000E+00
  0.00000000E+00  0.00000000E+00  0.00000000E+00
  0.00000000E+00  0.00000000E+00  0.00000000E+00
  0.00000000E+00  0.00000000E+00  0.00000000E+00
  0.00000000E+00  0.00000000E+00  0.00000000E+00
  0.00000000E+00  0.00000000E+00  0.00000000E+00
  0.00000000E+00  0.00000000E+00  0.00000000E+00
  0.00000000E+00  0.00000000E+00  0.00000000E+00
  0.00000000E+00  0.00000000E+00  0.00000000E+00
  0.00000000E+00  0.00000000E+00  0.00000000E+00
  0.00000000E+00  0.00000000E+00  0.00000000E+00
  0.00000000E+00  0.00000000E+00  0.00000000E+00
  0.00000000E+00  0.00000000E+00  0.00000000E+00
  0.00000000E+00  0.00000000E+00  0.00000000E+00
  0.00000000E+00  0.00000000E+00  0.00000000E+00
  0.00000000E+00  0.00000000E+00  0.00000000E+00
  0.00000000E+00  0.00000000E+00  0.00000000E+00
  0.00000000E+00  0.00000000E+00  0.00000000E+00
  0.00000000E+00  0.00000000E+00  0.00000000E+00
