Phosphorus                              
   1.00000000000000     
     9.2339905979848869    0.0000000000000000    0.0262577163844153
     0.0000000000000000    9.1440242730394168    0.0000000000000000
    -6.2217381939756038    0.0000000000000000   22.0116363976139198
   P 
    84
Direct
  0.3013460579334543  0.1996560146167338  0.1811840005750377
  0.6986539720665482  0.8003440003832640  0.8188159694249668
  0.6986539720665482  0.1996560146167338  0.3188159994249623
  0.3013460579334543  0.8003440003832640  0.6811840305750332
  0.1747149492874181  0.0314333423702070  0.1175254015390437
  0.8252850807125774  0.9685666466297953  0.8824746214609621
  0.8252850807125774  0.0314333423702070  0.3824745914609593
  0.1747149492874181  0.9685666466297953  0.6175253785390379
  0.9260012048518881  0.7800771866756803  0.1170361070409507
  0.0739987871481111  0.2199228133243197  0.8829639069590505
  0.0739987871481111  0.7800771866756803  0.3829639069590505
  0.9260012048518881  0.2199228133243197  0.6170360930409495
  0.0496599907600962  0.9467232796530095  0.1804324693846001
  0.9503399872399092  0.0532767313469952  0.8195675306153998
  0.9503399872399092  0.9467232796530095  0.3195675306153999
  0.0496599907600962  0.0532767313469952  0.6804324693846002
  0.7941704041346873  0.6770452266808481  0.1731936673684880
  0.2058295808653152  0.3229547733191517  0.8268063476315096
  0.2058295808653152  0.6770452266808481  0.3268063476315098
  0.7941704041346873  0.3229547733191517  0.6731936523684904
  0.6882841131855706  0.5115649820949273  0.1044859283440848
  0.3117159158144280  0.4884350179050729  0.8955140716559152
  0.3117159158144280  0.5115649820949273  0.3955140716559154
  0.6882841131855706  0.4884350179050729  0.6044859283440848
  0.5662757107533262  0.4476316208990669  0.1714429367199386
  0.4337242892466736  0.5523683791009331  0.8285570482800634
  0.4337242892466736  0.4476316208990669  0.3285570482800636
  0.5662757107533262  0.5523683791009331  0.6714429517199366
  0.4258501222273494  0.2754699398826506  0.1170269343335342
  0.5741498777726506  0.7245300601173494  0.8829730426664674
  0.5741498777726506  0.2754699398826506  0.3829730726664700
  0.4258501222273494  0.7245300601173494  0.6170269573335326
  0.0436967589963881  0.3915070379901335  0.0740413476547794
  0.9563032600036102  0.6084929620098666  0.9259586673452183
  0.9563032600036102  0.3915070379901335  0.4259586673452182
  0.0436967589963881  0.6084929620098666  0.5740413326547817
  0.0000714771029843  0.1595374540100686  0.0464295670191224
 -0.0000714751029842  0.8404625319899302  0.9535704549808793
 -0.0000714751029842  0.1595374540100686  0.4535704249808769
  0.0000714771029843  0.8404625319899302  0.5464295450191207
  0.7896099779762936  0.1386782744357005  0.0752121569499473
  0.2103900520237088  0.8613217255642998  0.9247878580500503
  0.2103900520237088  0.1386782744357005  0.4247878580500505
  0.7896099779762936  0.8613217255642998  0.5752121419499497
  0.7516405021920478  0.9097124428563652  0.0458307265252846
  0.2483594978079519  0.0902875571436345  0.9541692694747154
  0.2483594978079519  0.9097124428563652  0.4541692694747150
  0.7516405021920478  0.0902875571436345  0.5458307305252846
  0.5374933469552784  0.8691403326349710  0.0678452726215627
  0.4625066830447170  0.1308596823650266  0.9321547343784413
  0.4625066830447170  0.8691403326349710  0.4321547343784414
  0.5374933469552784  0.1308596823650266  0.5678452656215587
  0.5141907220188142  0.6421381539432245  0.0332575250432868
  0.4858092779811858  0.3578618760567711  0.9667424859567106
  0.4858092779811858  0.6421381539432245  0.4667424859567106
  0.5141907220188142  0.3578618760567711  0.5332575140432894
  0.3088276253849774  0.6348902234279935  0.0653352649469592
  0.6911723746150226  0.3651097765720065  0.9346647580530393
  0.6911723746150226  0.6348902234279935  0.4346647280530437
  0.3088276253849774  0.3651097765720065  0.5653352419469607
  0.2520141032712958  0.4030814724933285  0.0450048183200350
  0.7479858967287041  0.5969185275066715  0.9549951776799644
  0.7479858967287041  0.4030814724933285  0.4549951776799647
  0.2520141032712958  0.5969185275066715  0.5450048223200356
  0.1468674293621447  0.3887498430934369  0.1729896436431680
  0.8531325406378529  0.6112501569065629  0.8270103413568344
  0.8531325406378529  0.3887498430934369  0.3270103413568344
  0.1468674293621447  0.6112501569065629  0.6729896586431656
  0.8598157209991534  0.1007344780551717  0.1742940968027384
  0.1401842790008467  0.8992655289448326  0.8257058731972665
  0.1401842790008467  0.1007344780551717  0.3257059031972616
  0.8598157209991534  0.8992655289448326  0.6742941268027335
  0.5946085122702756  0.8232937448766345  0.1677060900212568
  0.4053915177297198  0.1767062701233631  0.8322939399787457
  0.4053915177297198  0.8232937448766345  0.3322939099787433
  0.5946085122702756  0.1767062701233631  0.6677060600212543
  0.4175892440172287  0.6446308857936335  0.1657989429601239
  0.5824107559827714  0.3553691142063663  0.8342010420398782
  0.5824107559827714  0.6446308857936335  0.3342010420398783
  0.4175892440172287  0.3553691142063663  0.6657989579601218
  0.9462949825167142  0.3228253573727062  0.2012752014203758
  0.0537049914832906  0.6771746126272914  0.7987247685796289
  0.0537049914832906  0.3228253573727062  0.2987247985796244
  0.9462949825167142  0.6771746126272914  0.7012752314203711
 
  0.00000000E+00  0.00000000E+00  0.00000000E+00
  0.00000000E+00  0.00000000E+00  0.00000000E+00
  0.00000000E+00  0.00000000E+00  0.00000000E+00
  0.00000000E+00  0.00000000E+00  0.00000000E+00
  0.00000000E+00  0.00000000E+00  0.00000000E+00
  0.00000000E+00  0.00000000E+00  0.00000000E+00
  0.00000000E+00  0.00000000E+00  0.00000000E+00
  0.00000000E+00  0.00000000E+00  0.00000000E+00
  0.00000000E+00  0.00000000E+00  0.00000000E+00
  0.00000000E+00  0.00000000E+00  0.00000000E+00
  0.00000000E+00  0.00000000E+00  0.00000000E+00
  0.00000000E+00  0.00000000E+00  0.00000000E+00
  0.00000000E+00  0.00000000E+00  0.00000000E+00
  0.00000000E+00  0.00000000E+00  0.00000000E+00
  0.00000000E+00  0.00000000E+00  0.00000000E+00
  0.00000000E+00  0.00000000E+00  0.00000000E+00
  0.00000000E+00  0.00000000E+00  0.00000000E+00
  0.00000000E+00  0.00000000E+00  0.00000000E+00
  0.00000000E+00  0.00000000E+00  0.00000000E+00
  0.00000000E+00  0.00000000E+00  0.00000000E+00
  0.00000000E+00  0.00000000E+00  0.00000000E+00
  0.00000000E+00  0.00000000E+00  0.00000000E+00
  0.00000000E+00  0.00000000E+00  0.00000000E+00
  0.00000000E+00  0.00000000E+00  0.00000000E+00
  0.00000000E+00  0.00000000E+00  0.00000000E+00
  0.00000000E+00  0.00000000E+00  0.00000000E+00
  0.00000000E+00  0.00000000E+00  0.00000000E+00
  0.00000000E+00  0.00000000E+00  0.00000000E+00
  0.00000000E+00  0.00000000E+00  0.00000000E+00
  0.00000000E+00  0.00000000E+00  0.00000000E+00
  0.00000000E+00  0.00000000E+00  0.00000000E+00
  0.00000000E+00  0.00000000E+00  0.00000000E+00
  0.00000000E+00  0.00000000E+00  0.00000000E+00
  0.00000000E+00  0.00000000E+00  0.00000000E+00
  0.00000000E+00  0.00000000E+00  0.00000000E+00
  0.00000000E+00  0.00000000E+00  0.00000000E+00
  0.00000000E+00  0.00000000E+00  0.00000000E+00
  0.00000000E+00  0.00000000E+00  0.00000000E+00
  0.00000000E+00  0.00000000E+00  0.00000000E+00
  0.00000000E+00  0.00000000E+00  0.00000000E+00
  0.00000000E+00  0.00000000E+00  0.00000000E+00
  0.00000000E+00  0.00000000E+00  0.00000000E+00
  0.00000000E+00  0.00000000E+00  0.00000000E+00
  0.00000000E+00  0.00000000E+00  0.00000000E+00
  0.00000000E+00  0.00000000E+00  0.00000000E+00
  0.00000000E+00  0.00000000E+00  0.00000000E+00
  0.00000000E+00  0.00000000E+00  0.00000000E+00
  0.00000000E+00  0.00000000E+00  0.00000000E+00
  0.00000000E+00  0.00000000E+00  0.00000000E+00
  0.00000000E+00  0.00000000E+00  0.00000000E+00
  0.00000000E+00  0.00000000E+00  0.00000000E+00
  0.00000000E+00  0.00000000E+00  0.00000000E+00
  0.00000000E+00  0.00000000E+00  0.00000000E+00
  0.00000000E+00  0.00000000E+00  0.00000000E+00
  0.00000000E+00  0.00000000E+00  0.00000000E+00
  0.00000000E+00  0.00000000E+00  0.00000000E+00
  0.00000000E+00  0.00000000E+00  0.00000000E+00
  0.00000000E+00  0.00000000E+00  0.00000000E+00
  0.00000000E+00  0.00000000E+00  0.00000000E+00
  0.00000000E+00  0.00000000E+00  0.00000000E+00
  0.00000000E+00  0.00000000E+00  0.00000000E+00
  0.00000000E+00  0.00000000E+00  0.00000000E+00
  0.00000000E+00  0.00000000E+00  0.00000000E+00
  0.00000000E+00  0.00000000E+00  0.00000000E+00
  0.00000000E+00  0.00000000E+00  0.00000000E+00
  0.00000000E+00  0.00000000E+00  0.00000000E+00
  0.00000000E+00  0.00000000E+00  0.00000000E+00
  0.00000000E+00  0.00000000E+00  0.00000000E+00
  0.00000000E+00  0.00000000E+00  0.00000000E+00
  0.00000000E+00  0.00000000E+00  0.00000000E+00
  0.00000000E+00  0.00000000E+00  0.00000000E+00
  0.00000000E+00  0.00000000E+00  0.00000000E+00
  0.00000000E+00  0.00000000E+00  0.00000000E+00
  0.00000000E+00  0.00000000E+00  0.00000000E+00
  0.00000000E+00  0.00000000E+00  0.00000000E+00
  0.00000000E+00  0.00000000E+00  0.00000000E+00
  0.00000000E+00  0.00000000E+00  0.00000000E+00
  0.00000000E+00  0.00000000E+00  0.00000000E+00
  0.00000000E+00  0.00000000E+00  0.00000000E+00
  0.00000000E+00  0.00000000E+00  0.00000000E+00
  0.00000000E+00  0.00000000E+00  0.00000000E+00
  0.00000000E+00  0.00000000E+00  0.00000000E+00
  0.00000000E+00  0.00000000E+00  0.00000000E+00
  0.00000000E+00  0.00000000E+00  0.00000000E+00
