Phosphorus - white                      
   1.00000000000000     
     5.3216115272274029    0.0016651962409775    0.0770173532986949
    -1.9373564366516005   10.2201845469978050   -0.0209614088746206
    -1.6329374991619505   -1.1323187101586267   10.2850427469614747
   P 
    24
Direct
  0.0879894482207136 -0.0161492704924824  0.1695109718739518
  0.9120105297792843  0.0161492584924812  0.8304890431260528
  0.8266528498618081  0.9438188552507372  0.3133791914535448
  0.1733471501381922  0.0561811297492646  0.6866208085464554
  0.0091142073917227  0.1482634572053048  0.2942435801502673
  0.9908857666082820  0.8517365727946978  0.7057564198497401
  0.2463063485064493  0.0142776854265840  0.3778746028240378
  0.7536936814935457  0.9857223425734183  0.6221254271759649
  0.7675628771846378  0.3817757104525815  0.0552627176018059
  0.2324371228153620  0.6182242895474185  0.9447373053981998
  0.5771816329713335  0.1741845613752474  0.0514265471246179
  0.4228183670286665  0.8258154386247529  0.9485734408753805
  0.5032816232168902  0.3248682839354085  0.1940249216936901
  0.4967183767831106  0.6751317160645912  0.8059750933063144
  0.3476153776238796  0.3197335464421567  0.9873618154878158
  0.6523846223761208  0.6802664535578431  0.0126381695121793
  0.3013232532224722  0.7068760529409724  0.4749981347223463
  0.6986767167775249  0.2931239470590282  0.5250018652776534
  0.9086855414947562  0.6341222639882343  0.3655567559447035
  0.0913144735052413  0.3658777360117658  0.6344432140552940
  0.1980629893100053  0.5077512567717660  0.3691529151963362
  0.8019370256899929  0.4922487432282344  0.6308470548036612
  0.2400231389804984  0.6817478033603857  0.2611979975872976
  0.7599768460194968  0.3182521966396141  0.7388020024127027
 
  0.00000000E+00  0.00000000E+00  0.00000000E+00
  0.00000000E+00  0.00000000E+00  0.00000000E+00
  0.00000000E+00  0.00000000E+00  0.00000000E+00
  0.00000000E+00  0.00000000E+00  0.00000000E+00
  0.00000000E+00  0.00000000E+00  0.00000000E+00
  0.00000000E+00  0.00000000E+00  0.00000000E+00
  0.00000000E+00  0.00000000E+00  0.00000000E+00
  0.00000000E+00  0.00000000E+00  0.00000000E+00
  0.00000000E+00  0.00000000E+00  0.00000000E+00
  0.00000000E+00  0.00000000E+00  0.00000000E+00
  0.00000000E+00  0.00000000E+00  0.00000000E+00
  0.00000000E+00  0.00000000E+00  0.00000000E+00
  0.00000000E+00  0.00000000E+00  0.00000000E+00
  0.00000000E+00  0.00000000E+00  0.00000000E+00
  0.00000000E+00  0.00000000E+00  0.00000000E+00
  0.00000000E+00  0.00000000E+00  0.00000000E+00
  0.00000000E+00  0.00000000E+00  0.00000000E+00
  0.00000000E+00  0.00000000E+00  0.00000000E+00
  0.00000000E+00  0.00000000E+00  0.00000000E+00
  0.00000000E+00  0.00000000E+00  0.00000000E+00
  0.00000000E+00  0.00000000E+00  0.00000000E+00
  0.00000000E+00  0.00000000E+00  0.00000000E+00
  0.00000000E+00  0.00000000E+00  0.00000000E+00
  0.00000000E+00  0.00000000E+00  0.00000000E+00
