Phosphorus                              
   1.00000000000000     
     9.2393652686424215    0.0000000000000000    0.0091162837800861
     0.0000000000000000    9.1560797461188361    0.0000000000000000
    -6.2658677137205085    0.0000000000000000   21.6973834167594859
   P 
    84
Direct
  0.3000583827811811  0.2011252047595206  0.1808641341591921
  0.6999416472188214  0.7988748102404771  0.8191358358408127
  0.6999416472188214  0.2011252047595206  0.3191358658408078
  0.3000583827811811  0.7988748102404771  0.6808641641591873
  0.1728308343480044  0.0332167900082672  0.1157921675666348
  0.8271691956519909  0.9667831989917355  0.8842078554333705
  0.8271691956519909  0.0332167900082672  0.3842078254333681
  0.1728308343480044  0.9667831989917355  0.6157921445666295
  0.9246083737619663  0.7805214740444956  0.1151557725649895
  0.0753916182380332  0.2194785259555042  0.8848442414350117
  0.0753916182380332  0.7805214740444956  0.3848442414350118
  0.9246083737619663  0.2194785259555042  0.6151557585649883
  0.0491252309639311  0.9476499806875915  0.1795505465780404
  0.9508747470360742  0.0523500303124128  0.8204494534219597
  0.9508747470360742  0.9476499806875915  0.3204494534219596
  0.0491252309639311  0.0523500303124128  0.6795505465780403
  0.7962535832291404  0.6771947126145236  0.1730447715791988
  0.2037464017708620  0.3228052873854763  0.8269552434207987
  0.2037464017708620  0.6771947126145236  0.3269552434207989
  0.7962535832291404  0.3228052873854763  0.6730447565792013
  0.6874551683360882  0.5121126296015521  0.1032605982950463
  0.3125448606639105  0.4878873703984478  0.8967394017049535
  0.3125448606639105  0.5121126296015521  0.3967394017049537
  0.6874551683360882  0.4878873703984478  0.6032605982950465
  0.5679313249052245  0.4466361310636642  0.1716969841150272
  0.4320686750947756  0.5533638689363360  0.8283030008849754
  0.4320686750947756  0.4466361310636642  0.3283030008849752
  0.5679313249052245  0.5533638689363360  0.6716969991150246
  0.4249370006681351  0.2759624073937490  0.1159492198505197
  0.5750629993318644  0.7240375926062511  0.8840507571494820
  0.5750629993318644  0.2759624073937490  0.3840507871494844
  0.4249370006681351  0.7240375926062511  0.6159492428505180
  0.0408241917784056  0.3924635501790061  0.0714603505859223
  0.9591758272215924  0.6075364498209939  0.9285396644140752
  0.9591758272215924  0.3924635501790061  0.4285396644140754
  0.0408241917784056  0.6075364498209939  0.5714603355859248
  0.9970201895433112  0.1603551904461673  0.0436571018967242
  0.0029798124566889  0.8396447955538313  0.9563429201032776
  0.0029798124566889  0.1603551904461673  0.4563428901032752
  0.9970201895433112  0.8396447955538313  0.5436570798967224
  0.7865764023881304  0.1391921154107408  0.0726165196294122
  0.2134236276118722  0.8608078845892589  0.9273834953705854
  0.2134236276118722  0.1391921154107408  0.4273834953705853
  0.7865764023881304  0.8608078845892589  0.5726165046294146
  0.7481195342752055  0.9096948943096684  0.0433637857348122
  0.2518804657247943  0.0903051056903316  0.9566362102651875
  0.2518804657247943  0.9096948943096684  0.4566362102651873
  0.7481195342752055  0.0903051056903316  0.5433637897348125
  0.5357314480382708  0.8701497494464158  0.0669077525644074
  0.4642685819617249  0.1298502655535819  0.9330922544355966
  0.4642685819617249  0.8701497494464158  0.4330922544355967
  0.5357314480382708  0.1298502655535819  0.5669077455644034
  0.5117836928658864  0.6432479761744003  0.0318156069289299
  0.4882163071341135  0.3567520538255948  0.9681844040710673
  0.4882163071341135  0.6432479761744003  0.4681844040710675
  0.5117836928658864  0.3567520538255948  0.5318155959289327
  0.3073981552090542  0.6352692379587941  0.0646113307309036
  0.6926018447909460  0.3647307620412055  0.9353886922690949
  0.6926018447909460  0.6352692379587941  0.4353886622690993
  0.3073981552090542  0.3647307620412055  0.5646113077309051
  0.2504503815308889  0.4040263234645500  0.0431421998580264
  0.7495496184691115  0.5959736765354500  0.9568577961419731
  0.7495496184691115  0.4040263234645500  0.4568577961419733
  0.2504503815308889  0.5959736765354500  0.5431422038580269
  0.1452986191407981  0.3898676222951391  0.1719458915166581
  0.8547013508591993  0.6101323777048610  0.8280540934833442
  0.8547013508591993  0.3898676222951391  0.3280540934833442
  0.1452986191407981  0.6101323777048610  0.6719459065166558
  0.8592938125847296  0.1016502385343022  0.1732891361513857
  0.1407061874152706  0.8983497684657017  0.8267108338486191
  0.1407061874152706  0.1016502385343022  0.3267108638486145
  0.8592938125847296  0.8983497684657017  0.6732891661513809
  0.5968509382397612  0.8231329787307534  0.1683793245359328
  0.4031490917602341  0.1768670362692440  0.8316207054640697
  0.4031490917602341  0.8231329787307534  0.3316206754640673
  0.5968509382397612  0.1768670362692440  0.6683792945359303
  0.4195980848816878  0.6438044433302602  0.1667324040579362
  0.5804019151183123  0.3561955566697396  0.8332675809420659
  0.5804019151183123  0.6438044433302602  0.3332675809420662
  0.4195980848816878  0.3561955566697396  0.6667324190579341
  0.9460741856613014  0.3228203715222352  0.2005907813741697
  0.0539257883387036  0.6771795984777621  0.7994091886258352
  0.0539257883387036  0.3228203715222352  0.2994092186258301
  0.9460741856613014  0.6771795984777621  0.7005908113741648
 
  0.00000000E+00  0.00000000E+00  0.00000000E+00
  0.00000000E+00  0.00000000E+00  0.00000000E+00
  0.00000000E+00  0.00000000E+00  0.00000000E+00
  0.00000000E+00  0.00000000E+00  0.00000000E+00
  0.00000000E+00  0.00000000E+00  0.00000000E+00
  0.00000000E+00  0.00000000E+00  0.00000000E+00
  0.00000000E+00  0.00000000E+00  0.00000000E+00
  0.00000000E+00  0.00000000E+00  0.00000000E+00
  0.00000000E+00  0.00000000E+00  0.00000000E+00
  0.00000000E+00  0.00000000E+00  0.00000000E+00
  0.00000000E+00  0.00000000E+00  0.00000000E+00
  0.00000000E+00  0.00000000E+00  0.00000000E+00
  0.00000000E+00  0.00000000E+00  0.00000000E+00
  0.00000000E+00  0.00000000E+00  0.00000000E+00
  0.00000000E+00  0.00000000E+00  0.00000000E+00
  0.00000000E+00  0.00000000E+00  0.00000000E+00
  0.00000000E+00  0.00000000E+00  0.00000000E+00
  0.00000000E+00  0.00000000E+00  0.00000000E+00
  0.00000000E+00  0.00000000E+00  0.00000000E+00
  0.00000000E+00  0.00000000E+00  0.00000000E+00
  0.00000000E+00  0.00000000E+00  0.00000000E+00
  0.00000000E+00  0.00000000E+00  0.00000000E+00
  0.00000000E+00  0.00000000E+00  0.00000000E+00
  0.00000000E+00  0.00000000E+00  0.00000000E+00
  0.00000000E+00  0.00000000E+00  0.00000000E+00
  0.00000000E+00  0.00000000E+00  0.00000000E+00
  0.00000000E+00  0.00000000E+00  0.00000000E+00
  0.00000000E+00  0.00000000E+00  0.00000000E+00
  0.00000000E+00  0.00000000E+00  0.00000000E+00
  0.00000000E+00  0.00000000E+00  0.00000000E+00
  0.00000000E+00  0.00000000E+00  0.00000000E+00
  0.00000000E+00  0.00000000E+00  0.00000000E+00
  0.00000000E+00  0.00000000E+00  0.00000000E+00
  0.00000000E+00  0.00000000E+00  0.00000000E+00
  0.00000000E+00  0.00000000E+00  0.00000000E+00
  0.00000000E+00  0.00000000E+00  0.00000000E+00
  0.00000000E+00  0.00000000E+00  0.00000000E+00
  0.00000000E+00  0.00000000E+00  0.00000000E+00
  0.00000000E+00  0.00000000E+00  0.00000000E+00
  0.00000000E+00  0.00000000E+00  0.00000000E+00
  0.00000000E+00  0.00000000E+00  0.00000000E+00
  0.00000000E+00  0.00000000E+00  0.00000000E+00
  0.00000000E+00  0.00000000E+00  0.00000000E+00
  0.00000000E+00  0.00000000E+00  0.00000000E+00
  0.00000000E+00  0.00000000E+00  0.00000000E+00
  0.00000000E+00  0.00000000E+00  0.00000000E+00
  0.00000000E+00  0.00000000E+00  0.00000000E+00
  0.00000000E+00  0.00000000E+00  0.00000000E+00
  0.00000000E+00  0.00000000E+00  0.00000000E+00
  0.00000000E+00  0.00000000E+00  0.00000000E+00
  0.00000000E+00  0.00000000E+00  0.00000000E+00
  0.00000000E+00  0.00000000E+00  0.00000000E+00
  0.00000000E+00  0.00000000E+00  0.00000000E+00
  0.00000000E+00  0.00000000E+00  0.00000000E+00
  0.00000000E+00  0.00000000E+00  0.00000000E+00
  0.00000000E+00  0.00000000E+00  0.00000000E+00
  0.00000000E+00  0.00000000E+00  0.00000000E+00
  0.00000000E+00  0.00000000E+00  0.00000000E+00
  0.00000000E+00  0.00000000E+00  0.00000000E+00
  0.00000000E+00  0.00000000E+00  0.00000000E+00
  0.00000000E+00  0.00000000E+00  0.00000000E+00
  0.00000000E+00  0.00000000E+00  0.00000000E+00
  0.00000000E+00  0.00000000E+00  0.00000000E+00
  0.00000000E+00  0.00000000E+00  0.00000000E+00
  0.00000000E+00  0.00000000E+00  0.00000000E+00
  0.00000000E+00  0.00000000E+00  0.00000000E+00
  0.00000000E+00  0.00000000E+00  0.00000000E+00
  0.00000000E+00  0.00000000E+00  0.00000000E+00
  0.00000000E+00  0.00000000E+00  0.00000000E+00
  0.00000000E+00  0.00000000E+00  0.00000000E+00
  0.00000000E+00  0.00000000E+00  0.00000000E+00
  0.00000000E+00  0.00000000E+00  0.00000000E+00
  0.00000000E+00  0.00000000E+00  0.00000000E+00
  0.00000000E+00  0.00000000E+00  0.00000000E+00
  0.00000000E+00  0.00000000E+00  0.00000000E+00
  0.00000000E+00  0.00000000E+00  0.00000000E+00
  0.00000000E+00  0.00000000E+00  0.00000000E+00
  0.00000000E+00  0.00000000E+00  0.00000000E+00
  0.00000000E+00  0.00000000E+00  0.00000000E+00
  0.00000000E+00  0.00000000E+00  0.00000000E+00
  0.00000000E+00  0.00000000E+00  0.00000000E+00
  0.00000000E+00  0.00000000E+00  0.00000000E+00
  0.00000000E+00  0.00000000E+00  0.00000000E+00
  0.00000000E+00  0.00000000E+00  0.00000000E+00
