Phosphorus - white                      
   1.00000000000000     
     5.6004865418031269    0.0020219392425843    0.0033174105751652
    -2.0395290618275519   10.8969038115087429   -0.0204755586325681
    -1.8727269655414256   -1.2333063321056930   11.0161653277078386
   P 
    24
Direct
  0.0727537228347461 -0.0020713046617036  0.1809428839740544
  0.9272462551652522  0.0020712926617029  0.8190571310259500
  0.8300484196681718  0.9464372873672880  0.3116390649758150
  0.1699515803318282  0.0535626976327145  0.6883609350241854
  0.0012118527779161  0.1413593842591686  0.3103055315317605
  0.9987881212220885  0.8586406457408338  0.6896944684682460
  0.2311800201956430  0.0107141842400460  0.3751847639114104
  0.7688200098043519  0.9892858437599564  0.6248152660885919
  0.7595780977338834  0.3786689643185071  0.0535273697725300
  0.2404219022661169  0.6213310356814927  0.9464726532274754
  0.5860187256336457  0.1819353827588914  0.0380924702090584
  0.4139812743663540  0.8180646172411089  0.9619075177909410
  0.5038477850037256  0.3148422807718887  0.1747575355282706
  0.4961522149962740  0.6851577192281112  0.8252424794717332
  0.3612891877826019  0.3177029529888817  0.9809186077084215
  0.6387108122173980  0.6822970470111186  0.0190813772915732
  0.3149513045199142  0.6888555309834971  0.4692506026359028
  0.6850486654800840  0.3111444690165034  0.5307493973640973
  0.9337289525758200  0.6274160971959782  0.3684172833030984
  0.0662710624241772  0.3725839028040218  0.6315826866968985
  0.2016920382388548  0.5056978681246720  0.3628491581200756
  0.7983079767611428  0.4943021318753276  0.6371508118799221
  0.2400121084493698  0.6734190445158430  0.2695263732047771
  0.7599878765506255  0.3265809554841572  0.7304736267952233
 
  0.00000000E+00  0.00000000E+00  0.00000000E+00
  0.00000000E+00  0.00000000E+00  0.00000000E+00
  0.00000000E+00  0.00000000E+00  0.00000000E+00
  0.00000000E+00  0.00000000E+00  0.00000000E+00
  0.00000000E+00  0.00000000E+00  0.00000000E+00
  0.00000000E+00  0.00000000E+00  0.00000000E+00
  0.00000000E+00  0.00000000E+00  0.00000000E+00
  0.00000000E+00  0.00000000E+00  0.00000000E+00
  0.00000000E+00  0.00000000E+00  0.00000000E+00
  0.00000000E+00  0.00000000E+00  0.00000000E+00
  0.00000000E+00  0.00000000E+00  0.00000000E+00
  0.00000000E+00  0.00000000E+00  0.00000000E+00
  0.00000000E+00  0.00000000E+00  0.00000000E+00
  0.00000000E+00  0.00000000E+00  0.00000000E+00
  0.00000000E+00  0.00000000E+00  0.00000000E+00
  0.00000000E+00  0.00000000E+00  0.00000000E+00
  0.00000000E+00  0.00000000E+00  0.00000000E+00
  0.00000000E+00  0.00000000E+00  0.00000000E+00
  0.00000000E+00  0.00000000E+00  0.00000000E+00
  0.00000000E+00  0.00000000E+00  0.00000000E+00
  0.00000000E+00  0.00000000E+00  0.00000000E+00
  0.00000000E+00  0.00000000E+00  0.00000000E+00
  0.00000000E+00  0.00000000E+00  0.00000000E+00
  0.00000000E+00  0.00000000E+00  0.00000000E+00
