Phosphorus - white
1.0
        5.4787998199         0.0000000000         0.0000000000
       -1.9989374720        10.5993561191         0.0000000000
       -1.8380492903        -1.1801020417        10.7417696491
    P
   24
Direct
     0.072920002         0.000360000         0.176740006
     0.927079976         0.999639988         0.823260009
     0.831680000         0.945519984         0.311129987
     0.168320000         0.054480001         0.688870013
     0.006120000         0.144730002         0.311839998
     0.993879974         0.855270028         0.688160002
     0.239089996         0.010030000         0.373230010
     0.760910034         0.989970028         0.626770020
     0.782230020         0.374740005         0.058490001
     0.217769980         0.625259995         0.941510022
     0.592100024         0.176050007         0.031169999
     0.407899976         0.823949993         0.968829989
     0.510819972         0.307150006         0.174579993
     0.489180028         0.692849994         0.825420022
     0.379379988         0.321420014         0.977999985
     0.620620012         0.678579986         0.022000000
     0.311040014         0.688639998         0.472490013
     0.688959956         0.311360002         0.527509987
     0.927370012         0.625769973         0.365810007
     0.072630003         0.374230027         0.634189963
     0.204559997         0.505169988         0.358880013
     0.795440018         0.494830012         0.641119957
     0.242770001         0.680779994         0.269749999
     0.757229984         0.319220006         0.730250001
