Tellurium                               
   1.00000000000000     
     4.5101595962115812   -0.0000000000000000    0.0000000000000000
    -2.2550797981057906    3.9059127854660107   -0.0000000000000000
     0.0000000000000000   -0.0000000000000000    5.9567465841725191
   Te
     3
Direct
  0.2695617789298717  0.0000000000000000  0.3333333429999996
  0.0000000000000001  0.2695617789298720  0.6666666870000029
  0.7304382510701306  0.7304382510701304  0.0000000000000000
 
  0.00000000E+00  0.00000000E+00  0.00000000E+00
  0.00000000E+00  0.00000000E+00  0.00000000E+00
  0.00000000E+00  0.00000000E+00  0.00000000E+00
