 vasp.5.4.4.18Apr17-6-g9f103f2a35 (build Feb 10 2022 16:34:21) complex          
  
 executed on         VASP-optcell date 2026.04.16  11:04:19
 running on    4 total cores
 distrk:  each k-point on    4 cores,    1 groups
 distr:  one band on NCORES_PER_BAND=   2 cores,    2 groups


--------------------------------------------------------------------------------------------------------


 INCAR:
 POTCAR:    PAW_PBE Te 08Apr2002                  
 POTCAR:    PAW_PBE Te 08Apr2002                  
   VRHFIN =Te: s2p4                                                             
   LEXCH  = PE                                                                  
   EATOM  =   223.2721 eV,   16.4100 Ry                                         
                                                                                
   TITEL  = PAW_PBE Te 08Apr2002                                                
   LULTRA =        F    use ultrasoft PP ?                                      
   IUNSCR =        1    unscreen: 0-lin 1-nonlin 2-no                           
   RPACOR =    2.200    partial core radius                                     
   POMASS =  127.600; ZVAL   =    6.000    mass and valenz                      
   RCORE  =    2.300    outmost cutoff radius                                   
   RWIGS  =    2.900; RWIGS  =    1.535    wigner-seitz radius (au A)           
   ENMAX  =  174.982; ENMIN  =  131.236 eV                                      
   ICORE  =        3    local potential                                         
   LCOR   =        T    correct aug charges                                     
   LPAW   =        T    paw PP                                                  
   EAUG   =  368.792                                                            
   DEXC   =    0.000                                                            
   RMAX   =    2.345    core radius for proj-oper                               
   RAUG   =    1.300    factor for augmentation sphere                          
   RDEP   =    2.397    radius for radial grids                                 
   RDEPT  =    2.174    core radius for aug-charge                              
                                                                                
   Atomic configuration                                                         
   13 entries                                                                   
     n  l   j            E        occ.                                          
     1  0  0.50    -31621.2075   2.0000                                         
     2  0  0.50     -4848.7941   2.0000                                         
     2  1  1.50     -4352.1960   6.0000                                         
     3  0  0.50      -964.9612   2.0000                                         
     3  1  1.50      -803.6179   6.0000                                         
     3  2  2.50      -559.8710  10.0000                                         
     4  0  0.50      -164.3522   2.0000                                         
     4  1  1.50      -114.3756   6.0000                                         
     4  2  2.50       -41.6483  10.0000                                         
     5  0  0.50       -15.1072   2.0000                                         
     5  1  0.50        -5.9526   4.0000                                         
     5  2  1.50        -5.4423   0.0000                                         
     4  3  2.50        -5.4423   0.0000                                         
   Description                                                                  
     l       E           TYP  RCUT    TYP  RCUT                                 
     0    -15.1072389     23  2.300                                             
     0    -16.4678215     23  2.300                                             
     1     -5.9526306     23  2.300                                             
     1     -2.4873968     23  2.300                                             
     2     -5.4423304     23  2.300                                             
     3     -1.3605826     23  2.300                                             
  local pseudopotential read in
  partial core-charges read in
  partial kinetic energy density read in
  atomic valenz-charges read in
  non local Contribution for L=           0  read in
    real space projection operators read in
  non local Contribution for L=           0  read in
    real space projection operators read in
  non local Contribution for L=           1  read in
    real space projection operators read in
  non local Contribution for L=           1  read in
    real space projection operators read in
  non local Contribution for L=           2  read in
    real space projection operators read in
    PAW grid and wavefunctions read in
 
   number of l-projection  operators is LMAX  =           5
   number of lm-projection operators is LMMAX =          13
 
  PAW_PBE Te 08Apr2002                  :
 energy of atom  1       EATOM= -223.2721
 kinetic energy error for atom=    0.0007 (will be added to EATOM!!)
 
 
 POSCAR: Tellurium                               
  positions in direct lattice
  No initial velocities read in
 exchange correlation table for  LEXCH =        8
   RHO(1)=    0.500       N(1)  =     2000
   RHO(2)=  100.500       N(2)  =     4000
 


--------------------------------------------------------------------------------------------------------


 ion  position               nearest neighbor table
   1  0.262  0.000  0.333-   3 2.83   2 2.83   2 3.50   2 3.50   3 3.50   3 3.50
   2  0.000  0.262  0.667-   3 2.83   1 2.83   3 3.50   3 3.50   1 3.50   1 3.50
   3  0.738  0.738  0.000-   2 2.83   1 2.83   2 3.50   2 3.50   1 3.50   1 3.50
 
  LATTYP: Found a hexagonal cell.
 ALAT       =     4.4593000412
 C/A-ratio  =     1.3294014113
  
  Lattice vectors:
  
 A1 = (   4.4593000412,   0.0000000000,   0.0000000000)
 A2 = (  -2.2296500206,   3.8618671188,   0.0000000000)
 A3 = (   0.0000000000,   0.0000000000,   5.9281997681)


Analysis of symmetry for initial positions (statically):
=====================================================================
 Subroutine PRICEL returns:
 Original cell was already a primitive cell.
 

 Routine SETGRP: Setting up the symmetry group for a 
 hexagonal supercell.


 Subroutine GETGRP returns: Found  6 space group operations
 (whereof  2 operations were pure point group operations)
 out of a pool of 24 trial point group operations.


The static configuration has the point symmetry C_2 .
 The point group associated with its full space group is D_3 .


Analysis of symmetry for dynamics (positions and initial velocities):
=====================================================================
 Subroutine PRICEL returns:
 Original cell was already a primitive cell.
 

 Routine SETGRP: Setting up the symmetry group for a 
 hexagonal supercell.


 Subroutine GETGRP returns: Found  6 space group operations
 (whereof  2 operations were pure point group operations)
 out of a pool of 24 trial point group operations.


The dynamic configuration has the point symmetry C_2 .
 The point group associated with its full space group is D_3 .


 Subroutine INISYM returns: Found  6 space group operations
 (whereof  2 operations are pure point group operations),
 and found     1 'primitive' translations

 
 
 KPOINTS: K-Spacing Value to Generate K-Mesh: 0.04

Automatic generation of k-mesh.
Space group operators:
 irot       det(A)        alpha          n_x          n_y          n_z        tau_x        tau_y        tau_z
    1     1.000000     0.000000     1.000000     0.000000     0.000000     0.000000     0.000000     0.000000
    2     1.000000   180.000000    -0.500000    -0.866025     0.000000     0.000000     0.000000     0.000000
    3     1.000000   120.000000     0.000000     0.000000    -1.000000     0.000000     0.000000     0.333333
    4     1.000000   120.000000     0.000000     0.000000     1.000000     0.000000     0.000000     0.666667
    5     1.000000   180.000000     1.000000     0.000000     0.000000     0.000000     0.000000     0.666667
    6     1.000000   180.000000     0.500000    -0.866025     0.000000     0.000000     0.000000     0.333333
 
 Subroutine IBZKPT returns following result:
 ===========================================
 
 Found     43 irreducible k-points:
 
 Following reciprocal coordinates:
            Coordinates               Weight
  0.000000  0.000000  0.000000      1.000000
  0.111111  0.000000  0.000000      6.000000
  0.222222  0.000000  0.000000      6.000000
  0.333333 -0.000000  0.000000      6.000000
  0.444444  0.000000  0.000000      6.000000
  0.111111  0.111111  0.000000      6.000000
  0.222222  0.111111  0.000000     12.000000
  0.333333  0.111111  0.000000     12.000000
  0.444444  0.111111  0.000000      6.000000
  0.222222  0.222222  0.000000      6.000000
  0.333333  0.222222  0.000000     12.000000
  0.333333  0.333333  0.000000      2.000000
  0.000000  0.000000  0.250000      2.000000
  0.111111  0.000000  0.250000      6.000000
  0.222222  0.000000  0.250000      6.000000
  0.333333 -0.000000  0.250000      6.000000
  0.444444  0.000000  0.250000      6.000000
 -0.444444 -0.000000  0.250000      6.000000
 -0.333333  0.000000  0.250000      6.000000
 -0.222222 -0.000000  0.250000      6.000000
 -0.111111 -0.000000  0.250000      6.000000
  0.111111  0.111111  0.250000     12.000000
  0.222222  0.111111  0.250000     12.000000
  0.333333  0.111111  0.250000     12.000000
  0.444444  0.111111  0.250000     12.000000
 -0.444444  0.111111  0.250000     12.000000
 -0.333333  0.111111  0.250000     12.000000
  0.222222  0.222222  0.250000     12.000000
  0.333333  0.222222  0.250000     12.000000
  0.444444  0.222222  0.250000     12.000000
  0.333333  0.333333  0.250000      4.000000
  0.000000  0.000000  0.500000      1.000000
  0.111111  0.000000  0.500000      6.000000
  0.222222  0.000000  0.500000      6.000000
  0.333333 -0.000000  0.500000      6.000000
  0.444444  0.000000  0.500000      6.000000
  0.111111  0.111111  0.500000      6.000000
  0.222222  0.111111  0.500000     12.000000
  0.333333  0.111111  0.500000     12.000000
  0.444444  0.111111  0.500000      6.000000
  0.222222  0.222222  0.500000      6.000000
  0.333333  0.222222  0.500000     12.000000
  0.333333  0.333333  0.500000      2.000000
 
 Following cartesian coordinates:
            Coordinates               Weight
  0.000000  0.000000  0.000000      1.000000
  0.024917  0.014386  0.000000      6.000000
  0.049833  0.028771  0.000000      6.000000
  0.074750  0.043157  0.000000      6.000000
  0.099667  0.057543  0.000000      6.000000
  0.024917  0.043157  0.000000      6.000000
  0.049833  0.057543  0.000000     12.000000
  0.074750  0.071928  0.000000     12.000000
  0.099667  0.086314  0.000000      6.000000
  0.049833  0.086314  0.000000      6.000000
  0.074750  0.100700  0.000000     12.000000
  0.074750  0.129471  0.000000      2.000000
  0.000000  0.000000  0.042171      2.000000
  0.024917  0.014386  0.042171      6.000000
  0.049833  0.028771  0.042171      6.000000
  0.074750  0.043157  0.042171      6.000000
  0.099667  0.057543  0.042171      6.000000
 -0.099667 -0.057543  0.042171      6.000000
 -0.074750 -0.043157  0.042171      6.000000
 -0.049833 -0.028771  0.042171      6.000000
 -0.024917 -0.014386  0.042171      6.000000
  0.024917  0.043157  0.042171     12.000000
  0.049833  0.057543  0.042171     12.000000
  0.074750  0.071928  0.042171     12.000000
  0.099667  0.086314  0.042171     12.000000
 -0.099667 -0.028771  0.042171     12.000000
 -0.074750 -0.014386  0.042171     12.000000
  0.049833  0.086314  0.042171     12.000000
  0.074750  0.100700  0.042171     12.000000
  0.099667  0.115085  0.042171     12.000000
  0.074750  0.129471  0.042171      4.000000
  0.000000  0.000000  0.084343      1.000000
  0.024917  0.014386  0.084343      6.000000
  0.049833  0.028771  0.084343      6.000000
  0.074750  0.043157  0.084343      6.000000
  0.099667  0.057543  0.084343      6.000000
  0.024917  0.043157  0.084343      6.000000
  0.049833  0.057543  0.084343     12.000000
  0.074750  0.071928  0.084343     12.000000
  0.099667  0.086314  0.084343      6.000000
  0.049833  0.086314  0.084343      6.000000
  0.074750  0.100700  0.084343     12.000000
  0.074750  0.129471  0.084343      2.000000
 


--------------------------------------------------------------------------------------------------------




 Dimension of arrays:
   k-points           NKPTS =     43   k-points in BZ     NKDIM =     43   number of bands    NBANDS=     14
   number of dos      NEDOS =    301   number of ions     NIONS =      3
   non local maximal  LDIM  =      5   non local SUM 2l+1 LMDIM =     13
   total plane-waves  NPLWV =  28224
   max r-space proj   IRMAX =      1   max aug-charges    IRDMAX=  16277
   dimension x,y,z NGX =    28 NGY =   28 NGZ =   36
   dimension x,y,z NGXF=    56 NGYF=   56 NGZF=   72
   support grid    NGXF=    56 NGYF=   56 NGZF=   72
   ions per type =               3
   NGX,Y,Z   is equivalent  to a cutoff of  10.44, 10.44, 10.10 a.u.
   NGXF,Y,Z  is equivalent  to a cutoff of  20.88, 20.88, 20.19 a.u.

 SYSTEM =  unknown system                          
 POSCAR =  Tellurium                               

 Startparameter for this run:
   NWRITE =      2    write-flag & timer
   PREC   = n         normal or accurate (medium, high low for compatibility)
   ISTART =      0    job   : 0-new  1-cont  2-samecut
   ICHARG =      2    charge: 1-file 2-atom 10-const
   ISPIN  =      1    spin polarized calculation?
   LNONCOLLINEAR =      F non collinear calculations
   LSORBIT =      F    spin-orbit coupling
   INIWAV =      1    electr: 0-lowe 1-rand  2-diag
   LASPH  =      F    aspherical Exc in radial PAW
   METAGGA=      F    non-selfconsistent MetaGGA calc.

 Electronic Relaxation 1
   ENCUT  =  520.0 eV  38.22 Ry    6.18 a.u.   8.29  8.29 11.02*2*pi/ulx,y,z
   ENINI  =  520.0     initial cutoff
   ENAUG  =  368.8 eV  augmentation charge cutoff
   NELM   =     80;   NELMIN=  2; NELMDL= -5     # of ELM steps 
   EDIFF  = 0.1E-04   stopping-criterion for ELM
   LREAL  =      F    real-space projection
   NLSPLINE    = F    spline interpolate recip. space projectors
   LCOMPAT=      F    compatible to vasp.4.4
   GGA_COMPAT  = T    GGA compatible to vasp.4.4-vasp.4.6
   LMAXPAW     = -100 max onsite density
   LMAXMIX     =    2 max onsite mixed and CHGCAR
   VOSKOWN=      0    Vosko Wilk Nusair interpolation
   ROPT   =    0.00000
 Ionic relaxation
   EDIFFG = -.1E-01   stopping-criterion for IOM
   NSW    =    100    number of steps for IOM
   NBLOCK =      1;   KBLOCK =    100    inner block; outer block 
   IBRION =      2    ionic relax: 0-MD 1-quasi-New 2-CG
   NFREE  =      1    steps in history (QN), initial steepest desc. (CG)
   ISIF   =      3    stress and relaxation
   IWAVPR =     11    prediction:  0-non 1-charg 2-wave 3-comb
   ISYM   =      2    0-nonsym 1-usesym 2-fastsym
   LCORR  =      T    Harris-Foulkes like correction to forces

   POTIM  = 0.5000    time-step for ionic-motion
   TEIN   =    0.0    initial temperature
   TEBEG  =    0.0;   TEEND  =   0.0 temperature during run
   SMASS  =  -3.00    Nose mass-parameter (am)
   estimated Nose-frequenzy (Omega)   =  0.10E-29 period in steps =****** mass=  -0.454E-27a.u.
   SCALEE = 1.0000    scale energy and forces
   NPACO  =    256;   APACO  = 16.0  distance and # of slots for P.C.
   PSTRESS=    0.0 pullay stress

  Mass of Ions in am
   POMASS = 127.60
  Ionic Valenz
   ZVAL   =   6.00
  Atomic Wigner-Seitz radii
   RWIGS  =  -1.00
  virtual crystal weights 
   VCA    =   1.00
   NELECT =      18.0000    total number of electrons
   NUPDOWN=      -1.0000    fix difference up-down

 DOS related values:
   EMIN   =  10.00;   EMAX   =-10.00  energy-range for DOS
   EFERMI =   0.00
   ISMEAR =     0;   SIGMA  =   0.05  broadening in eV -4-tet -1-fermi 0-gaus

 Electronic relaxation 2 (details)
   IALGO  =     38    algorithm
   LDIAG  =      T    sub-space diagonalisation (order eigenvalues)
   LSUBROT=      F    optimize rotation matrix (better conditioning)
   TURBO    =      0    0=normal 1=particle mesh
   IRESTART =      0    0=no restart 2=restart with 2 vectors
   NREBOOT  =      0    no. of reboots
   NMIN     =      0    reboot dimension
   EREF     =   0.00    reference energy to select bands
   IMIX   =      4    mixing-type and parameters
     AMIX     =   0.40;   BMIX     =  1.00
     AMIX_MAG =   1.60;   BMIX_MAG =  1.00
     AMIN     =   0.10
     WC   =   100.;   INIMIX=   1;  MIXPRE=   1;  MAXMIX= -45

 Intra band minimization:
   WEIMIN = 0.0010     energy-eigenvalue tresh-hold
   EBREAK =  0.18E-06  absolut break condition
   DEPER  =   0.30     relativ break condition  

   TIME   =   0.40     timestep for ELM

  volume/ion in A,a.u.               =      34.03       229.65
  Fermi-wavevector in a.u.,A,eV,Ry     =   0.917987  1.734745 11.465641  0.842701
  Thomas-Fermi vector in A             =   2.043018
 
 Write flags
   LWAVE        =      T    write WAVECAR
   LDOWNSAMPLE  =      F    k-point downsampling of WAVECAR
   LCHARG       =      T    write CHGCAR
   LVTOT        =      F    write LOCPOT, total local potential
   LVHAR        =      F    write LOCPOT, Hartree potential only
   LELF         =      F    write electronic localiz. function (ELF)
   LORBIT       =      0    0 simple, 1 ext, 2 COOP (PROOUT), +10 PAW based schemes


 Dipole corrections
   LMONO  =      F    monopole corrections only (constant potential shift)
   LDIPOL =      F    correct potential (dipole corrections)
   IDIPOL =      0    1-x, 2-y, 3-z, 4-all directions 
   EPSILON=  1.0000000 bulk dielectric constant

 Exchange correlation treatment:
   GGA     =    --    GGA type
   LEXCH   =     8    internal setting for exchange type
   VOSKOWN=      0    Vosko Wilk Nusair interpolation
   LHFCALC =     F    Hartree Fock is set to
   LHFONE  =     F    Hartree Fock one center treatment
   AEXX    =    0.0000 exact exchange contribution

 Linear response parameters
   LEPSILON=     F    determine dielectric tensor
   LRPA    =     F    only Hartree local field effects (RPA)
   LNABLA  =     F    use nabla operator in PAW spheres
   LVEL    =     F    velocity operator in full k-point grid
   LINTERFAST=   F  fast interpolation
   KINTER  =     0    interpolate to denser k-point grid
   CSHIFT  =0.1000    complex shift for real part using Kramers Kronig
   OMEGAMAX=  -1.0    maximum frequency
   DEG_THRESHOLD= 0.2000000E-02 threshold for treating states as degnerate
   RTIME   =   -0.100 relaxation time in fs
  (WPLASMAI=    0.000 imaginary part of plasma frequency in eV, 0.658/RTIME)
   DFIELD  = 0.0000000 0.0000000 0.0000000 field for delta impulse in time
 
 Orbital magnetization related:
   ORBITALMAG=     F  switch on orbital magnetization
   LCHIMAG   =     F  perturbation theory with respect to B field
   DQ        =  0.001000  dq finite difference perturbation B field
   LLRAUG    =     F  two centre corrections for induced B field



--------------------------------------------------------------------------------------------------------


 conjugate gradient relaxation of ions
 charge density and potential will be updated during run
 non-spin polarized calculation
 Variant of blocked Davidson
 Davidson routine will perform the subspace rotation
 perform sub-space diagonalisation
    after iterative eigenvector-optimisation
 modified Broyden-mixing scheme, WC =      100.0
 initial mixing is a Kerker type mixing with AMIX =  0.4000 and BMIX =      1.0000
 Hartree-type preconditioning will be used
 using additional bands            5
 reciprocal scheme for non local part
 use partial core corrections
 calculate Harris-corrections to forces 
   (improved forces if not selfconsistent)
 use gradient corrections 
 use of overlap-Matrix (Vanderbilt PP)
 Gauss-broadening in eV      SIGMA  =   0.05


--------------------------------------------------------------------------------------------------------


  energy-cutoff  :      520.00
  volume of cell :      102.09
      direct lattice vectors                 reciprocal lattice vectors
     4.459300041  0.000000000  0.000000000     0.224250441  0.129471052  0.000000000
    -2.229650021  3.861867119  0.000000000     0.000000000  0.258942105  0.000000000
     0.000000000  0.000000000  5.928199768     0.000000000  0.000000000  0.168685274

  length of vectors
     4.459300041  4.459300041  5.928199768     0.258942105  0.258942105  0.168685274


 
 k-points in units of 2pi/SCALE and weight: K-Spacing Value to Generate K-Mesh: 0.04
   0.00000000  0.00000000  0.00000000       0.003
   0.02491672  0.01438567  0.00000000       0.019
   0.04983343  0.02877134  0.00000000       0.019
   0.07475015  0.04315702  0.00000000       0.019
   0.09966686  0.05754269  0.00000000       0.019
   0.02491672  0.04315702  0.00000000       0.019
   0.04983343  0.05754269  0.00000000       0.037
   0.07475015  0.07192836  0.00000000       0.037
   0.09966686  0.08631403  0.00000000       0.019
   0.04983343  0.08631403  0.00000000       0.019
   0.07475015  0.10069971  0.00000000       0.037
   0.07475015  0.12947105  0.00000000       0.006
   0.00000000  0.00000000  0.04217132       0.006
   0.02491672  0.01438567  0.04217132       0.019
   0.04983343  0.02877134  0.04217132       0.019
   0.07475015  0.04315702  0.04217132       0.019
   0.09966686  0.05754269  0.04217132       0.019
  -0.09966686 -0.05754269  0.04217132       0.019
  -0.07475015 -0.04315702  0.04217132       0.019
  -0.04983343 -0.02877134  0.04217132       0.019
  -0.02491672 -0.01438567  0.04217132       0.019
   0.02491672  0.04315702  0.04217132       0.037
   0.04983343  0.05754269  0.04217132       0.037
   0.07475015  0.07192836  0.04217132       0.037
   0.09966686  0.08631403  0.04217132       0.037
  -0.09966686 -0.02877134  0.04217132       0.037
  -0.07475015 -0.01438567  0.04217132       0.037
   0.04983343  0.08631403  0.04217132       0.037
   0.07475015  0.10069971  0.04217132       0.037
   0.09966686  0.11508538  0.04217132       0.037
   0.07475015  0.12947105  0.04217132       0.012
   0.00000000  0.00000000  0.08434264       0.003
   0.02491672  0.01438567  0.08434264       0.019
   0.04983343  0.02877134  0.08434264       0.019
   0.07475015  0.04315702  0.08434264       0.019
   0.09966686  0.05754269  0.08434264       0.019
   0.02491672  0.04315702  0.08434264       0.019
   0.04983343  0.05754269  0.08434264       0.037
   0.07475015  0.07192836  0.08434264       0.037
   0.09966686  0.08631403  0.08434264       0.019
   0.04983343  0.08631403  0.08434264       0.019
   0.07475015  0.10069971  0.08434264       0.037
   0.07475015  0.12947105  0.08434264       0.006
 
 k-points in reciprocal lattice and weights: K-Spacing Value to Generate K-Mesh: 0.04
   0.00000000  0.00000000  0.00000000       0.003
   0.11111111  0.00000000  0.00000000       0.019
   0.22222222  0.00000000  0.00000000       0.019
   0.33333333 -0.00000000  0.00000000       0.019
   0.44444444  0.00000000  0.00000000       0.019
   0.11111111  0.11111111  0.00000000       0.019
   0.22222222  0.11111111  0.00000000       0.037
   0.33333333  0.11111111  0.00000000       0.037
   0.44444444  0.11111111  0.00000000       0.019
   0.22222222  0.22222222  0.00000000       0.019
   0.33333333  0.22222222  0.00000000       0.037
   0.33333333  0.33333333  0.00000000       0.006
   0.00000000  0.00000000  0.25000000       0.006
   0.11111111  0.00000000  0.25000000       0.019
   0.22222222  0.00000000  0.25000000       0.019
   0.33333333 -0.00000000  0.25000000       0.019
   0.44444444  0.00000000  0.25000000       0.019
  -0.44444444 -0.00000000  0.25000000       0.019
  -0.33333333  0.00000000  0.25000000       0.019
  -0.22222222 -0.00000000  0.25000000       0.019
  -0.11111111 -0.00000000  0.25000000       0.019
   0.11111111  0.11111111  0.25000000       0.037
   0.22222222  0.11111111  0.25000000       0.037
   0.33333333  0.11111111  0.25000000       0.037
   0.44444444  0.11111111  0.25000000       0.037
  -0.44444444  0.11111111  0.25000000       0.037
  -0.33333333  0.11111111  0.25000000       0.037
   0.22222222  0.22222222  0.25000000       0.037
   0.33333333  0.22222222  0.25000000       0.037
   0.44444444  0.22222222  0.25000000       0.037
   0.33333333  0.33333333  0.25000000       0.012
   0.00000000  0.00000000  0.50000000       0.003
   0.11111111  0.00000000  0.50000000       0.019
   0.22222222  0.00000000  0.50000000       0.019
   0.33333333 -0.00000000  0.50000000       0.019
   0.44444444  0.00000000  0.50000000       0.019
   0.11111111  0.11111111  0.50000000       0.019
   0.22222222  0.11111111  0.50000000       0.037
   0.33333333  0.11111111  0.50000000       0.037
   0.44444444  0.11111111  0.50000000       0.019
   0.22222222  0.22222222  0.50000000       0.019
   0.33333333  0.22222222  0.50000000       0.037
   0.33333333  0.33333333  0.50000000       0.006
 
 position of ions in fractional coordinates (direct lattice) 
   0.26196900  0.00000000  0.33333334
   0.00000000  0.26196900  0.66666669
   0.73803103  0.73803103  0.00000000
 
 position of ions in cartesian coordinates  (Angst):
   1.16819837  0.00000000  1.97606665
  -0.58409919  1.01168947  3.95213330
   1.64555090  2.85017777  0.00000000
 


--------------------------------------------------------------------------------------------------------


 k-point  1 :   0.0000 0.0000 0.0000  plane waves:    2729
 k-point  2 :   0.1111 0.0000 0.0000  plane waves:    2751
 k-point  3 :   0.2222 0.0000 0.0000  plane waves:    2738
 k-point  4 :   0.3333-0.0000 0.0000  plane waves:    2748
 k-point  5 :   0.4444 0.0000 0.0000  plane waves:    2734
 k-point  6 :   0.1111 0.1111 0.0000  plane waves:    2745
 k-point  7 :   0.2222 0.1111 0.0000  plane waves:    2742
 k-point  8 :   0.3333 0.1111 0.0000  plane waves:    2750
 k-point  9 :   0.4444 0.1111 0.0000  plane waves:    2738
 k-point 10 :   0.2222 0.2222 0.0000  plane waves:    2744
 k-point 11 :   0.3333 0.2222 0.0000  plane waves:    2737
 k-point 12 :   0.3333 0.3333 0.0000  plane waves:    2742
 k-point 13 :   0.0000 0.0000 0.2500  plane waves:    2752
 k-point 14 :   0.1111 0.0000 0.2500  plane waves:    2750
 k-point 15 :   0.2222 0.0000 0.2500  plane waves:    2757
 k-point 16 :   0.3333-0.0000 0.2500  plane waves:    2743
 k-point 17 :   0.4444 0.0000 0.2500  plane waves:    2751
 k-point 18 :  -0.4444-0.0000 0.2500  plane waves:    2751
 k-point 19 :  -0.3333 0.0000 0.2500  plane waves:    2743
 k-point 20 :  -0.2222-0.0000 0.2500  plane waves:    2757
 k-point 21 :  -0.1111-0.0000 0.2500  plane waves:    2750
 k-point 22 :   0.1111 0.1111 0.2500  plane waves:    2754
 k-point 23 :   0.2222 0.1111 0.2500  plane waves:    2751
 k-point 24 :   0.3333 0.1111 0.2500  plane waves:    2747
 k-point 25 :   0.4444 0.1111 0.2500  plane waves:    2745
 k-point 26 :  -0.4444 0.1111 0.2500  plane waves:    2747
 k-point 27 :  -0.3333 0.1111 0.2500  plane waves:    2751
 k-point 28 :   0.2222 0.2222 0.2500  plane waves:    2759
 k-point 29 :   0.3333 0.2222 0.2500  plane waves:    2751
 k-point 30 :   0.4444 0.2222 0.2500  plane waves:    2751
 k-point 31 :   0.3333 0.3333 0.2500  plane waves:    2751
 k-point 32 :   0.0000 0.0000 0.5000  plane waves:    2722
 k-point 33 :   0.1111 0.0000 0.5000  plane waves:    2780
 k-point 34 :   0.2222 0.0000 0.5000  plane waves:    2758
 k-point 35 :   0.3333-0.0000 0.5000  plane waves:    2746
 k-point 36 :   0.4444 0.0000 0.5000  plane waves:    2762
 k-point 37 :   0.1111 0.1111 0.5000  plane waves:    2760
 k-point 38 :   0.2222 0.1111 0.5000  plane waves:    2740
 k-point 39 :   0.3333 0.1111 0.5000  plane waves:    2740
 k-point 40 :   0.4444 0.1111 0.5000  plane waves:    2752
 k-point 41 :   0.2222 0.2222 0.5000  plane waves:    2732
 k-point 42 :   0.3333 0.2222 0.5000  plane waves:    2756
 k-point 43 :   0.3333 0.3333 0.5000  plane waves:    2766

 maximum and minimum number of plane-waves per node :      1406     1352

 maximum number of plane-waves:      2780
 maximum index in each direction: 
   IXMAX=    8   IYMAX=    8   IZMAX=   11
   IXMIN=   -8   IYMIN=   -8   IZMIN=  -11


 parallel 3D FFT for wavefunctions:
    minimum data exchange during FFTs selected (reduces bandwidth)
 parallel 3D FFT for charge:
    minimum data exchange during FFTs selected (reduces bandwidth)


 total amount of memory used by VASP MPI-rank0    48763. kBytes
=======================================================================

   base      :      30000. kBytes
   nonl-proj :       6255. kBytes
   fftplans  :       2372. kBytes
   grid      :       3330. kBytes
   one-center:         16. kBytes
   wavefun   :       6790. kBytes
 
     INWAV:  cpu time    0.0001: real time    0.0003
 Broyden mixing: mesh for mixing (old mesh)
   NGX = 17   NGY = 17   NGZ = 23
  (NGX  = 56   NGY  = 56   NGZ  = 72)
  gives a total of   6647 points

 initial charge density was supplied:
 charge density of overlapping atoms calculated
 number of electron      18.0000000 magnetization 
 keeping initial charge density in first step


--------------------------------------------------------------------------------------------------------


 Maximum index for augmentation-charges         3920 (set IRDMAX)


--------------------------------------------------------------------------------------------------------


 First call to EWALD:  gamma=   0.379
 Maximum number of real-space cells 3x 3x 2
 Maximum number of reciprocal cells 3x 3x 3

    FEWALD:  cpu time    0.0156: real time    0.0157


--------------------------------------- Iteration      1(   1)  ---------------------------------------


    POTLOK:  cpu time    0.1022: real time    0.2066
    SETDIJ:  cpu time    0.0106: real time    0.0196
     EDDAV:  cpu time    3.2034: real time    4.8428
       DOS:  cpu time    0.0026: real time    0.0026
    --------------------------------------------
      LOOP:  cpu time    3.3189: real time    5.0716

 eigenvalue-minimisations  :  1204
 total energy-change (2. order) : 0.7678275E+02  (-0.6593620E+03)
 number of electron      18.0000000 magnetization 
 augmentation part       18.0000000 magnetization 

 Free energy of the ion-electron system (eV)
  ---------------------------------------------------
  alpha Z        PSCENC =         2.28965292
  Ewald energy   TEWEN  =      -672.62417676
  -Hartree energ DENC   =       -44.61341497
  -exchange      EXHF   =         0.00000000
  -V(xc)+E(xc)   XCENC  =       -84.05205210
  PAW double counting   =       623.23253030     -507.77874573
  entropy T*S    EENTRO =        -0.00146824
  eigenvalues    EBANDS =        90.51612027
  atomic energy  EATOM  =       669.81430600
  Solvation  Ediel_sol  =         0.00000000
  ---------------------------------------------------
  free energy    TOTEN  =        76.78275170 eV

  energy without entropy =       76.78421994  energy(sigma->0) =       76.78348582


--------------------------------------------------------------------------------------------------------




--------------------------------------- Iteration      1(   2)  ---------------------------------------


     EDDAV:  cpu time    4.2351: real time    6.5901
       DOS:  cpu time    0.0020: real time    0.0020
    --------------------------------------------
      LOOP:  cpu time    4.2371: real time    6.5921

 eigenvalue-minimisations  :  1576
 total energy-change (2. order) :-0.8094131E+02  (-0.7758047E+02)
 number of electron      18.0000000 magnetization 
 augmentation part       18.0000000 magnetization 

 Free energy of the ion-electron system (eV)
  ---------------------------------------------------
  alpha Z        PSCENC =         2.28965292
  Ewald energy   TEWEN  =      -672.62417676
  -Hartree energ DENC   =       -44.61341497
  -exchange      EXHF   =         0.00000000
  -V(xc)+E(xc)   XCENC  =       -84.05205210
  PAW double counting   =       623.23253030     -507.77874573
  entropy T*S    EENTRO =        -0.00000003
  eigenvalues    EBANDS =         9.57334428
  atomic energy  EATOM  =       669.81430600
  Solvation  Ediel_sol  =         0.00000000
  ---------------------------------------------------
  free energy    TOTEN  =        -4.15855608 eV

  energy without entropy =       -4.15855605  energy(sigma->0) =       -4.15855607


--------------------------------------------------------------------------------------------------------




--------------------------------------- Iteration      1(   3)  ---------------------------------------


     EDDAV:  cpu time    4.4877: real time    5.4091
       DOS:  cpu time    0.0023: real time    0.0023
    --------------------------------------------
      LOOP:  cpu time    4.4900: real time    5.4114

 eigenvalue-minimisations  :  1468
 total energy-change (2. order) :-0.5165277E+01  (-0.5124966E+01)
 number of electron      18.0000000 magnetization 
 augmentation part       18.0000000 magnetization 

 Free energy of the ion-electron system (eV)
  ---------------------------------------------------
  alpha Z        PSCENC =         2.28965292
  Ewald energy   TEWEN  =      -672.62417676
  -Hartree energ DENC   =       -44.61341497
  -exchange      EXHF   =         0.00000000
  -V(xc)+E(xc)   XCENC  =       -84.05205210
  PAW double counting   =       623.23253030     -507.77874573
  entropy T*S    EENTRO =        -0.00000099
  eigenvalues    EBANDS =         4.40806775
  atomic energy  EATOM  =       669.81430600
  Solvation  Ediel_sol  =         0.00000000
  ---------------------------------------------------
  free energy    TOTEN  =        -9.32383358 eV

  energy without entropy =       -9.32383258  energy(sigma->0) =       -9.32383308


--------------------------------------------------------------------------------------------------------




--------------------------------------- Iteration      1(   4)  ---------------------------------------


     EDDAV:  cpu time    3.9171: real time    6.0448
       DOS:  cpu time    0.0023: real time    0.0023
    --------------------------------------------
      LOOP:  cpu time    3.9194: real time    6.0471

 eigenvalue-minimisations  :  1574
 total energy-change (2. order) :-0.9271013E-01  (-0.9266610E-01)
 number of electron      18.0000000 magnetization 
 augmentation part       18.0000000 magnetization 

 Free energy of the ion-electron system (eV)
  ---------------------------------------------------
  alpha Z        PSCENC =         2.28965292
  Ewald energy   TEWEN  =      -672.62417676
  -Hartree energ DENC   =       -44.61341497
  -exchange      EXHF   =         0.00000000
  -V(xc)+E(xc)   XCENC  =       -84.05205210
  PAW double counting   =       623.23253030     -507.77874573
  entropy T*S    EENTRO =        -0.00000111
  eigenvalues    EBANDS =         4.31535774
  atomic energy  EATOM  =       669.81430600
  Solvation  Ediel_sol  =         0.00000000
  ---------------------------------------------------
  free energy    TOTEN  =        -9.41654371 eV

  energy without entropy =       -9.41654259  energy(sigma->0) =       -9.41654315


--------------------------------------------------------------------------------------------------------




--------------------------------------- Iteration      1(   5)  ---------------------------------------


     EDDAV:  cpu time    4.7457: real time    5.7172
       DOS:  cpu time    0.0023: real time    0.0023
    CHARGE:  cpu time    0.1486: real time    0.2964
    MIXING:  cpu time    0.0066: real time    0.0152
    --------------------------------------------
      LOOP:  cpu time    4.9033: real time    6.0312

 eigenvalue-minimisations  :  1560
 total energy-change (2. order) :-0.1669984E-02  (-0.1669979E-02)
 number of electron      17.9999998 magnetization 
 augmentation part       -3.6013406 magnetization 

 Broyden mixing:
  rms(total) = 0.12417E+01    rms(broyden)= 0.12417E+01
  rms(prec ) = 0.12606E+01
  weight for this iteration     100.00

 Free energy of the ion-electron system (eV)
  ---------------------------------------------------
  alpha Z        PSCENC =         2.28965292
  Ewald energy   TEWEN  =      -672.62417676
  -Hartree energ DENC   =       -44.61341497
  -exchange      EXHF   =         0.00000000
  -V(xc)+E(xc)   XCENC  =       -84.05205210
  PAW double counting   =       623.23253030     -507.77874573
  entropy T*S    EENTRO =        -0.00000111
  eigenvalues    EBANDS =         4.31368775
  atomic energy  EATOM  =       669.81430600
  Solvation  Ediel_sol  =         0.00000000
  ---------------------------------------------------
  free energy    TOTEN  =        -9.41821369 eV

  energy without entropy =       -9.41821258  energy(sigma->0) =       -9.41821313


--------------------------------------------------------------------------------------------------------




--------------------------------------- Iteration      1(   6)  ---------------------------------------


    POTLOK:  cpu time    0.1981: real time    0.2000
    SETDIJ:  cpu time    0.0149: real time    0.0149
     EDDAV:  cpu time    4.0634: real time    4.4140
       DOS:  cpu time    0.0034: real time    0.0122
    CHARGE:  cpu time    0.1320: real time    0.2656
    MIXING:  cpu time    0.0055: real time    0.0055
    --------------------------------------------
      LOOP:  cpu time    4.4172: real time    4.9121

 eigenvalue-minimisations  :  1330
 total energy-change (2. order) : 0.2243227E-01  (-0.2186366E-02)
 number of electron      17.9999998 magnetization 
 augmentation part       -3.6056647 magnetization 

 Broyden mixing:
  rms(total) = 0.78842E+00    rms(broyden)= 0.78842E+00
  rms(prec ) = 0.79860E+00
  weight for this iteration     100.00

 eigenvalues of (default mixing * dielectric matrix)
  average eigenvalue GAMMA=   2.7341
  2.7341

 Free energy of the ion-electron system (eV)
  ---------------------------------------------------
  alpha Z        PSCENC =         2.28965292
  Ewald energy   TEWEN  =      -672.62417676
  -Hartree energ DENC   =       -44.59627643
  -exchange      EXHF   =         0.00000000
  -V(xc)+E(xc)   XCENC  =       -84.00354778
  PAW double counting   =       928.42511663     -813.02322098
  entropy T*S    EENTRO =        -0.00001193
  eigenvalues    EBANDS =         4.32237692
  atomic energy  EATOM  =       669.81430600
  Solvation  Ediel_sol  =         0.00000000
  ---------------------------------------------------
  free energy    TOTEN  =        -9.39578142 eV

  energy without entropy =       -9.39576949  energy(sigma->0) =       -9.39577545


--------------------------------------------------------------------------------------------------------




--------------------------------------- Iteration      1(   7)  ---------------------------------------


    POTLOK:  cpu time    0.1208: real time    0.2528
    SETDIJ:  cpu time    0.0138: real time    0.0330
     EDDAV:  cpu time    3.5631: real time    5.6225
       DOS:  cpu time    0.0041: real time    0.0127
    CHARGE:  cpu time    0.1260: real time    0.2525
    MIXING:  cpu time    0.0754: real time    0.1523
    --------------------------------------------
      LOOP:  cpu time    3.9033: real time    6.3258

 eigenvalue-minimisations  :  1348
 total energy-change (2. order) : 0.4048175E-02  (-0.4628726E-02)
 number of electron      17.9999998 magnetization 
 augmentation part       -3.6100798 magnetization 

 Broyden mixing:
  rms(total) = 0.33675E-01    rms(broyden)= 0.33675E-01
  rms(prec ) = 0.43844E-01
  weight for this iteration     100.00

 eigenvalues of (default mixing * dielectric matrix)
  average eigenvalue GAMMA=   2.0784
  1.7074  2.4494

 Free energy of the ion-electron system (eV)
  ---------------------------------------------------
  alpha Z        PSCENC =         2.28965292
  Ewald energy   TEWEN  =      -672.62417676
  -Hartree energ DENC   =       -44.79247322
  -exchange      EXHF   =         0.00000000
  -V(xc)+E(xc)   XCENC  =       -83.90105858
  PAW double counting   =      1637.42968207    -1522.10893753
  entropy T*S    EENTRO =        -0.00009429
  eigenvalues    EBANDS =         4.50136615
  atomic energy  EATOM  =       669.81430600
  Solvation  Ediel_sol  =         0.00000000
  ---------------------------------------------------
  free energy    TOTEN  =        -9.39173324 eV

  energy without entropy =       -9.39163895  energy(sigma->0) =       -9.39168609


--------------------------------------------------------------------------------------------------------




--------------------------------------- Iteration      1(   8)  ---------------------------------------


    POTLOK:  cpu time    0.1099: real time    0.2122
    SETDIJ:  cpu time    0.0101: real time    0.0225
     EDDAV:  cpu time    3.3715: real time    5.4998
       DOS:  cpu time    0.0034: real time    0.0117
    CHARGE:  cpu time    0.1284: real time    0.2585
    MIXING:  cpu time    0.0091: real time    0.0174
    --------------------------------------------
      LOOP:  cpu time    3.6325: real time    6.0221

 eigenvalue-minimisations  :  1240
 total energy-change (2. order) : 0.8719305E-03  (-0.8798909E-03)
 number of electron      17.9999998 magnetization 
 augmentation part       -3.6084959 magnetization 

 Broyden mixing:
  rms(total) = 0.18314E-01    rms(broyden)= 0.18314E-01
  rms(prec ) = 0.18917E-01
  weight for this iteration     100.00

 eigenvalues of (default mixing * dielectric matrix)
  average eigenvalue GAMMA=   1.4870
  2.4759  1.5414  0.4438

 Free energy of the ion-electron system (eV)
  ---------------------------------------------------
  alpha Z        PSCENC =         2.28965292
  Ewald energy   TEWEN  =      -672.62417676
  -Hartree energ DENC   =       -44.85308067
  -exchange      EXHF   =         0.00000000
  -V(xc)+E(xc)   XCENC  =       -83.90772213
  PAW double counting   =      1583.08047636    -1467.75119898
  entropy T*S    EENTRO =        -0.00004746
  eigenvalues    EBANDS =         4.56092942
  atomic energy  EATOM  =       669.81430600
  Solvation  Ediel_sol  =         0.00000000
  ---------------------------------------------------
  free energy    TOTEN  =        -9.39086131 eV

  energy without entropy =       -9.39081385  energy(sigma->0) =       -9.39083758


--------------------------------------------------------------------------------------------------------




--------------------------------------- Iteration      1(   9)  ---------------------------------------


    POTLOK:  cpu time    0.1075: real time    0.2149
    SETDIJ:  cpu time    0.0150: real time    0.0320
     EDDAV:  cpu time    3.6673: real time    4.6586
       DOS:  cpu time    0.0025: real time    0.0024
    CHARGE:  cpu time    0.2629: real time    0.2636
    MIXING:  cpu time    0.0078: real time    0.0078
    --------------------------------------------
      LOOP:  cpu time    4.0629: real time    5.1793

 eigenvalue-minimisations  :  1616
 total energy-change (2. order) :-0.3827179E-04  (-0.2538986E-04)
 number of electron      17.9999998 magnetization 
 augmentation part       -3.6086144 magnetization 

 Broyden mixing:
  rms(total) = 0.13184E-01    rms(broyden)= 0.13184E-01
  rms(prec ) = 0.13710E-01
  weight for this iteration     100.00

 eigenvalues of (default mixing * dielectric matrix)
  average eigenvalue GAMMA=   1.8748
  2.4801  1.4442  1.7875  1.7875

 Free energy of the ion-electron system (eV)
  ---------------------------------------------------
  alpha Z        PSCENC =         2.28965292
  Ewald energy   TEWEN  =      -672.62417676
  -Hartree energ DENC   =       -44.85117342
  -exchange      EXHF   =         0.00000000
  -V(xc)+E(xc)   XCENC  =       -83.90724784
  PAW double counting   =      1580.29333949    -1464.96409698
  entropy T*S    EENTRO =        -0.00004861
  eigenvalues    EBANDS =         4.55854562
  atomic energy  EATOM  =       669.81430600
  Solvation  Ediel_sol  =         0.00000000
  ---------------------------------------------------
  free energy    TOTEN  =        -9.39089958 eV

  energy without entropy =       -9.39085097  energy(sigma->0) =       -9.39087528


--------------------------------------------------------------------------------------------------------




--------------------------------------- Iteration      1(  10)  ---------------------------------------


    POTLOK:  cpu time    0.2219: real time    0.2226
    SETDIJ:  cpu time    0.0150: real time    0.0150
     EDDAV:  cpu time    3.5728: real time    4.8568
       DOS:  cpu time    0.0025: real time    0.0025
    CHARGE:  cpu time    0.1460: real time    0.1594
    MIXING:  cpu time    0.0364: real time    0.0365
    --------------------------------------------
      LOOP:  cpu time    3.9946: real time    5.2927

 eigenvalue-minimisations  :  1300
 total energy-change (2. order) :-0.5175327E-04  (-0.6159236E-05)
 number of electron      17.9999998 magnetization 
 augmentation part       -3.6088221 magnetization 

 Broyden mixing:
  rms(total) = 0.24099E-02    rms(broyden)= 0.24099E-02
  rms(prec ) = 0.34901E-02
  weight for this iteration     100.00

 eigenvalues of (default mixing * dielectric matrix)
  average eigenvalue GAMMA=   1.7482
  2.5654  2.5654  1.4251  1.3118  0.8733

 Free energy of the ion-electron system (eV)
  ---------------------------------------------------
  alpha Z        PSCENC =         2.28965292
  Ewald energy   TEWEN  =      -672.62417676
  -Hartree energ DENC   =       -44.85851353
  -exchange      EXHF   =         0.00000000
  -V(xc)+E(xc)   XCENC  =       -83.90461735
  PAW double counting   =      1575.66158189    -1460.33249254
  entropy T*S    EENTRO =        -0.00005073
  eigenvalues    EBANDS =         4.56335877
  atomic energy  EATOM  =       669.81430600
  Solvation  Ediel_sol  =         0.00000000
  ---------------------------------------------------
  free energy    TOTEN  =        -9.39095133 eV

  energy without entropy =       -9.39090061  energy(sigma->0) =       -9.39092597


--------------------------------------------------------------------------------------------------------




--------------------------------------- Iteration      1(  11)  ---------------------------------------


    POTLOK:  cpu time    0.1240: real time    0.2574
    SETDIJ:  cpu time    0.0159: real time    0.0334
     EDDAV:  cpu time    3.2104: real time    4.0905
       DOS:  cpu time    0.0026: real time    0.0026
    --------------------------------------------
      LOOP:  cpu time    3.3529: real time    4.3840

 eigenvalue-minimisations  :  1126
 total energy-change (2. order) : 0.8119904E-05  (-0.2553561E-05)
 number of electron      17.9999998 magnetization 
 augmentation part       -3.6088221 magnetization 

 Free energy of the ion-electron system (eV)
  ---------------------------------------------------
  alpha Z        PSCENC =         2.28965292
  Ewald energy   TEWEN  =      -672.62417676
  -Hartree energ DENC   =       -44.86820317
  -exchange      EXHF   =         0.00000000
  -V(xc)+E(xc)   XCENC  =       -83.90417861
  PAW double counting   =      1573.57828702    -1458.24888428
  entropy T*S    EENTRO =        -0.00004790
  eigenvalues    EBANDS =         4.57230156
  atomic energy  EATOM  =       669.81430600
  Solvation  Ediel_sol  =         0.00000000
  ---------------------------------------------------
  free energy    TOTEN  =        -9.39094321 eV

  energy without entropy =       -9.39089531  energy(sigma->0) =       -9.39091926


--------------------------------------------------------------------------------------------------------




 average (electrostatic) potential at core
  the test charge radii are     1.1897
  (the norm of the test charge is              1.0000)
       1 -89.0486       2 -89.0486       3 -89.0486
 
 
 
 E-fermi :   5.9805     XC(G=0):  -9.0463     alpha+bet :-10.5335


 k-point     1 :       0.0000    0.0000    0.0000
  band No.  band energies     occupation 
      1      -7.7598      2.00000
      2      -4.4175      2.00000
      3      -4.4175      2.00000
      4       2.8124      2.00000
      5       3.0984      2.00000
      6       3.0984      2.00000
      7       4.2559      2.00000
      8       4.2559      2.00000
      9       5.1843      2.00000
     10       6.9401      0.00000
     11       6.9401      0.00000
     12       7.5823      0.00000
     13      10.8391      0.00000
     14      10.8391      0.00000

 k-point     2 :       0.1111    0.0000    0.0000
  band No.  band energies     occupation 
      1      -7.6795      2.00000
      2      -4.4417      2.00000
      3      -4.3932      2.00000
      4       2.2024      2.00000
      5       2.6987      2.00000
      6       2.9643      2.00000
      7       4.4807      2.00000
      8       4.7882      2.00000
      9       5.2687      2.00000
     10       6.7221      0.00000
     11       6.8959      0.00000
     12       7.4967      0.00000
     13      10.6462      0.00000
     14      10.8089      0.00000

 k-point     3 :       0.2222    0.0000    0.0000
  band No.  band energies     occupation 
      1      -7.4510      2.00000
      2      -4.5491      2.00000
      3      -4.3272      2.00000
      4       1.4319      2.00000
      5       2.1416      2.00000
      6       2.6310      2.00000
      7       4.5459      2.00000
      8       4.8635      2.00000
      9       5.0814      2.00000
     10       6.8395      0.00000
     11       7.0274      0.00000
     12       7.6963      0.00000
     13       9.9590      0.00000
     14      11.0438      0.00000

 k-point     4 :       0.3333   -0.0000    0.0000
  band No.  band energies     occupation 
      1      -7.1232      2.00000
      2      -4.7835      2.00000
      3      -4.2449      2.00000
      4       1.0454      2.00000
      5       1.7015      2.00000
      6       2.3495      2.00000
      7       3.5492      2.00000
      8       4.8487      2.00000
      9       5.0748      2.00000
     10       6.8563      0.00000
     11       7.0331      0.00000
     12       8.7380      0.00000
     13       9.3388      0.00000
     14      11.8198      0.00000

 k-point     5 :       0.4444    0.0000    0.0000
  band No.  band energies     occupation 
      1      -6.8326      2.00000
      2      -5.0425      2.00000
      3      -4.1868      2.00000
      4       0.9968      2.00000
      5       1.4927      2.00000
      6       2.2888      2.00000
      7       2.6848      2.00000
      8       4.7793      2.00000
      9       5.0538      2.00000
     10       6.8562      0.00000
     11       6.9770      0.00000
     12       9.0038      0.00000
     13       9.5584      0.00000
     14      12.9093      0.00000

 k-point     6 :       0.1111    0.1111    0.0000
  band No.  band energies     occupation 
      1      -7.5247      2.00000
      2      -4.4936      2.00000
      3      -4.3630      2.00000
      4       1.6812      2.00000
      5       2.0449      2.00000
      6       3.0074      2.00000
      7       4.3466      2.00000
      8       5.0439      2.00000
      9       5.1051      2.00000
     10       6.7741      0.00000
     11       7.0669      0.00000
     12       7.5683      0.00000
     13      10.4170      0.00000
     14      10.5406      0.00000

 k-point     7 :       0.2222    0.1111    0.0000
  band No.  band energies     occupation 
      1      -7.2434      2.00000
      2      -4.6417      2.00000
      3      -4.3230      2.00000
      4       1.2077      2.00000
      5       1.6080      2.00000
      6       2.7376      2.00000
      7       4.0599      2.00000
      8       4.4249      2.00000
      9       4.8060      2.00000
     10       7.2012      0.00000
     11       7.4748      0.00000
     12       8.1018      0.00000
     13       9.8860      0.00000
     14      10.8125      0.00000

 k-point     8 :       0.3333    0.1111    0.0000
  band No.  band energies     occupation 
      1      -6.9183      2.00000
      2      -4.8923      2.00000
      3      -4.2826      2.00000
      4       1.0483      2.00000
      5       1.4460      2.00000
      6       2.4229      2.00000
      7       3.1241      2.00000
      8       4.3573      2.00000
      9       4.5770      2.00000
     10       7.2905      0.00000
     11       7.5707      0.00000
     12       9.1131      0.00000
     13       9.4862      0.00000
     14      11.7172      0.00000

 k-point     9 :       0.4444    0.1111    0.0000
  band No.  band energies     occupation 
      1      -6.7506      2.00000
      2      -5.0426      2.00000
      3      -4.2652      2.00000
      4       1.0636      2.00000
      5       1.4363      2.00000
      6       2.4552      2.00000
      7       2.5100      2.00000
      8       4.3471      2.00000
      9       4.4905      2.00000
     10       7.2859      0.00000
     11       7.5954      0.00000
     12       9.3405      0.00000
     13       9.5853      0.00000
     14      12.6511      0.00000

 k-point    10 :       0.2222    0.2222    0.0000
  band No.  band energies     occupation 
      1      -6.9541      2.00000
      2      -4.7571      2.00000
      3      -4.4008      2.00000
      4       1.1670      2.00000
      5       1.2921      2.00000
      6       2.7082      2.00000
      7       3.5711      2.00000
      8       3.9196      2.00000
      9       3.9833      2.00000
     10       7.8986      0.00000
     11       8.2269      0.00000
     12       8.4573      0.00000
     13      10.2245      0.00000
     14      10.6642      0.00000

 k-point    11 :       0.3333    0.2222    0.0000
  band No.  band energies     occupation 
      1      -6.7110      2.00000
      2      -4.8879      2.00000
      3      -4.4769      2.00000
      4       1.2036      2.00000
      5       1.3495      2.00000
      6       2.5808      2.00000
      7       2.8989      2.00000
      8       3.6104      2.00000
      9       3.7150      2.00000
     10       8.1256      0.00000
     11       8.4951      0.00000
     12       9.1901      0.00000
     13      10.2004      0.00000
     14      11.5039      0.00000

 k-point    12 :       0.3333    0.3333    0.0000
  band No.  band energies     occupation 
      1      -6.6205      2.00000
      2      -4.7291      2.00000
      3      -4.7291      2.00000
      4       1.3424      2.00000
      5       1.3424      2.00000
      6       2.8584      2.00000
      7       2.8585      2.00000
      8       3.0452      2.00000
      9       3.3022      2.00000
     10       8.7842      0.00000
     11       8.7842      0.00000
     12       9.1507      0.00000
     13      10.7317      0.00000
     14      11.8236      0.00000

 k-point    13 :       0.0000    0.0000    0.2500
  band No.  band energies     occupation 
      1      -7.5323      2.00000
      2      -5.7901      2.00000
      3      -2.9964      2.00000
      4       2.3527      2.00000
      5       2.9474      2.00000
      6       3.3961      2.00000
      7       4.4215      2.00000
      8       4.4277      2.00000
      9       5.1095      2.00000
     10       6.6509      0.00000
     11       6.6671      0.00000
     12       7.0895      0.00000
     13      10.3232      0.00000
     14      11.4036      0.00000

 k-point    14 :       0.1111    0.0000    0.2500
  band No.  band energies     occupation 
      1      -7.4552      2.00000
      2      -5.7404      2.00000
      3      -3.0977      2.00000
      4       2.0873      2.00000
      5       2.7724      2.00000
      6       3.2490      2.00000
      7       4.1860      2.00000
      8       4.5301      2.00000
      9       4.7801      2.00000
     10       6.9063      0.00000
     11       7.0337      0.00000
     12       7.4216      0.00000
     13      10.4092      0.00000
     14      11.3641      0.00000

 k-point    15 :       0.2222    0.0000    0.2500
  band No.  band energies     occupation 
      1      -7.2395      2.00000
      2      -5.5995      2.00000
      3      -3.4147      2.00000
      4       1.7217      2.00000
      5       2.3632      2.00000
      6       2.9926      2.00000
      7       3.5248      2.00000
      8       4.1446      2.00000
      9       4.7010      2.00000
     10       7.2141      0.00000
     11       7.7913      0.00000
     12       8.2342      0.00000
     13      10.6798      0.00000
     14      11.0999      0.00000

 k-point    16 :       0.3333   -0.0000    0.2500
  band No.  band energies     occupation 
      1      -6.9369      2.00000
      2      -5.4276      2.00000
      3      -3.8458      2.00000
      4       1.3987      2.00000
      5       1.8054      2.00000
      6       2.6739      2.00000
      7       3.0978      2.00000
      8       4.1233      2.00000
      9       4.5934      2.00000
     10       7.2601      0.00000
     11       7.9645      0.00000
     12       9.0631      0.00000
     13      10.3051      0.00000
     14      11.5405      0.00000

 k-point    17 :       0.4444    0.0000    0.2500
  band No.  band energies     occupation 
      1      -6.6675      2.00000
      2      -5.3854      2.00000
      3      -4.0871      2.00000
      4       0.8806      2.00000
      5       1.4829      2.00000
      6       2.3921      2.00000
      7       3.4988      2.00000
      8       4.1423      2.00000
      9       4.5061      2.00000
     10       7.1601      0.00000
     11       7.9331      0.00000
     12       8.9221      0.00000
     13       9.9002      0.00000
     14      11.9247      0.00000

 k-point    18 :      -0.4444   -0.0000    0.2500
  band No.  band energies     occupation 
      1      -6.6442      2.00000
      2      -5.4900      2.00000
      3      -3.9396      2.00000
      4       0.5823      2.00000
      5       1.3904      2.00000
      6       2.3551      2.00000
      7       4.1324      2.00000
      8       4.2512      2.00000
      9       4.6320      2.00000
     10       7.0465      0.00000
     11       7.7522      0.00000
     12       8.2071      0.00000
     13       9.6182      0.00000
     14      12.4159      0.00000

 k-point    19 :      -0.3333    0.0000    0.2500
  band No.  band energies     occupation 
      1      -6.9110      2.00000
      2      -5.5583      2.00000
      3      -3.6140      2.00000
      4       0.7815      2.00000
      5       1.4883      2.00000
      6       2.5057      2.00000
      7       4.4141      2.00000
      8       4.4705      2.00000
      9       5.3422      2.00000
     10       6.7688      0.00000
     11       7.3942      0.00000
     12       7.5923      0.00000
     13       9.5021      0.00000
     14      12.4334      0.00000

 k-point    20 :      -0.2222   -0.0000    0.2500
  band No.  band energies     occupation 
      1      -7.2303      2.00000
      2      -5.6482      2.00000
      3      -3.2984      2.00000
      4       1.4588      2.00000
      5       1.7884      2.00000
      6       2.7974      2.00000
      7       4.6025      2.00000
      8       4.7666      2.00000
      9       5.4392      2.00000
     10       6.5810      0.00000
     11       7.0649      0.00000
     12       7.3331      0.00000
     13       9.6671      0.00000
     14      11.9376      0.00000

 k-point    21 :      -0.1111   -0.0000    0.2500
  band No.  band energies     occupation 
      1      -7.4540      2.00000
      2      -5.7467      2.00000
      3      -3.0790      2.00000
      4       2.1095      2.00000
      5       2.4808      2.00000
      6       3.1593      2.00000
      7       4.6310      2.00000
      8       4.6774      2.00000
      9       5.0210      2.00000
     10       6.6398      0.00000
     11       6.6645      0.00000
     12       7.4184      0.00000
     13      10.1281      0.00000
     14      11.4105      0.00000

 k-point    22 :       0.1111    0.1111    0.2500
  band No.  band energies     occupation 
      1      -7.3056      2.00000
      2      -5.6601      2.00000
      3      -3.2695      2.00000
      4       1.7622      2.00000
      5       2.1115      2.00000
      6       3.0159      2.00000
      7       4.0221      2.00000
      8       4.6206      2.00000
      9       5.0496      2.00000
     10       6.8397      0.00000
     11       7.4020      0.00000
     12       7.6259      0.00000
     13      10.1586      0.00000
     14      11.3910      0.00000

 k-point    23 :       0.2222    0.1111    0.2500
  band No.  band energies     occupation 
      1      -7.0422      2.00000
      2      -5.5047      2.00000
      3      -3.6510      2.00000
      4       1.4132      2.00000
      5       1.8229      2.00000
      6       2.8347      2.00000
      7       3.1395      2.00000
      8       4.2356      2.00000
      9       5.1624      2.00000
     10       6.9997      0.00000
     11       7.7520      0.00000
     12       8.6749      0.00000
     13      10.4909      0.00000
     14      10.9872      0.00000

 k-point    24 :       0.3333    0.1111    0.2500
  band No.  band energies     occupation 
      1      -6.7440      2.00000
      2      -5.3780      2.00000
      3      -4.0285      2.00000
      4       1.1189      2.00000
      5       1.3929      2.00000
      6       2.4998      2.00000
      7       3.1624      2.00000
      8       3.9214      2.00000
      9       5.1699      2.00000
     10       6.9450      0.00000
     11       8.0676      0.00000
     12       9.0613      0.00000
     13      10.1710      0.00000
     14      11.6334      0.00000

 k-point    25 :       0.4444    0.1111    0.2500
  band No.  band energies     occupation 
      1      -6.5791      2.00000
      2      -5.4170      2.00000
      3      -4.0926      2.00000
      4       0.7160      2.00000
      5       1.2660      2.00000
      6       2.3905      2.00000
      7       3.3827      2.00000
      8       4.0656      2.00000
      9       5.1667      2.00000
     10       6.8801      0.00000
     11       8.1195      0.00000
     12       8.5755      0.00000
     13       9.9570      0.00000
     14      12.2816      0.00000

 k-point    26 :      -0.4444    0.1111    0.2500
  band No.  band energies     occupation 
      1      -6.7200      2.00000
      2      -5.4926      2.00000
      3      -3.8566      2.00000
      4       0.6478      2.00000
      5       1.3935      2.00000
      6       2.4316      2.00000
      7       3.4373      2.00000
      8       4.7518      2.00000
      9       5.2500      2.00000
     10       6.7732      0.00000
     11       7.6754      0.00000
     12       8.1563      0.00000
     13       9.8511      0.00000
     14      12.2157      0.00000

 k-point    27 :      -0.3333    0.1111    0.2500
  band No.  band energies     occupation 
      1      -7.0316      2.00000
      2      -5.5599      2.00000
      3      -3.5421      2.00000
      4       1.0850      2.00000
      5       1.6452      2.00000
      6       2.6595      2.00000
      7       3.6429      2.00000
      8       4.9253      2.00000
      9       5.5768      2.00000
     10       6.5410      0.00000
     11       7.2934      0.00000
     12       7.9796      0.00000
     13       9.8663      0.00000
     14      11.6077      0.00000

 k-point    28 :       0.2222    0.2222    0.2500
  band No.  band energies     occupation 
      1      -6.7636      2.00000
      2      -5.4331      2.00000
      3      -3.9113      2.00000
      4       0.8845      2.00000
      5       1.4864      2.00000
      6       2.4321      2.00000
      7       2.9885      2.00000
      8       4.5522      2.00000
      9       5.4372      2.00000
     10       6.8642      0.00000
     11       7.6984      0.00000
     12       8.7710      0.00000
     13      10.4683      0.00000
     14      11.0367      0.00000

 k-point    29 :       0.3333    0.2222    0.2500
  band No.  band energies     occupation 
      1      -6.5407      2.00000
      2      -5.3649      2.00000
      3      -4.1713      2.00000
      4       0.8461      2.00000
      5       1.1475      2.00000
      6       2.0966      2.00000
      7       3.1875      2.00000
      8       4.2006      2.00000
      9       5.2426      2.00000
     10       7.1161      0.00000
     11       8.2189      0.00000
     12       8.7953      0.00000
     13      10.4988      0.00000
     14      11.5847      0.00000

 k-point    30 :       0.4444    0.2222    0.2500
  band No.  band energies     occupation 
      1      -6.5339      2.00000
      2      -5.3958      2.00000
      3      -4.1318      2.00000
      4       0.7104      2.00000
      5       1.2121      2.00000
      6       2.1121      2.00000
      7       3.1494      2.00000
      8       4.4695      2.00000
      9       5.1260      2.00000
     10       7.2242      0.00000
     11       8.0221      0.00000
     12       8.6448      0.00000
     13      10.4499      0.00000
     14      11.7904      0.00000

 k-point    31 :       0.3333    0.3333    0.2500
  band No.  band energies     occupation 
      1      -6.4514      2.00000
      2      -5.3537      2.00000
      3      -4.2467      2.00000
      4       0.7895      2.00000
      5       1.1184      2.00000
      6       1.7838      2.00000
      7       3.3287      2.00000
      8       4.3957      2.00000
      9       4.8651      2.00000
     10       7.6673      0.00000
     11       8.3481      0.00000
     12       8.4247      0.00000
     13      11.2053      0.00000
     14      11.5014      0.00000

 k-point    32 :       0.0000    0.0000    0.5000
  band No.  band energies     occupation 
      1      -6.8617      2.00000
      2      -6.8617      2.00000
      3      -2.2529      2.00000
      4       1.8322      2.00000
      5       3.2415      2.00000
      6       3.2415      2.00000
      7       4.5633      2.00000
      8       4.8425      2.00000
      9       4.8425      2.00000
     10       6.4589      0.00000
     11       6.5303      0.00000
     12       6.5303      0.00000
     13       9.9295      0.00000
     14      11.2293      0.00000

 k-point    33 :       0.1111    0.0000    0.5000
  band No.  band energies     occupation 
      1      -6.8015      2.00000
      2      -6.7854      2.00000
      3      -2.4302      2.00000
      4       1.7851      2.00000
      5       3.0449      2.00000
      6       3.1358      2.00000
      7       4.1410      2.00000
      8       4.4708      2.00000
      9       4.7234      2.00000
     10       6.6982      0.00000
     11       6.9063      0.00000
     12       7.3010      0.00000
     13      10.1584      0.00000
     14      10.9113      0.00000

 k-point    34 :       0.2222    0.0000    0.5000
  band No.  band energies     occupation 
      1      -6.6395      2.00000
      2      -6.5675      2.00000
      3      -2.8875      2.00000
      4       1.4737      2.00000
      5       2.4642      2.00000
      6       2.8346      2.00000
      7       3.9482      2.00000
      8       4.0896      2.00000
      9       4.5901      2.00000
     10       7.1013      0.00000
     11       7.6199      0.00000
     12       8.0779      0.00000
     13      10.4167      0.00000
     14      11.0514      0.00000

 k-point    35 :       0.3333   -0.0000    0.5000
  band No.  band energies     occupation 
      1      -6.4350      2.00000
      2      -6.2528      2.00000
      3      -3.4515      2.00000
      4       0.7948      2.00000
      5       2.1915      2.00000
      6       2.5156      2.00000
      7       3.7103      2.00000
      8       3.9709      2.00000
      9       4.9036      2.00000
     10       7.3030      0.00000
     11       7.9429      0.00000
     12       8.2031      0.00000
     13      10.4480      0.00000
     14      11.3889      0.00000

 k-point    36 :       0.4444    0.0000    0.5000
  band No.  band energies     occupation 
      1      -6.2866      2.00000
      2      -5.9714      2.00000
      3      -3.8850      2.00000
      4       0.3056      2.00000
      5       2.1528      2.00000
      6       2.2882      2.00000
      7       3.5499      2.00000
      8       3.8852      2.00000
      9       5.5219      2.00000
     10       6.8561      0.00000
     11       7.8321      0.00000
     12       8.4528      0.00000
     13      10.4679      0.00000
     14      11.2862      0.00000

 k-point    37 :       0.1111    0.1111    0.5000
  band No.  band energies     occupation 
      1      -6.6868      2.00000
      2      -6.6414      2.00000
      3      -2.7446      2.00000
      4       1.6249      2.00000
      5       2.6820      2.00000
      6       2.7513      2.00000
      7       3.9161      2.00000
      8       4.1168      2.00000
      9       4.9392      2.00000
     10       6.6413      0.00000
     11       7.6925      0.00000
     12       7.8946      0.00000
     13      10.5755      0.00000
     14      10.6546      0.00000

 k-point    38 :       0.2222    0.1111    0.5000
  band No.  band energies     occupation 
      1      -6.4929      2.00000
      2      -6.3814      2.00000
      3      -3.2443      2.00000
      4       1.1524      2.00000
      5       2.0916      2.00000
      6       2.2916      2.00000
      7       3.9161      2.00000
      8       4.2754      2.00000
      9       4.9685      2.00000
     10       6.9383      0.00000
     11       8.0012      0.00000
     12       8.1849      0.00000
     13      10.4803      0.00000
     14      11.2638      0.00000

 k-point    39 :       0.3333    0.1111    0.5000
  band No.  band energies     occupation 
      1      -6.3022      2.00000
      2      -6.0796      2.00000
      3      -3.7390      2.00000
      4       0.5551      2.00000
      5       1.8170      2.00000
      6       1.9651      2.00000
      7       4.0025      2.00000
      8       4.3425      2.00000
      9       5.2805      2.00000
     10       7.0677      0.00000
     11       7.7097      0.00000
     12       8.2497      0.00000
     13      10.5140      0.00000
     14      11.4952      0.00000

 k-point    40 :       0.4444    0.1111    0.5000
  band No.  band energies     occupation 
      1      -6.2205      2.00000
      2      -5.9236      2.00000
      3      -3.9673      2.00000
      4       0.3051      2.00000
      5       1.7767      2.00000
      6       1.8122      2.00000
      7       4.1305      2.00000
      8       4.1960      2.00000
      9       5.7378      2.00000
     10       6.6766      0.00000
     11       7.6902      0.00000
     12       8.2697      0.00000
     13      10.5815      0.00000
     14      11.3233      0.00000

 k-point    41 :       0.2222    0.2222    0.5000
  band No.  band energies     occupation 
      1      -6.2878      2.00000
      2      -6.1466      2.00000
      3      -3.6635      2.00000
      4       0.8389      2.00000
      5       1.4348      2.00000
      6       1.7248      2.00000
      7       4.2977      2.00000
      8       4.7050      2.00000
      9       5.3736      2.00000
     10       6.7964      0.00000
     11       7.8859      0.00000
     12       7.9604      0.00000
     13      10.7208      0.00000
     14      11.5824      0.00000

 k-point    42 :       0.3333    0.2222    0.5000
  band No.  band energies     occupation 
      1      -6.1287      2.00000
      2      -5.9630      2.00000
      3      -3.9659      2.00000
      4       0.5471      2.00000
      5       1.1808      2.00000
      6       1.3382      2.00000
      7       4.6021      2.00000
      8       5.0775      2.00000
      9       5.7060      2.00000
     10       6.6433      0.00000
     11       7.4619      0.00000
     12       7.7770      0.00000
     13      11.0594      0.00000
     14      11.8025      0.00000

 k-point    43 :       0.3333    0.3333    0.5000
  band No.  band energies     occupation 
      1      -5.9863      2.00000
      2      -5.9863      2.00000
      3      -4.0477      2.00000
      4       0.7004      2.00000
      5       0.9369      2.00000
      6       0.9369      2.00000
      7       4.8356      2.00000
      8       5.8994      1.97815
      9       5.8994      1.97815
     10       6.0518      0.04369
     11       7.3850      0.00000
     12       7.3850      0.00000
     13      11.7507      0.00000
     14      12.4161      0.00000


--------------------------------------------------------------------------------------------------------


 soft charge-density along one line, spin component           1
         0         1         2         3         4         5         6         7         8         9
 total charge-density along one line
 
 pseudopotential strength for first ion, spin component:           1
 51.667  56.215  -0.000  -0.000  -0.057  -0.000  -0.000  -0.083
 56.215  61.167  -0.000  -0.000  -0.063  -0.000  -0.000  -0.091
 -0.000  -0.000  12.719   0.010   0.000  18.334   0.015   0.000
 -0.000  -0.000   0.010  12.737   0.000   0.015  18.360   0.000
 -0.057  -0.063   0.000   0.000  12.736   0.000   0.000  18.358
 -0.000  -0.000  18.334   0.015   0.000  26.437   0.021   0.000
 -0.000  -0.000   0.015  18.360   0.000   0.021  26.474   0.000
 -0.083  -0.091   0.000   0.000  18.358   0.000   0.000  26.472
  0.000   0.000  -0.011   0.000  -0.000  -0.017   0.000  -0.000
  0.016   0.017   0.000  -0.000   0.000   0.000  -0.000   0.000
  0.008   0.009   0.000  -0.000   0.007   0.000  -0.000   0.010
  0.000   0.000   0.000  -0.011  -0.000   0.000  -0.016  -0.000
  0.013   0.014   0.000  -0.000  -0.011   0.000  -0.000  -0.016
 total augmentation occupancy for first ion, spin component:           1
 13.483  -9.953   0.000  -0.000   2.496   0.000  -0.000  -0.688   0.000  -0.184  -0.115   0.000  -0.128
 -9.953   8.632   0.000  -0.000  -2.108   0.000  -0.000   0.594   0.000   0.167   0.104   0.000   0.115
  0.000   0.000   2.605   0.286   0.000  -0.510  -0.230   0.000  -0.064   0.000  -0.000  -0.056   0.000
 -0.000   0.000   0.286   3.071   0.000  -0.230  -0.892   0.000  -0.054   0.000   0.000  -0.144  -0.000
  2.496  -2.108   0.000   0.000   2.913   0.000   0.000  -0.798   0.000  -0.062  -0.020   0.000  -0.063
  0.000   0.000  -0.510  -0.230   0.000   0.185   0.091  -0.000   0.016   0.000   0.000   0.021   0.000
 -0.000  -0.000  -0.230  -0.892  -0.000   0.091   0.330   0.000   0.022   0.000   0.000   0.046   0.000
 -0.688   0.594   0.000   0.000  -0.798   0.000   0.000   0.284   0.000   0.019   0.005   0.000   0.017
  0.000   0.000  -0.064  -0.054   0.000   0.016   0.022   0.000   0.009   0.000   0.000   0.011   0.000
 -0.184   0.167   0.000   0.000  -0.062   0.000   0.000   0.019   0.000   0.015   0.005   0.000   0.003
 -0.115   0.104   0.000   0.000  -0.020   0.000   0.000   0.005   0.000   0.005   0.009   0.000  -0.001
  0.000   0.000  -0.056  -0.144   0.000   0.021   0.046   0.000   0.011   0.000   0.000   0.028   0.000
 -0.128   0.115   0.000   0.000  -0.063   0.000   0.000   0.017   0.000   0.003  -0.001   0.000   0.010


------------------------ aborting loop because EDIFF is reached ----------------------------------------


    CHARGE:  cpu time    0.1687: real time    0.3393
    FORLOC:  cpu time    0.0062: real time    0.0153
    FORNL :  cpu time    0.5344: real time    1.0653
    STRESS:  cpu time    1.4532: real time    2.1353
    FORCOR:  cpu time    0.1146: real time    0.2340
    FORHAR:  cpu time    0.0254: real time    0.0510
    MIXING:  cpu time    0.0093: real time    0.0178
    OFIELD:  cpu time    0.0001: real time    0.0000

  FORCE on cell =-STRESS in cart. coord.  units (eV):
  Direction    XX          YY          ZZ          XY          YZ          ZX
  --------------------------------------------------------------------------------------
  Alpha Z     2.28965     2.28965     2.28965
  Ewald    -239.40015  -239.40015  -193.82453    -0.00000    -0.00001     0.00000
  Hartree    11.13509    11.13509    22.60612     0.00000     0.00000    -0.00000
  E(xc)     -70.58426   -70.58426   -70.09872    -0.00000     0.00000    -0.00000
  Local    -111.09594  -111.09598  -157.77533    -0.00004     0.00000    -0.00000
  n-local   333.12939   333.92495   329.33834    -1.25925    -0.73310    -1.24840
  augment   -81.13401   -81.13396   -78.67547     0.00004    -0.00000     0.00000
  Kinetic   153.21087   159.76972   147.78797    -7.45683     0.20489     1.50226
  Fock        0.00000     0.00000     0.00000     0.00000     0.00000     0.00000
  -------------------------------------------------------------------------------------
  Total       1.22785     1.22785     1.64804     0.00000    -0.00000     0.00000
  in kB      19.26937    19.26937    25.86374     0.00000    -0.00000     0.00000
  external pressure =       21.47 kB  Pullay stress =        0.00 kB


 VOLUME and BASIS-vectors are now :
 -----------------------------------------------------------------------------
  energy-cutoff  :      520.00
  volume of cell :      102.09
      direct lattice vectors                 reciprocal lattice vectors
     4.459300041  0.000000000  0.000000000     0.224250441  0.129471052  0.000000000
    -2.229650021  3.861867119  0.000000000     0.000000000  0.258942105  0.000000000
     0.000000000  0.000000000  5.928199768     0.000000000  0.000000000  0.168685274

  length of vectors
     4.459300041  4.459300041  5.928199768     0.258942105  0.258942105  0.168685274


 FORCES acting on ions
    electron-ion (+dipol)            ewald-force                    non-local-force                 convergence-correction
 -----------------------------------------------------------------------------------------------
   -.137E+02 0.119E-04 -.129E-05   0.194E+02 0.150E-05 0.187E-05   -.531E+01 -.555E-16 0.555E-16   0.583E-02 -.261E-07 -.160E-07
   0.686E+01 -.119E+02 -.179E-04   -.969E+01 0.168E+02 -.875E-05   0.265E+01 -.460E+01 -.555E-16   -.291E-02 0.505E-02 0.414E-06
   0.686E+01 0.119E+02 0.188E-04   -.969E+01 -.168E+02 0.687E-05   0.265E+01 0.460E+01 0.000E+00   -.291E-02 -.505E-02 -.398E-06
 -----------------------------------------------------------------------------------------------
   0.251E-04 -.742E-05 -.345E-06   0.000E+00 -.355E-14 0.000E+00   0.000E+00 0.000E+00 0.000E+00   -.128E-07 0.223E-08 0.412E-10
 
 
 POSITION                                       TOTAL-FORCE (eV/Angst)
 -----------------------------------------------------------------------------------
      1.16820      0.00000      1.97607         0.366845      0.000000     -0.000000
     -0.58410      1.01169      3.95213        -0.183423      0.317697     -0.000000
      1.64555      2.85018      0.00000        -0.183423     -0.317697      0.000000
 -----------------------------------------------------------------------------------
    total drift:                                0.000025     -0.000007     -0.000000


--------------------------------------------------------------------------------------------------------



  FREE ENERGIE OF THE ION-ELECTRON SYSTEM (eV)
  ---------------------------------------------------
  free  energy   TOTEN  =        -9.39094321 eV

  energy  without entropy=       -9.39089531  energy(sigma->0) =       -9.39091926
 


--------------------------------------------------------------------------------------------------------


    POTLOK:  cpu time    0.0998: real time    0.2001


--------------------------------------------------------------------------------------------------------




--------------------------------------------------------------------------------------------------------


    WAVPRE:  cpu time    0.7747: real time    1.5655
    FEWALD:  cpu time    0.0185: real time    0.0355
    GENKIN:  cpu time    0.0442: real time    0.0565
    ORTHCH:  cpu time    0.1725: real time    0.1729
     LOOP+:  cpu time   47.7079: real time   67.2485


--------------------------------------- Iteration      2(   1)  ---------------------------------------


    POTLOK:  cpu time    0.0795: real time    0.1689
    SETDIJ:  cpu time    0.0097: real time    0.0219
     EDDAV:  cpu time    3.0064: real time    3.9055
       DOS:  cpu time    0.0026: real time    0.0026
    CHARGE:  cpu time    0.1318: real time    0.1321
    MIXING:  cpu time    0.0103: real time    0.0104
    --------------------------------------------
      LOOP:  cpu time    3.2404: real time    4.2414

 eigenvalue-minimisations  :  1210
 total energy-change (2. order) :-0.1710611E+00  (-0.4159330E+00)
 number of electron      18.0000001 magnetization 
 augmentation part       -3.6739939 magnetization 

 Broyden mixing:
  rms(total) = 0.25770E+00    rms(broyden)= 0.25770E+00
  rms(prec ) = 0.37249E+00
  weight for this iteration     100.00

 Free energy of the ion-electron system (eV)
  ---------------------------------------------------
  alpha Z        PSCENC =         2.14499778
  Ewald energy   TEWEN  =      -659.30495703
  -Hartree energ DENC   =       -43.19599330
  -exchange      EXHF   =         0.00000000
  -V(xc)+E(xc)   XCENC  =       -84.19510594
  PAW double counting   =      1574.57147525    -1459.24211895
  entropy T*S    EENTRO =        -0.00005632
  eigenvalues    EBANDS =       -10.15455992
  atomic energy  EATOM  =       669.81430600
  Solvation  Ediel_sol  =         0.00000000
  ---------------------------------------------------
  free energy    TOTEN  =        -9.56201243 eV

  energy without entropy =       -9.56195611  energy(sigma->0) =       -9.56198427


--------------------------------------------------------------------------------------------------------




--------------------------------------- Iteration      2(   2)  ---------------------------------------


    POTLOK:  cpu time    0.1060: real time    0.1501
    SETDIJ:  cpu time    0.0243: real time    0.0243
     EDDAV:  cpu time    3.1549: real time    5.0852
       DOS:  cpu time    0.0027: real time    0.0027
    CHARGE:  cpu time    0.1246: real time    0.2579
    MIXING:  cpu time    0.0052: real time    0.0052
    --------------------------------------------
      LOOP:  cpu time    3.4175: real time    5.5253

 eigenvalue-minimisations  :  1216
 total energy-change (2. order) : 0.1019224E+00  (-0.1656203E-01)
 number of electron      18.0000001 magnetization 
 augmentation part       -3.6607525 magnetization 

 Broyden mixing:
  rms(total) = 0.13608E+00    rms(broyden)= 0.13607E+00
  rms(prec ) = 0.20355E+00
  weight for this iteration     100.00

 eigenvalues of (default mixing * dielectric matrix)
  average eigenvalue GAMMA=   0.8442
  0.8442

 Free energy of the ion-electron system (eV)
  ---------------------------------------------------
  alpha Z        PSCENC =         2.14499778
  Ewald energy   TEWEN  =      -659.30495703
  -Hartree energ DENC   =       -45.20811676
  -exchange      EXHF   =         0.00000000
  -V(xc)+E(xc)   XCENC  =       -84.25582375
  PAW double counting   =      1471.28408421    -1355.96947876
  entropy T*S    EENTRO =        -0.00005802
  eigenvalues    EBANDS =        -7.96504371
  atomic energy  EATOM  =       669.81430600
  Solvation  Ediel_sol  =         0.00000000
  ---------------------------------------------------
  free energy    TOTEN  =        -9.46009005 eV

  energy without entropy =       -9.46003202  energy(sigma->0) =       -9.46006103


--------------------------------------------------------------------------------------------------------




--------------------------------------- Iteration      2(   3)  ---------------------------------------


    POTLOK:  cpu time    0.0803: real time    0.1573
    SETDIJ:  cpu time    0.0101: real time    0.0300
     EDDAV:  cpu time    3.4415: real time    4.9389
       DOS:  cpu time    0.0030: real time    0.0114
    CHARGE:  cpu time    0.1401: real time    0.2430
    MIXING:  cpu time    0.0117: real time    0.0117
    --------------------------------------------
      LOOP:  cpu time    3.6866: real time    5.3924

 eigenvalue-minimisations  :  1372
 total energy-change (2. order) : 0.3872311E-01  (-0.3619577E-02)
 number of electron      18.0000001 magnetization 
 augmentation part       -3.6345903 magnetization 

 Broyden mixing:
  rms(total) = 0.48275E-01    rms(broyden)= 0.48275E-01
  rms(prec ) = 0.89148E-01
  weight for this iteration     100.00

 eigenvalues of (default mixing * dielectric matrix)
  average eigenvalue GAMMA=   1.2921
  0.7663  1.8180

 Free energy of the ion-electron system (eV)
  ---------------------------------------------------
  alpha Z        PSCENC =         2.14499778
  Ewald energy   TEWEN  =      -659.30495703
  -Hartree energ DENC   =       -46.44824125
  -exchange      EXHF   =         0.00000000
  -V(xc)+E(xc)   XCENC  =       -84.30913324
  PAW double counting   =      1449.24301168    -1333.91540273
  entropy T*S    EENTRO =        -0.00006293
  eigenvalues    EBANDS =        -6.64588522
  atomic energy  EATOM  =       669.81430600
  Solvation  Ediel_sol  =         0.00000000
  ---------------------------------------------------
  free energy    TOTEN  =        -9.42136694 eV

  energy without entropy =       -9.42130401  energy(sigma->0) =       -9.42133547


--------------------------------------------------------------------------------------------------------




--------------------------------------- Iteration      2(   4)  ---------------------------------------


    POTLOK:  cpu time    0.0973: real time    0.0977
    SETDIJ:  cpu time    0.0096: real time    0.0096
     EDDAV:  cpu time    3.1397: real time    4.0078
       DOS:  cpu time    0.0072: real time    0.0073
    CHARGE:  cpu time    0.1481: real time    0.1485
    MIXING:  cpu time    0.0141: real time    0.0141
    --------------------------------------------
      LOOP:  cpu time    3.4161: real time    4.2849

 eigenvalue-minimisations  :  1222
 total energy-change (2. order) : 0.1317987E-01  (-0.2616613E-02)
 number of electron      18.0000001 magnetization 
 augmentation part       -3.6093597 magnetization 

 Broyden mixing:
  rms(total) = 0.96699E-01    rms(broyden)= 0.96699E-01
  rms(prec ) = 0.97045E-01
  weight for this iteration     100.00

 eigenvalues of (default mixing * dielectric matrix)
  average eigenvalue GAMMA=   1.5998
  1.2276  1.7859  1.7859

 Free energy of the ion-electron system (eV)
  ---------------------------------------------------
  alpha Z        PSCENC =         2.14499778
  Ewald energy   TEWEN  =      -659.30495703
  -Hartree energ DENC   =       -47.57738348
  -exchange      EXHF   =         0.00000000
  -V(xc)+E(xc)   XCENC  =       -84.35932456
  PAW double counting   =      1424.52410665    -1309.16530600
  entropy T*S    EENTRO =        -0.00007043
  eigenvalues    EBANDS =        -5.48455599
  atomic energy  EATOM  =       669.81430600
  Solvation  Ediel_sol  =         0.00000000
  ---------------------------------------------------
  free energy    TOTEN  =        -9.40818707 eV

  energy without entropy =       -9.40811664  energy(sigma->0) =       -9.40815185


--------------------------------------------------------------------------------------------------------




--------------------------------------- Iteration      2(   5)  ---------------------------------------


    POTLOK:  cpu time    0.1703: real time    0.1708
    SETDIJ:  cpu time    0.0165: real time    0.0165
     EDDAV:  cpu time    3.8353: real time    5.7905
       DOS:  cpu time    0.0059: real time    0.0181
    CHARGE:  cpu time    0.1286: real time    0.2495
    MIXING:  cpu time    0.0037: real time    0.0037
    --------------------------------------------
      LOOP:  cpu time    4.1602: real time    6.2492

 eigenvalue-minimisations  :  1530
 total energy-change (2. order) : 0.1504744E-03  (-0.1128651E-03)
 number of electron      18.0000001 magnetization 
 augmentation part       -3.6055914 magnetization 

 Broyden mixing:
  rms(total) = 0.36020E-01    rms(broyden)= 0.36020E-01
  rms(prec ) = 0.36046E-01
  weight for this iteration     100.00

 eigenvalues of (default mixing * dielectric matrix)
  average eigenvalue GAMMA=   1.7023
  2.3327  2.3327  0.9358  1.2079

 Free energy of the ion-electron system (eV)
  ---------------------------------------------------
  alpha Z        PSCENC =         2.14499778
  Ewald energy   TEWEN  =      -659.30495703
  -Hartree energ DENC   =       -47.68299982
  -exchange      EXHF   =         0.00000000
  -V(xc)+E(xc)   XCENC  =       -84.36710108
  PAW double counting   =      1404.07804216    -1288.68412645
  entropy T*S    EENTRO =        -0.00007356
  eigenvalues    EBANDS =        -5.40612459
  atomic energy  EATOM  =       669.81430600
  Solvation  Ediel_sol  =         0.00000000
  ---------------------------------------------------
  free energy    TOTEN  =        -9.40803659 eV

  energy without entropy =       -9.40796303  energy(sigma->0) =       -9.40799981


--------------------------------------------------------------------------------------------------------




--------------------------------------- Iteration      2(   6)  ---------------------------------------


    POTLOK:  cpu time    0.0944: real time    0.2050
    SETDIJ:  cpu time    0.0153: real time    0.0344
     EDDAV:  cpu time    3.5989: real time    5.3544
       DOS:  cpu time    0.0026: real time    0.0026
    CHARGE:  cpu time    0.1245: real time    0.1246
    MIXING:  cpu time    0.0110: real time    0.0111
    --------------------------------------------
      LOOP:  cpu time    3.8466: real time    5.7321

 eigenvalue-minimisations  :  1524
 total energy-change (2. order) :-0.1813465E-04  (-0.4852474E-05)
 number of electron      18.0000001 magnetization 
 augmentation part       -3.6051231 magnetization 

 Broyden mixing:
  rms(total) = 0.51018E-02    rms(broyden)= 0.51018E-02
  rms(prec ) = 0.51416E-02
  weight for this iteration     100.00

 eigenvalues of (default mixing * dielectric matrix)
  average eigenvalue GAMMA=   1.6344
  2.3475  2.1764  1.0250  1.0250  1.5982

 Free energy of the ion-electron system (eV)
  ---------------------------------------------------
  alpha Z        PSCENC =         2.14499778
  Ewald energy   TEWEN  =      -659.30495703
  -Hartree energ DENC   =       -47.70014263
  -exchange      EXHF   =         0.00000000
  -V(xc)+E(xc)   XCENC  =       -84.36630090
  PAW double counting   =      1395.49768701    -1280.09348980
  entropy T*S    EENTRO =        -0.00007390
  eigenvalues    EBANDS =        -5.40008126
  atomic energy  EATOM  =       669.81430600
  Solvation  Ediel_sol  =         0.00000000
  ---------------------------------------------------
  free energy    TOTEN  =        -9.40805473 eV

  energy without entropy =       -9.40798083  energy(sigma->0) =       -9.40801778


--------------------------------------------------------------------------------------------------------




--------------------------------------- Iteration      2(   7)  ---------------------------------------


    POTLOK:  cpu time    0.1119: real time    0.1124
    SETDIJ:  cpu time    0.0151: real time    0.0151
     EDDAV:  cpu time    2.8210: real time    3.8591
       DOS:  cpu time    0.0025: real time    0.0025
    --------------------------------------------
      LOOP:  cpu time    2.9505: real time    3.9890

 eigenvalue-minimisations  :   698
 total energy-change (2. order) :-0.2632816E-05  (-0.1703889E-06)
 number of electron      18.0000001 magnetization 
 augmentation part       -3.6051231 magnetization 

 Free energy of the ion-electron system (eV)
  ---------------------------------------------------
  alpha Z        PSCENC =         2.14499778
  Ewald energy   TEWEN  =      -659.30495703
  -Hartree energ DENC   =       -47.70391578
  -exchange      EXHF   =         0.00000000
  -V(xc)+E(xc)   XCENC  =       -84.36507700
  PAW double counting   =      1394.55855823    -1279.15534312
  entropy T*S    EENTRO =        -0.00007355
  eigenvalues    EBANDS =        -5.39655289
  atomic energy  EATOM  =       669.81430600
  Solvation  Ediel_sol  =         0.00000000
  ---------------------------------------------------
  free energy    TOTEN  =        -9.40805736 eV

  energy without entropy =       -9.40798381  energy(sigma->0) =       -9.40802059


--------------------------------------------------------------------------------------------------------




 average (electrostatic) potential at core
  the test charge radii are     1.1897
  (the norm of the test charge is              1.0000)
       1 -89.7567       2 -89.7567       3 -89.7567
 
 
 
 E-fermi :   5.1388     XC(G=0):  -8.7757     alpha+bet : -9.8680


 k-point     1 :       0.0000    0.0000    0.0000
  band No.  band energies     occupation 
      1      -8.0310      2.00000
      2      -5.0463      2.00000
      3      -5.0463      2.00000
      4       2.3091      2.00000
      5       2.4589      2.00000
      6       2.4589      2.00000
      7       3.6268      2.00000
      8       3.6268      2.00000
      9       4.4334      2.00000
     10       6.0513      0.00000
     11       6.0513      0.00000
     12       6.6991      0.00000
     13      10.1915      0.00000
     14      10.1915      0.00000

 k-point     2 :       0.1111    0.0000    0.0000
  band No.  band energies     occupation 
      1      -7.9564      2.00000
      2      -5.0717      2.00000
      3      -5.0294      2.00000
      4       1.7176      2.00000
      5       2.1063      2.00000
      6       2.3918      2.00000
      7       3.8189      2.00000
      8       4.1094      2.00000
      9       4.5420      2.00000
     10       5.8202      0.00000
     11       6.0084      0.00000
     12       6.6045      0.00000
     13       9.9917      0.00000
     14      10.1607      0.00000

 k-point     3 :       0.2222    0.0000    0.0000
  band No.  band energies     occupation 
      1      -7.7441      2.00000
      2      -5.1763      2.00000
      3      -4.9832      2.00000
      4       1.0171      2.00000
      5       1.6063      2.00000
      6       2.1004      2.00000
      7       3.8951      2.00000
      8       4.1834      2.00000
      9       4.3768      2.00000
     10       5.9505      0.00000
     11       6.1018      0.00000
     12       6.7228      0.00000
     13       9.3238      0.00000
     14      10.3991      0.00000

 k-point     4 :       0.3333   -0.0000    0.0000
  band No.  band energies     occupation 
      1      -7.4390      2.00000
      2      -5.3932      2.00000
      3      -4.9251      2.00000
      4       0.6708      2.00000
      5       1.2148      2.00000
      6       1.8411      2.00000
      7       2.9541      2.00000
      8       4.1992      2.00000
      9       4.3760      2.00000
     10       5.9523      0.00000
     11       6.1269      0.00000
     12       7.6352      0.00000
     13       8.7251      0.00000
     14      11.1294      0.00000

 k-point     5 :       0.4444    0.0000    0.0000
  band No.  band energies     occupation 
      1      -7.1662      2.00000
      2      -5.6305      2.00000
      3      -4.8842      2.00000
      4       0.6307      2.00000
      5       1.0401      2.00000
      6       1.7752      2.00000
      7       2.1371      2.00000
      8       4.1621      2.00000
      9       4.3552      2.00000
     10       5.9573      0.00000
     11       6.0662      0.00000
     12       8.3671      0.00000
     13       8.4039      0.00000
     14      12.1241      0.00000

 k-point     6 :       0.1111    0.1111    0.0000
  band No.  band energies     occupation 
      1      -7.8127      2.00000
      2      -5.1240      2.00000
      3      -5.0117      2.00000
      4       1.2463      2.00000
      5       1.5315      2.00000
      6       2.4206      2.00000
      7       3.6842      2.00000
      8       4.3595      2.00000
      9       4.4340      2.00000
     10       5.8315      0.00000
     11       6.1388      0.00000
     12       6.6578      0.00000
     13       9.7970      0.00000
     14       9.8785      0.00000

 k-point     7 :       0.2222    0.1111    0.0000
  band No.  band energies     occupation 
      1      -7.5511      2.00000
      2      -5.2640      2.00000
      3      -4.9894      2.00000
      4       0.8162      2.00000
      5       1.1475      2.00000
      6       2.1764      2.00000
      7       3.4378      2.00000
      8       3.7542      2.00000
      9       4.1468      2.00000
     10       6.2512      0.00000
     11       6.5573      0.00000
     12       7.0796      0.00000
     13       9.2485      0.00000
     14      10.1614      0.00000

 k-point     8 :       0.3333    0.1111    0.0000
  band No.  band energies     occupation 
      1      -7.2474      2.00000
      2      -5.4942      2.00000
      3      -4.9648      2.00000
      4       0.6770      2.00000
      5       1.0073      2.00000
      6       1.8894      2.00000
      7       2.5526      2.00000
      8       3.7037      2.00000
      9       3.9202      2.00000
     10       6.3887      0.00000
     11       6.6297      0.00000
     12       7.9849      0.00000
     13       8.8373      0.00000
     14      11.0195      0.00000

 k-point     9 :       0.4444    0.1111    0.0000
  band No.  band energies     occupation 
      1      -7.0890      2.00000
      2      -5.6328      2.00000
      3      -4.9538      2.00000
      4       0.6945      2.00000
      5       1.0064      2.00000
      6       1.9164      2.00000
      7       1.9729      2.00000
      8       3.7149      2.00000
      9       3.8222      2.00000
     10       6.4124      0.00000
     11       6.6379      0.00000
     12       8.4003      0.00000
     13       8.6925      0.00000
     14      11.8996      0.00000

 k-point    10 :       0.2222    0.2222    0.0000
  band No.  band energies     occupation 
      1      -7.2813      2.00000
      2      -5.3724      2.00000
      3      -5.0678      2.00000
      4       0.7853      2.00000
      5       0.8785      2.00000
      6       2.1394      2.00000
      7       2.9932      2.00000
      8       3.2580      2.00000
      9       3.3607      2.00000
     10       6.9689      0.00000
     11       7.2026      0.00000
     12       7.4148      0.00000
     13       9.5877      0.00000
     14       9.9496      0.00000

 k-point    11 :       0.3333    0.2222    0.0000
  band No.  band energies     occupation 
      1      -7.0525      2.00000
      2      -5.4958      2.00000
      3      -5.1383      2.00000
      4       0.8264      2.00000
      5       0.9463      2.00000
      6       2.0201      2.00000
      7       2.3391      2.00000
      8       2.9829      2.00000
      9       3.0994      2.00000
     10       7.1915      0.00000
     11       7.4549      0.00000
     12       8.0717      0.00000
     13       9.5132      0.00000
     14      10.7879      0.00000

 k-point    12 :       0.3333    0.3333    0.0000
  band No.  band energies     occupation 
      1      -6.9670      2.00000
      2      -5.3595      2.00000
      3      -5.3595      2.00000
      4       0.9567      2.00000
      5       0.9567      2.00000
      6       2.2984      2.00000
      7       2.2984      2.00000
      8       2.4083      2.00000
      9       2.7201      2.00000
     10       7.7438      0.00000
     11       7.7438      0.00000
     12       8.0290      0.00000
     13      10.1205      0.00000
     14      11.0438      0.00000

 k-point    13 :       0.0000    0.0000    0.2500
  band No.  band energies     occupation 
      1      -7.8246      2.00000
      2      -6.2567      2.00000
      3      -3.8413      2.00000
      4       1.7922      2.00000
      5       2.4237      2.00000
      6       2.7756      2.00000
      7       3.7852      2.00000
      8       3.7949      2.00000
      9       4.3916      2.00000
     10       5.7868      0.00000
     11       5.8367      0.00000
     12       6.2208      0.00000
     13       9.6792      0.00000
     14      10.7544      0.00000

 k-point    14 :       0.1111    0.0000    0.2500
  band No.  band energies     occupation 
      1      -7.7535      2.00000
      2      -6.2136      2.00000
      3      -3.9313      2.00000
      4       1.5852      2.00000
      5       2.2516      2.00000
      6       2.6382      2.00000
      7       3.5393      2.00000
      8       3.9009      2.00000
      9       4.0657      2.00000
     10       6.0431      0.00000
     11       6.1254      0.00000
     12       6.5462      0.00000
     13       9.7654      0.00000
     14      10.7096      0.00000

 k-point    15 :       0.2222    0.0000    0.2500
  band No.  band energies     occupation 
      1      -7.5549      2.00000
      2      -6.0901      2.00000
      3      -4.2087      2.00000
      4       1.2843      2.00000
      5       1.8645      2.00000
      6       2.4102      2.00000
      7       2.9365      2.00000
      8       3.4765      2.00000
      9       3.9729      2.00000
     10       6.3428      0.00000
     11       6.8761      0.00000
     12       7.2247      0.00000
     13      10.0101      0.00000
     14      10.4329      0.00000

 k-point    16 :       0.3333   -0.0000    0.2500
  band No.  band energies     occupation 
      1      -7.2767      2.00000
      2      -5.9384      2.00000
      3      -4.5876      2.00000
      4       0.9908      2.00000
      5       1.3483      2.00000
      6       2.1321      2.00000
      7       2.5110      2.00000
      8       3.4544      2.00000
      9       3.8797      2.00000
     10       6.4077      0.00000
     11       7.0225      0.00000
     12       7.9646      0.00000
     13       9.5894      0.00000
     14      10.8408      0.00000

 k-point    17 :       0.4444    0.0000    0.2500
  band No.  band energies     occupation 
      1      -7.0269      2.00000
      2      -5.9067      2.00000
      3      -4.8045      2.00000
      4       0.4942      2.00000
      5       1.0546      2.00000
      6       1.8771      2.00000
      7       2.8954      2.00000
      8       3.4817      2.00000
      9       3.8118      2.00000
     10       6.3417      0.00000
     11       6.9757      0.00000
     12       7.8278      0.00000
     13       9.1620      0.00000
     14      11.2035      0.00000

 k-point    18 :      -0.4444   -0.0000    0.2500
  band No.  band energies     occupation 
      1      -7.0009      2.00000
      2      -6.0128      2.00000
      3      -4.6751      2.00000
      4       0.2109      2.00000
      5       0.9730      2.00000
      6       1.8459      2.00000
      7       3.5234      2.00000
      8       3.6033      2.00000
      9       3.9171      2.00000
     10       6.2277      0.00000
     11       6.7962      0.00000
     12       7.1599      0.00000
     13       8.8979      0.00000
     14      11.6726      0.00000

 k-point    19 :      -0.3333    0.0000    0.2500
  band No.  band energies     occupation 
      1      -7.2482      2.00000
      2      -6.0698      2.00000
      3      -4.3905      2.00000
      4       0.3920      2.00000
      5       1.0648      2.00000
      6       1.9838      2.00000
      7       3.7976      2.00000
      8       3.8247      2.00000
      9       4.5909      2.00000
     10       5.8969      0.00000
     11       6.4772      0.00000
     12       6.5981      0.00000
     13       8.8414      0.00000
     14      11.7223      0.00000

 k-point    20 :      -0.2222   -0.0000    0.2500
  band No.  band energies     occupation 
      1      -7.5448      2.00000
      2      -6.1392      2.00000
      3      -4.1129      2.00000
      4       1.0171      2.00000
      5       1.3338      2.00000
      6       2.2472      2.00000
      7       3.9895      2.00000
      8       4.1023      2.00000
      9       4.6575      2.00000
     10       5.7134      0.00000
     11       6.1305      0.00000
     12       6.4261      0.00000
     13       9.0627      0.00000
     14      11.2404      0.00000

 k-point    21 :      -0.1111   -0.0000    0.2500
  band No.  band energies     occupation 
      1      -7.7522      2.00000
      2      -6.2200      2.00000
      3      -3.9161      2.00000
      4       1.5923      2.00000
      5       1.9853      2.00000
      6       2.5665      2.00000
      7       3.9318      2.00000
      8       4.0447      2.00000
      9       4.3389      2.00000
     10       5.7596      0.00000
     11       5.7905      0.00000
     12       6.5336      0.00000
     13       9.5088      0.00000
     14      10.7516      0.00000

 k-point    22 :       0.1111    0.1111    0.2500
  band No.  band energies     occupation 
      1      -7.6152      2.00000
      2      -6.1455      2.00000
      3      -4.0842      2.00000
      4       1.3064      2.00000
      5       1.6279      2.00000
      6       2.4370      2.00000
      7       3.4207      2.00000
      8       3.9421      2.00000
      9       4.2968      2.00000
     10       5.9754      0.00000
     11       6.4856      0.00000
     12       6.6982      0.00000
     13       9.5355      0.00000
     14      10.7137      0.00000

 k-point    23 :       0.2222    0.1111    0.2500
  band No.  band energies     occupation 
      1      -7.3728      2.00000
      2      -6.0095      2.00000
      3      -4.4177      2.00000
      4       0.9983      2.00000
      5       1.3676      2.00000
      6       2.2803      2.00000
      7       2.5634      2.00000
      8       3.5632      2.00000
      9       4.4040      2.00000
     10       6.1248      0.00000
     11       6.8329      0.00000
     12       7.6334      0.00000
     13       9.8392      0.00000
     14      10.2995      0.00000

 k-point    24 :       0.3333    0.1111    0.2500
  band No.  band energies     occupation 
      1      -7.0978      2.00000
      2      -5.8985      2.00000
      3      -4.7529      2.00000
      4       0.7269      2.00000
      5       0.9696      2.00000
      6       1.9778      2.00000
      7       2.5822      2.00000
      8       3.2575      2.00000
      9       4.4334      2.00000
     10       6.0684      0.00000
     11       7.1291      0.00000
     12       7.9661      0.00000
     13       9.4790      0.00000
     14      10.9228      0.00000

 k-point    25 :       0.4444    0.1111    0.2500
  band No.  band energies     occupation 
      1      -6.9423      2.00000
      2      -5.9430      2.00000
      3      -4.8120      2.00000
      4       0.3410      2.00000
      5       0.8622      2.00000
      6       1.8759      2.00000
      7       2.8051      2.00000
      8       3.3948      2.00000
      9       4.4487      2.00000
     10       5.9964      0.00000
     11       7.1925      0.00000
     12       7.5227      0.00000
     13       9.2151      0.00000
     14      11.5378      0.00000

 k-point    26 :      -0.4444    0.1111    0.2500
  band No.  band energies     occupation 
      1      -7.0712      2.00000
      2      -6.0141      2.00000
      3      -4.6036      2.00000
      4       0.2750      2.00000
      5       0.9820      2.00000
      6       1.9121      2.00000
      7       2.8576      2.00000
      8       4.0761      2.00000
      9       4.5177      2.00000
     10       5.8810      0.00000
     11       6.6889      0.00000
     12       7.2275      0.00000
     13       9.1176      0.00000
     14      11.5233      0.00000

 k-point    27 :      -0.3333    0.1111    0.2500
  band No.  band energies     occupation 
      1      -7.3611      2.00000
      2      -6.0649      2.00000
      3      -4.3263      2.00000
      4       0.6784      2.00000
      5       1.2088      2.00000
      6       2.1187      2.00000
      7       3.0581      2.00000
      8       4.2444      2.00000
      9       4.8053      2.00000
     10       5.6596      0.00000
     11       6.3662      0.00000
     12       7.0296      0.00000
     13       9.2052      0.00000
     14      10.9310      0.00000

 k-point    28 :       0.2222    0.2222    0.2500
  band No.  band energies     occupation 
      1      -7.1139      2.00000
      2      -5.9541      2.00000
      3      -4.6513      2.00000
      4       0.5052      2.00000
      5       1.0696      2.00000
      6       1.9012      2.00000
      7       2.4384      2.00000
      8       3.8570      2.00000
      9       4.6868      2.00000
     10       5.9442      0.00000
     11       6.7555      0.00000
     12       7.7527      0.00000
     13       9.7865      0.00000
     14      10.3635      0.00000

 k-point    29 :       0.3333    0.2222    0.2500
  band No.  band energies     occupation 
      1      -6.9067      2.00000
      2      -5.8953      2.00000
      3      -4.8853      2.00000
      4       0.4821      2.00000
      5       0.7478      2.00000
      6       1.5931      2.00000
      7       2.6394      2.00000
      8       3.5035      2.00000
      9       4.5006      2.00000
     10       6.1806      0.00000
     11       7.2392      0.00000
     12       7.7290      0.00000
     13       9.8486      0.00000
     14      10.8766      0.00000

 k-point    30 :       0.4444    0.2222    0.2500
  band No.  band energies     occupation 
      1      -6.8990      2.00000
      2      -5.9268      2.00000
      3      -4.8500      2.00000
      4       0.3485      2.00000
      5       0.8168      2.00000
      6       1.6066      2.00000
      7       2.5979      2.00000
      8       3.7785      2.00000
      9       4.3774      2.00000
     10       6.2922      0.00000
     11       7.0154      0.00000
     12       7.6432      0.00000
     13       9.7532      0.00000
     14      11.1090      0.00000

 k-point    31 :       0.3333    0.3333    0.2500
  band No.  band energies     occupation 
      1      -6.8219      2.00000
      2      -5.8888      2.00000
      3      -4.9550      2.00000
      4       0.4403      2.00000
      5       0.7211      2.00000
      6       1.2963      2.00000
      7       2.7894      2.00000
      8       3.6853      2.00000
      9       4.1171      2.00000
     10       6.6970      0.00000
     11       7.3148      0.00000
     12       7.4052      0.00000
     13      10.5565      0.00000
     14      10.8192      0.00000

 k-point    32 :       0.0000    0.0000    0.5000
  band No.  band energies     occupation 
      1      -7.2181      2.00000
      2      -7.2181      2.00000
      3      -3.2525      2.00000
      4       1.3819      2.00000
      5       2.6667      2.00000
      6       2.6667      2.00000
      7       3.9324      2.00000
      8       4.1892      2.00000
      9       4.1892      2.00000
     10       5.6490      0.00000
     11       5.6675      0.00000
     12       5.6675      0.00000
     13       9.3384      0.00000
     14      10.5722      0.00000

 k-point    33 :       0.1111    0.0000    0.5000
  band No.  band energies     occupation 
      1      -7.1640      2.00000
      2      -7.1484      2.00000
      3      -3.3963      2.00000
      4       1.3465      2.00000
      5       2.4923      2.00000
      6       2.5663      2.00000
      7       3.4983      2.00000
      8       3.8278      2.00000
      9       4.0493      2.00000
     10       5.8547      0.00000
     11       6.0407      0.00000
     12       6.4161      0.00000
     13       9.5548      0.00000
     14      10.2797      0.00000

 k-point    34 :       0.2222    0.0000    0.5000
  band No.  band energies     occupation 
      1      -7.0193      2.00000
      2      -6.9492      2.00000
      3      -3.7745      2.00000
      4       1.0721      2.00000
      5       1.9403      2.00000
      6       2.2887      2.00000
      7       3.3053      2.00000
      8       3.4680      2.00000
      9       3.8675      2.00000
     10       6.2469      0.00000
     11       6.6990      0.00000
     12       7.1195      0.00000
     13       9.7610      0.00000
     14      10.4096      0.00000

 k-point    35 :       0.3333   -0.0000    0.5000
  band No.  band energies     occupation 
      1      -6.8386      2.00000
      2      -6.6601      2.00000
      3      -4.2544      2.00000
      4       0.4331      2.00000
      5       1.6906      2.00000
      6       1.9910      2.00000
      7       3.0931      2.00000
      8       3.3459      2.00000
      9       4.1315      2.00000
     10       6.4461      0.00000
     11       6.9767      0.00000
     12       7.2437      0.00000
     13       9.7352      0.00000
     14      10.6852      0.00000

 k-point    36 :       0.4444    0.0000    0.5000
  band No.  band energies     occupation 
      1      -6.7091      2.00000
      2      -6.3986      2.00000
      3      -4.6342      2.00000
      4      -0.0248      2.00000
      5       1.6621      2.00000
      6       1.7732      2.00000
      7       2.9433      2.00000
      8       3.2530      2.00000
      9       4.7195      2.00000
     10       5.9894      0.00000
     11       6.9072      0.00000
     12       7.4902      0.00000
     13       9.7568      0.00000
     14      10.4951      0.00000

 k-point    37 :       0.1111    0.1111    0.5000
  band No.  band energies     occupation 
      1      -7.0609      2.00000
      2      -7.0173      2.00000
      3      -3.6556      2.00000
      4       1.2110      2.00000
      5       2.1567      2.00000
      6       2.2093      2.00000
      7       3.2805      2.00000
      8       3.4380      2.00000
      9       4.2635      2.00000
     10       5.7737      0.00000
     11       6.8040      0.00000
     12       6.9477      0.00000
     13       9.9420      0.00000
     14      10.0199      0.00000

 k-point    38 :       0.2222    0.1111    0.5000
  band No.  band energies     occupation 
      1      -6.8877      2.00000
      2      -6.7799      2.00000
      3      -4.0780      2.00000
      4       0.7740      2.00000
      5       1.5971      2.00000
      6       1.7913      2.00000
      7       3.2763      2.00000
      8       3.5866      2.00000
      9       4.2476      2.00000
     10       6.0539      0.00000
     11       7.0660      0.00000
     12       7.2146      0.00000
     13       9.8295      0.00000
     14      10.5989      0.00000

 k-point    39 :       0.3333    0.1111    0.5000
  band No.  band energies     occupation 
      1      -6.7196      2.00000
      2      -6.5018      2.00000
      3      -4.5078      2.00000
      4       0.2090      2.00000
      5       1.3488      2.00000
      6       1.4914      2.00000
      7       3.3494      2.00000
      8       3.6875      2.00000
      9       4.4839      2.00000
     10       6.1919      0.00000
     11       6.7597      0.00000
     12       7.2859      0.00000
     13       9.8458      0.00000
     14      10.7556      0.00000

 k-point    40 :       0.4444    0.1111    0.5000
  band No.  band energies     occupation 
      1      -6.6483      2.00000
      2      -6.3559      2.00000
      3      -4.7111      2.00000
      4      -0.0249      2.00000
      5       1.3085      2.00000
      6       1.3547      2.00000
      7       3.4597      2.00000
      8       3.5545      2.00000
      9       4.9146      2.00000
     10       5.8142      0.00000
     11       6.7535      0.00000
     12       7.3017      0.00000
     13       9.9164      0.00000
     14      10.5533      0.00000

 k-point    41 :       0.2222    0.2222    0.5000
  band No.  band energies     occupation 
      1      -6.7027      2.00000
      2      -6.5672      2.00000
      3      -4.4445      2.00000
      4       0.4840      2.00000
      5       0.9862      2.00000
      6       1.2763      2.00000
      7       3.6596      2.00000
      8       3.9414      2.00000
      9       4.6294      2.00000
     10       5.8881      0.00000
     11       6.9472      0.00000
     12       6.9931      0.00000
     13      10.0903      0.00000
     14      10.9180      0.00000

 k-point    42 :       0.3333    0.2222    0.5000
  band No.  band energies     occupation 
      1      -6.5601      2.00000
      2      -6.3983      2.00000
      3      -4.7158      2.00000
      4       0.2032      2.00000
      5       0.7661      2.00000
      6       0.9204      2.00000
      7       3.9566      2.00000
      8       4.3158      2.00000
      9       4.8806      2.00000
     10       5.7659      0.00000
     11       6.5132      0.00000
     12       6.8226      0.00000
     13      10.4082      0.00000
     14      11.0832      0.00000

 k-point    43 :       0.3333    0.3333    0.5000
  band No.  band energies     occupation 
      1      -6.4252      2.00000
      2      -6.4252      2.00000
      3      -4.7931      2.00000
      4       0.3535      2.00000
      5       0.5445      2.00000
      6       0.5445      2.00000
      7       4.1957      2.00000
      8       5.0647      1.96377
      9       5.0647      1.96377
     10       5.2023      0.07246
     11       6.4371      0.00000
     12       6.4371      0.00000
     13      11.0703      0.00000
     14      11.6678      0.00000


--------------------------------------------------------------------------------------------------------


 soft charge-density along one line, spin component           1
         0         1         2         3         4         5         6         7         8         9
 total charge-density along one line
 
 pseudopotential strength for first ion, spin component:           1
 51.947  56.519  -0.000  -0.000  -0.048  -0.000  -0.000  -0.070
 56.519  61.497  -0.000  -0.000  -0.053  -0.000  -0.000  -0.076
 -0.000  -0.000  12.776   0.010   0.000  18.416   0.014   0.000
 -0.000  -0.000   0.010  12.792   0.000   0.014  18.440   0.000
 -0.048  -0.053   0.000   0.000  12.792   0.000   0.000  18.440
 -0.000  -0.000  18.416   0.014   0.000  26.556   0.020   0.000
 -0.000  -0.000   0.014  18.440   0.000   0.020  26.590   0.000
 -0.070  -0.076   0.000   0.000  18.440   0.000   0.000  26.590
  0.000   0.000  -0.009   0.000  -0.000  -0.013   0.001  -0.000
  0.015   0.017   0.000  -0.000   0.000   0.000  -0.000   0.001
  0.007   0.008   0.000  -0.000   0.006   0.000  -0.000   0.008
  0.000   0.000   0.000  -0.008  -0.000   0.001  -0.012  -0.000
  0.013   0.014   0.000  -0.000  -0.009   0.000  -0.000  -0.013
 total augmentation occupancy for first ion, spin component:           1
 12.154  -8.679   0.000  -0.000   2.119   0.000   0.000  -0.544   0.000  -0.152  -0.094   0.000  -0.105
 -8.679   7.417   0.000   0.000  -1.769   0.000   0.000   0.460   0.000   0.138   0.085   0.000   0.096
  0.000   0.000   2.401   0.206   0.000  -0.416  -0.187   0.000  -0.052   0.000  -0.000  -0.047   0.000
  0.000   0.000   0.206   2.737   0.000  -0.187  -0.726  -0.000  -0.045  -0.000   0.000  -0.118   0.000
  2.119  -1.769   0.000   0.000   2.609   0.000  -0.000  -0.654   0.000  -0.052  -0.017   0.000  -0.051
  0.000   0.000  -0.416  -0.187   0.000   0.146   0.068   0.000   0.012  -0.000   0.000   0.017   0.000
  0.000  -0.000  -0.187  -0.726  -0.000   0.068   0.256   0.000   0.017   0.000   0.000   0.035   0.000
 -0.544   0.460   0.000  -0.000  -0.654   0.000   0.000   0.221   0.000   0.015   0.004   0.000   0.012
  0.000   0.000  -0.052  -0.045   0.000   0.012   0.017   0.000   0.008   0.000   0.000   0.009   0.000
 -0.152   0.138   0.000  -0.000  -0.052   0.000   0.000   0.015   0.000   0.012   0.004   0.000   0.003
 -0.094   0.085   0.000   0.000  -0.017   0.000  -0.000   0.004   0.000   0.004   0.007   0.000  -0.001
  0.000   0.000  -0.047  -0.118   0.000   0.017   0.035   0.000   0.009   0.000   0.000   0.023   0.000
 -0.105   0.096   0.000   0.000  -0.051   0.000   0.000   0.012  -0.000   0.003  -0.001   0.000   0.008


------------------------ aborting loop because EDIFF is reached ----------------------------------------


    CHARGE:  cpu time    0.1832: real time    0.2354
    FORLOC:  cpu time    0.0162: real time    0.0162
    FORNL :  cpu time    1.0179: real time    1.0220
    STRESS:  cpu time    1.4040: real time    2.1191
    FORCOR:  cpu time    0.0982: real time    0.2047
    FORHAR:  cpu time    0.0296: real time    0.0532
    MIXING:  cpu time    0.0099: real time    0.0185
    OFIELD:  cpu time    0.0000: real time    0.0000

  FORCE on cell =-STRESS in cart. coord.  units (eV):
  Direction    XX          YY          ZZ          XY          YZ          ZX
  --------------------------------------------------------------------------------------
  Alpha Z     2.14500     2.14500     2.14500
  Ewald    -233.61185  -233.61185  -192.08177    -0.00000    -0.00001     0.00000
  Hartree    12.15788    12.15788    23.39206     0.00000     0.00000    -0.00000
  E(xc)     -69.99701   -69.99701   -69.48132    -0.00000     0.00000    -0.00000
  Local    -116.01696  -116.01701  -159.33206    -0.00004     0.00000    -0.00000
  n-local   330.71608   331.48192   326.57783    -1.17145    -0.73986    -1.28587
  augment   -81.05683   -81.05678   -78.71639     0.00004    -0.00000    -0.00000
  Kinetic   151.61805   157.55698   146.10850    -6.68818     0.03430     1.24449
  Fock        0.00000     0.00000     0.00000     0.00000     0.00000     0.00000
  -------------------------------------------------------------------------------------
  Total      -0.69326    -0.69326    -1.38815     0.00000    -0.00000    -0.00000
  in kB     -10.19235   -10.19235   -20.40881     0.00000    -0.00000    -0.00000
  external pressure =      -13.60 kB  Pullay stress =        0.00 kB


 VOLUME and BASIS-vectors are now :
 -----------------------------------------------------------------------------
  energy-cutoff  :      520.00
  volume of cell :      108.98
      direct lattice vectors                 reciprocal lattice vectors
     4.547348236  0.000000000  0.000000000     0.219908384  0.126964164  0.000000000
    -2.273674118  3.938119092 -0.000000000    -0.000000000  0.253928329  0.000000000
     0.000000000 -0.000000000  6.085308485    -0.000000000  0.000000000  0.164330207

  length of vectors
     4.547348236  4.547348236  6.085308485     0.253928329  0.253928329  0.164330207


 FORCES acting on ions
    electron-ion (+dipol)            ewald-force                    non-local-force                 convergence-correction
 -----------------------------------------------------------------------------------------------
   -.119E+02 0.123E-04 -.113E-05   0.171E+02 0.144E-05 0.167E-05   -.524E+01 0.682E-19 -.278E-16   -.218E-04 -.339E-08 -.822E-09
   0.597E+01 -.103E+02 -.190E-04   -.854E+01 0.148E+02 -.824E-05   0.262E+01 -.454E+01 0.000E+00   0.109E-04 -.189E-04 0.289E-07
   0.597E+01 0.103E+02 0.198E-04   -.854E+01 -.148E+02 0.657E-05   0.262E+01 0.454E+01 0.000E+00   0.109E-04 0.189E-04 -.281E-07
 -----------------------------------------------------------------------------------------------
   0.266E-04 -.721E-05 -.314E-06   -.178E-14 0.000E+00 -.347E-17   -.444E-15 0.888E-15 -.278E-16   0.840E-09 0.102E-08 0.173E-10
 
 
 POSITION                                       TOTAL-FORCE (eV/Angst)
 -----------------------------------------------------------------------------------
      1.20931     -0.00000      2.02844        -0.108954     -0.000000     -0.000000
     -0.60466      1.04729      4.05687         0.054477     -0.094357      0.000000
      1.66902      2.89082     -0.00000         0.054477      0.094357     -0.000000
 -----------------------------------------------------------------------------------
    total drift:                                0.000027     -0.000007     -0.000000


--------------------------------------------------------------------------------------------------------



  FREE ENERGIE OF THE ION-ELECTRON SYSTEM (eV)
  ---------------------------------------------------
  free  energy   TOTEN  =        -9.40805736 eV

  energy  without entropy=       -9.40798381  energy(sigma->0) =       -9.40802059
 
 d Force = 0.6981244E-02[-0.590E-02, 0.199E-01]  d Energy = 0.1711415E-01-0.101E-01
 d Force = 0.9869945E+00[ 0.925E+00, 0.105E+01]  d Ewald  =-0.1331922E+02 0.143E+02


--------------------------------------------------------------------------------------------------------


    POTLOK:  cpu time    0.0939: real time    0.1912


--------------------------------------------------------------------------------------------------------


 Steepest descent step on ions:
 trial-energy change:   -0.017114  1 .order   -0.020845   -0.111640    0.069950
  (g-gl).g = 0.112E+00      g.g   = 0.112E+00  gl.gl    = 0.000E+00
 g(Force)  = 0.195E-01   g(Stress)= 0.922E-01 ortho     = 0.000E+00
 gamma     =   0.00000
 trial     =   1.00000
 opt step  =   0.58486  (harmonic =   0.61479) maximal distance =0.01035062
 next E    =    -9.422844   (d E  =  -0.03190)


--------------------------------------------------------------------------------------------------------


    WAVPRE:  cpu time    0.0289: real time    0.0618
    FEWALD:  cpu time    0.0023: real time    0.0023
    GENKIN:  cpu time    0.0319: real time    0.0584
    ORTHCH:  cpu time    0.0948: real time    0.1976
     LOOP+:  cpu time   27.7964: real time   39.7113


--------------------------------------- Iteration      3(   1)  ---------------------------------------


    POTLOK:  cpu time    0.1197: real time    0.2410
    SETDIJ:  cpu time    0.0193: real time    0.0330
     EDDAV:  cpu time    3.1003: real time    5.0069
       DOS:  cpu time    0.0027: real time    0.0026
    CHARGE:  cpu time    0.2485: real time    0.2491
    MIXING:  cpu time    0.0069: real time    0.0069
    --------------------------------------------
      LOOP:  cpu time    3.4973: real time    5.5395

 eigenvalue-minimisations  :  1210
 total energy-change (2. order) :-0.4140786E-01  (-0.7426372E-01)
 number of electron      17.9999993 magnetization 
 augmentation part       -3.5754127 magnetization 

 Broyden mixing:
  rms(total) = 0.10361E+00    rms(broyden)= 0.10361E+00
  rms(prec ) = 0.15359E+00
  weight for this iteration     100.00

 Free energy of the ion-electron system (eV)
  ---------------------------------------------------
  alpha Z        PSCENC =         2.20351892
  Ewald energy   TEWEN  =      -664.78382245
  -Hartree energ DENC   =       -48.42876983
  -exchange      EXHF   =         0.00000000
  -V(xc)+E(xc)   XCENC  =       -84.24950244
  PAW double counting   =      1393.39384867    -1277.99060646
  entropy T*S    EENTRO =        -0.00007332
  eigenvalues    EBANDS =         0.59163833
  atomic energy  EATOM  =       669.81430600
  Solvation  Ediel_sol  =         0.00000000
  ---------------------------------------------------
  free energy    TOTEN  =        -9.44946258 eV

  energy without entropy =       -9.44938926  energy(sigma->0) =       -9.44942592


--------------------------------------------------------------------------------------------------------




--------------------------------------- Iteration      3(   2)  ---------------------------------------


    POTLOK:  cpu time    0.1286: real time    0.2075
    SETDIJ:  cpu time    0.0160: real time    0.0330
     EDDAV:  cpu time    2.9957: real time    5.0057
       DOS:  cpu time    0.0041: real time    0.0042
    CHARGE:  cpu time    0.1549: real time    0.3158
    MIXING:  cpu time    0.0166: real time    0.0336
    --------------------------------------------
      LOOP:  cpu time    3.3158: real time    5.5998

 eigenvalue-minimisations  :  1222
 total energy-change (2. order) : 0.1794167E-01  (-0.2771305E-02)
 number of electron      17.9999993 magnetization 
 augmentation part       -3.5831331 magnetization 

 Broyden mixing:
  rms(total) = 0.51095E-01    rms(broyden)= 0.51095E-01
  rms(prec ) = 0.81402E-01
  weight for this iteration     100.00

 eigenvalues of (default mixing * dielectric matrix)
  average eigenvalue GAMMA=   0.9814
  0.9814

 Free energy of the ion-electron system (eV)
  ---------------------------------------------------
  alpha Z        PSCENC =         2.20351892
  Ewald energy   TEWEN  =      -664.78382245
  -Hartree energ DENC   =       -47.54123658
  -exchange      EXHF   =         0.00000000
  -V(xc)+E(xc)   XCENC  =       -84.22649160
  PAW double counting   =      1434.25098054    -1318.84087597
  entropy T*S    EENTRO =        -0.00007071
  eigenvalues    EBANDS =        -0.30782906
  atomic energy  EATOM  =       669.81430600
  Solvation  Ediel_sol  =         0.00000000
  ---------------------------------------------------
  free energy    TOTEN  =        -9.43152091 eV

  energy without entropy =       -9.43145021  energy(sigma->0) =       -9.43148556


--------------------------------------------------------------------------------------------------------




--------------------------------------- Iteration      3(   3)  ---------------------------------------


    POTLOK:  cpu time    0.1043: real time    0.2099
    SETDIJ:  cpu time    0.0135: real time    0.0218
     EDDAV:  cpu time    3.7611: real time    5.4251
       DOS:  cpu time    0.0024: real time    0.0024
    CHARGE:  cpu time    0.2181: real time    0.2627
    MIXING:  cpu time    0.0118: real time    0.0119
    --------------------------------------------
      LOOP:  cpu time    4.1113: real time    5.9338

 eigenvalue-minimisations  :  1330
 total energy-change (2. order) : 0.7349948E-02  (-0.8379317E-03)
 number of electron      17.9999993 magnetization 
 augmentation part       -3.5961135 magnetization 

 Broyden mixing:
  rms(total) = 0.20432E-01    rms(broyden)= 0.20432E-01
  rms(prec ) = 0.32884E-01
  weight for this iteration     100.00

 eigenvalues of (default mixing * dielectric matrix)
  average eigenvalue GAMMA=   1.2306
  0.7457  1.7155

 Free energy of the ion-electron system (eV)
  ---------------------------------------------------
  alpha Z        PSCENC =         2.20351892
  Ewald energy   TEWEN  =      -664.78382245
  -Hartree energ DENC   =       -46.92760329
  -exchange      EXHF   =         0.00000000
  -V(xc)+E(xc)   XCENC  =       -84.19972947
  PAW double counting   =      1446.41013594    -1331.00574097
  entropy T*S    EENTRO =        -0.00006650
  eigenvalues    EBANDS =        -0.93516914
  atomic energy  EATOM  =       669.81430600
  Solvation  Ediel_sol  =         0.00000000
  ---------------------------------------------------
  free energy    TOTEN  =        -9.42417096 eV

  energy without entropy =       -9.42410446  energy(sigma->0) =       -9.42413771


--------------------------------------------------------------------------------------------------------




--------------------------------------- Iteration      3(   4)  ---------------------------------------


    POTLOK:  cpu time    0.0984: real time    0.2026
    SETDIJ:  cpu time    0.0186: real time    0.0324
     EDDAV:  cpu time    3.3688: real time    4.8336
       DOS:  cpu time    0.0026: real time    0.0026
    CHARGE:  cpu time    0.1301: real time    0.1304
    MIXING:  cpu time    0.0037: real time    0.0036
    --------------------------------------------
      LOOP:  cpu time    3.6222: real time    5.2052

 eigenvalue-minimisations  :  1270
 total energy-change (2. order) : 0.1492261E-02  (-0.2759738E-03)
 number of electron      17.9999993 magnetization 
 augmentation part       -3.6045795 magnetization 

 Broyden mixing:
  rms(total) = 0.37594E-01    rms(broyden)= 0.37594E-01
  rms(prec ) = 0.37821E-01
  weight for this iteration     100.00

 eigenvalues of (default mixing * dielectric matrix)
  average eigenvalue GAMMA=   1.7749
  1.2131  2.0559  2.0559

 Free energy of the ion-electron system (eV)
  ---------------------------------------------------
  alpha Z        PSCENC =         2.20351892
  Ewald energy   TEWEN  =      -664.78382245
  -Hartree energ DENC   =       -46.57558272
  -exchange      EXHF   =         0.00000000
  -V(xc)+E(xc)   XCENC  =       -84.18143965
  PAW double counting   =      1453.69079123    -1338.29722433
  entropy T*S    EENTRO =        -0.00006324
  eigenvalues    EBANDS =        -1.29316246
  atomic energy  EATOM  =       669.81430600
  Solvation  Ediel_sol  =         0.00000000
  ---------------------------------------------------
  free energy    TOTEN  =        -9.42267870 eV

  energy without entropy =       -9.42261546  energy(sigma->0) =       -9.42264708


--------------------------------------------------------------------------------------------------------




--------------------------------------- Iteration      3(   5)  ---------------------------------------


    POTLOK:  cpu time    0.1052: real time    0.1055
    SETDIJ:  cpu time    0.0160: real time    0.0161
     EDDAV:  cpu time    3.2402: real time    4.8865
       DOS:  cpu time    0.0043: real time    0.0094
    CHARGE:  cpu time    0.1253: real time    0.2476
    MIXING:  cpu time    0.0082: real time    0.0176
    --------------------------------------------
      LOOP:  cpu time    3.4993: real time    5.2827

 eigenvalue-minimisations  :  1654
 total energy-change (2. order) : 0.4743806E-04  (-0.1959639E-04)
 number of electron      17.9999993 magnetization 
 augmentation part       -3.6065702 magnetization 

 Broyden mixing:
  rms(total) = 0.75783E-02    rms(broyden)= 0.75783E-02
  rms(prec ) = 0.75889E-02
  weight for this iteration     100.00

 eigenvalues of (default mixing * dielectric matrix)
  average eigenvalue GAMMA=   1.7074
  2.3323  2.3323  0.9929  1.1724

 Free energy of the ion-electron system (eV)
  ---------------------------------------------------
  alpha Z        PSCENC =         2.20351892
  Ewald energy   TEWEN  =      -664.78382245
  -Hartree energ DENC   =       -46.51136971
  -exchange      EXHF   =         0.00000000
  -V(xc)+E(xc)   XCENC  =       -84.17645203
  PAW double counting   =      1461.46629710    -1346.08971851
  entropy T*S    EENTRO =        -0.00006208
  eigenvalues    EBANDS =        -1.34532851
  atomic energy  EATOM  =       669.81430600
  Solvation  Ediel_sol  =         0.00000000
  ---------------------------------------------------
  free energy    TOTEN  =        -9.42263126 eV

  energy without entropy =       -9.42256919  energy(sigma->0) =       -9.42260022


--------------------------------------------------------------------------------------------------------




--------------------------------------- Iteration      3(   6)  ---------------------------------------


    POTLOK:  cpu time    0.0950: real time    0.1904
    SETDIJ:  cpu time    0.0209: real time    0.0415
     EDDAV:  cpu time    2.5770: real time    3.3879
       DOS:  cpu time    0.0049: real time    0.0049
    --------------------------------------------
      LOOP:  cpu time    2.6978: real time    3.6248

 eigenvalue-minimisations  :   716
 total energy-change (2. order) : 0.8253137E-06  (-0.4217761E-06)
 number of electron      17.9999993 magnetization 
 augmentation part       -3.6065702 magnetization 

 Free energy of the ion-electron system (eV)
  ---------------------------------------------------
  alpha Z        PSCENC =         2.20351892
  Ewald energy   TEWEN  =      -664.78382245
  -Hartree energ DENC   =       -46.51392156
  -exchange      EXHF   =         0.00000000
  -V(xc)+E(xc)   XCENC  =       -84.17690154
  PAW double counting   =      1462.77584197    -1347.40149550
  entropy T*S    EENTRO =        -0.00006212
  eigenvalues    EBANDS =        -1.34009415
  atomic energy  EATOM  =       669.81430600
  Solvation  Ediel_sol  =         0.00000000
  ---------------------------------------------------
  free energy    TOTEN  =        -9.42263044 eV

  energy without entropy =       -9.42256831  energy(sigma->0) =       -9.42259938


--------------------------------------------------------------------------------------------------------




 average (electrostatic) potential at core
  the test charge radii are     1.1897
  (the norm of the test charge is              1.0000)
       1 -89.4689       2 -89.4689       3 -89.4689
 
 
 
 E-fermi :   5.4790     XC(G=0):  -8.8862     alpha+bet :-10.1372


 k-point     1 :       0.0000    0.0000    0.0000
  band No.  band energies     occupation 
      1      -7.9182      2.00000
      2      -4.7882      2.00000
      3      -4.7882      2.00000
      4       2.5138      2.00000
      5       2.7163      2.00000
      6       2.7163      2.00000
      7       3.8833      2.00000
      8       3.8834      2.00000
      9       4.7377      2.00000
     10       6.4107      0.00000
     11       6.4107      0.00000
     12       7.0589      0.00000
     13      10.4547      0.00000
     14      10.4547      0.00000

 k-point     2 :       0.1111    0.0000    0.0000
  band No.  band energies     occupation 
      1      -7.8412      2.00000
      2      -4.8132      2.00000
      3      -4.7684      2.00000
      4       1.9150      2.00000
      5       2.3449      2.00000
      6       2.6227      2.00000
      7       4.0882      2.00000
      8       4.3859      2.00000
      9       4.8370      2.00000
     10       6.1847      0.00000
     11       6.3672      0.00000
     12       6.9673      0.00000
     13      10.2570      0.00000
     14      10.4245      0.00000

 k-point     3 :       0.2222    0.0000    0.0000
  band No.  band energies     occupation 
      1      -7.6222      2.00000
      2      -4.9192      2.00000
      3      -4.7144      2.00000
      4       1.1858      2.00000
      5       1.8218      2.00000
      6       2.3150      2.00000
      7       4.1599      2.00000
      8       4.4603      2.00000
      9       4.6630      2.00000
     10       6.3103      0.00000
     11       6.4769      0.00000
     12       7.1166      0.00000
     13       9.5804      0.00000
     14      10.6618      0.00000

 k-point     4 :       0.3333   -0.0000    0.0000
  band No.  band energies     occupation 
      1      -7.3076      2.00000
      2      -5.1436      2.00000
      3      -4.6470      2.00000
      4       0.8233      2.00000
      5       1.4108      2.00000
      6       2.0468      2.00000
      7       3.1955      2.00000
      8       4.4650      2.00000
      9       4.6592      2.00000
     10       6.3184      0.00000
     11       6.4943      0.00000
     12       8.0813      0.00000
     13       8.9725      0.00000
     14      11.4108      0.00000

 k-point     5 :       0.4444    0.0000    0.0000
  band No.  band energies     occupation 
      1      -7.0273      2.00000
      2      -5.3899      2.00000
      3      -4.5995      2.00000
      4       0.7800      2.00000
      5       1.2225      2.00000
      6       1.9830      2.00000
      7       2.3588      2.00000
      8       4.4147      2.00000
      9       4.6385      2.00000
     10       6.3219      0.00000
     11       6.4354      0.00000
     12       8.6442      0.00000
     13       8.8500      0.00000
     14      12.4440      0.00000

 k-point     6 :       0.1111    0.1111    0.0000
  band No.  band energies     occupation 
      1      -7.6929      2.00000
      2      -4.8655      2.00000
      3      -4.7458      2.00000
      4       1.4233      2.00000
      5       1.7386      2.00000
      6       2.6571      2.00000
      7       3.9534      2.00000
      8       4.6381      2.00000
      9       4.7070      2.00000
     10       6.2121      0.00000
     11       6.5146      0.00000
     12       7.0277      0.00000
     13      10.0489      0.00000
     14      10.1461      0.00000

 k-point     7 :       0.2222    0.1111    0.0000
  band No.  band energies     occupation 
      1      -7.4231      2.00000
      2      -5.0091      2.00000
      3      -4.7168      2.00000
      4       0.9755      2.00000
      5       1.3335      2.00000
      6       2.4027      2.00000
      7       3.6908      2.00000
      8       4.0265      2.00000
      9       4.4145      2.00000
     10       6.6366      0.00000
     11       6.9304      0.00000
     12       7.4932      0.00000
     13       9.5054      0.00000
     14      10.4250      0.00000

 k-point     8 :       0.3333    0.1111    0.0000
  band No.  band energies     occupation 
      1      -7.1103      2.00000
      2      -5.2479      2.00000
      3      -4.6861      2.00000
      4       0.8283      2.00000
      5       1.1847      2.00000
      6       2.1047      2.00000
      7       2.7843      2.00000
      8       3.9696      2.00000
      9       4.1865      2.00000
     10       6.7575      0.00000
     11       7.0107      0.00000
     12       8.4425      0.00000
     13       9.0966      0.00000
     14      11.3024      0.00000

 k-point     9 :       0.4444    0.1111    0.0000
  band No.  band energies     occupation 
      1      -6.9480      2.00000
      2      -5.3913      2.00000
      3      -4.6727      2.00000
      4       0.8450      2.00000
      5       1.1802      2.00000
      6       2.1344      2.00000
      7       2.1898      2.00000
      8       3.9722      2.00000
      9       4.0930      2.00000
     10       6.7697      0.00000
     11       7.0262      0.00000
     12       8.8797      0.00000
     13       8.9518      0.00000
     14      12.2058      0.00000

 k-point    10 :       0.2222    0.2222    0.0000
  band No.  band energies     occupation 
      1      -7.1451      2.00000
      2      -5.1205      2.00000
      3      -4.7952      2.00000
      4       0.9409      2.00000
      5       1.0460      2.00000
      6       2.3686      2.00000
      7       3.2283      2.00000
      8       3.5258      2.00000
      9       3.6127      2.00000
     10       7.3492      0.00000
     11       7.6195      0.00000
     12       7.8370      0.00000
     13       9.8435      0.00000
     14      10.2363      0.00000

 k-point    11 :       0.3333    0.2222    0.0000
  band No.  band energies     occupation 
      1      -6.9102      2.00000
      2      -5.2471      2.00000
      3      -4.8681      2.00000
      4       0.9802      2.00000
      5       1.1100      2.00000
      6       2.2464      2.00000
      7       2.5659      2.00000
      8       3.2365      2.00000
      9       3.3487      2.00000
     10       7.5750      0.00000
     11       7.8772      0.00000
     12       8.5259      0.00000
     13       9.7876      0.00000
     14      11.0768      0.00000

 k-point    12 :       0.3333    0.3333    0.0000
  band No.  band energies     occupation 
      1      -6.8226      2.00000
      2      -5.1018      2.00000
      3      -5.1018      2.00000
      4       1.1138      2.00000
      5       1.1138      2.00000
      6       2.5245      2.00000
      7       2.5245      2.00000
      8       2.6652      2.00000
      9       2.9562      2.00000
     10       8.1682      0.00000
     11       8.1682      0.00000
     12       8.4832      0.00000
     13      10.3692      0.00000
     14      11.3571      0.00000

 k-point    13 :       0.0000    0.0000    0.2500
  band No.  band energies     occupation 
      1      -7.7032      2.00000
      2      -6.0644      2.00000
      3      -3.4969      2.00000
      4       2.0170      2.00000
      5       2.6365      2.00000
      6       3.0265      2.00000
      7       4.0478      2.00000
      8       4.0500      2.00000
      9       4.6831      2.00000
     10       6.1369      0.00000
     11       6.1745      0.00000
     12       6.5742      0.00000
     13       9.9396      0.00000
     14      11.0173      0.00000

 k-point    14 :       0.1111    0.0000    0.2500
  band No.  band energies     occupation 
      1      -7.6296      2.00000
      2      -6.0185      2.00000
      3      -3.5916      2.00000
      4       1.7880      2.00000
      5       2.4626      2.00000
      6       2.8852      2.00000
      7       3.8018      2.00000
      8       4.1578      2.00000
      9       4.3546      2.00000
     10       6.3966      0.00000
     11       6.4912      0.00000
     12       6.9031      0.00000
     13      10.0257      0.00000
     14      10.9752      0.00000

 k-point    15 :       0.2222    0.0000    0.2500
  band No.  band energies     occupation 
      1      -7.4239      2.00000
      2      -5.8880      2.00000
      3      -3.8851      2.00000
      4       1.4617      2.00000
      5       2.0666      2.00000
      6       2.6460      2.00000
      7       3.1753      2.00000
      8       3.7470      2.00000
      9       4.2671      2.00000
     10       6.6976      0.00000
     11       7.2495      0.00000
     12       7.6345      0.00000
     13      10.2803      0.00000
     14      10.7040      0.00000

 k-point    16 :       0.3333   -0.0000    0.2500
  band No.  band energies     occupation 
      1      -7.1356      2.00000
      2      -5.7281      2.00000
      3      -4.2851      2.00000
      4       1.1562      2.00000
      5       1.5336      2.00000
      6       2.3516      2.00000
      7       2.7486      2.00000
      8       3.7253      2.00000
      9       4.1678      2.00000
     10       6.7563      0.00000
     11       7.4059      0.00000
     12       8.4105      0.00000
     13       9.8761      0.00000
     14      11.1248      0.00000

 k-point    17 :       0.4444    0.0000    0.2500
  band No.  band energies     occupation 
      1      -6.8775      2.00000
      2      -5.6924      2.00000
      3      -4.5118      2.00000
      4       0.6505      2.00000
      5       1.2284      2.00000
      6       2.0855      2.00000
      7       3.1407      2.00000
      8       3.7493      2.00000
      9       4.0920      2.00000
     10       6.6780      0.00000
     11       7.3647      0.00000
     12       8.2713      0.00000
     13       9.4560      0.00000
     14      11.4960      0.00000

 k-point    18 :      -0.4444   -0.0000    0.2500
  band No.  band energies     occupation 
      1      -6.8526      2.00000
      2      -5.7981      2.00000
      3      -4.3752      2.00000
      4       0.3607      2.00000
      5       1.1425      2.00000
      6       2.0520      2.00000
      7       3.7749      2.00000
      8       3.8638      2.00000
      9       4.2050      2.00000
     10       6.5642      0.00000
     11       7.1842      0.00000
     12       7.5835      0.00000
     13       9.1844      0.00000
     14      11.9746      0.00000

 k-point    19 :      -0.3333    0.0000    0.2500
  band No.  band energies     occupation 
      1      -7.1081      2.00000
      2      -5.8596      2.00000
      3      -4.0742      2.00000
      4       0.5490      2.00000
      5       1.2368      2.00000
      6       2.1950      2.00000
      7       4.0537      2.00000
      8       4.0830      2.00000
      9       4.8947      2.00000
     10       6.2520      0.00000
     11       6.8497      0.00000
     12       7.0002      0.00000
     13       9.1054      0.00000
     14      12.0122      0.00000

 k-point    20 :      -0.2222   -0.0000    0.2500
  band No.  band energies     occupation 
      1      -7.4142      2.00000
      2      -5.9371      2.00000
      3      -3.7812      2.00000
      4       1.1954      2.00000
      5       1.5184      2.00000
      6       2.4698      2.00000
      7       4.2401      2.00000
      8       4.3722      2.00000
      9       4.9740      2.00000
     10       6.0653      0.00000
     11       6.5094      0.00000
     12       6.7939      0.00000
     13       9.3066      0.00000
     14      11.5238      0.00000

 k-point    21 :      -0.1111   -0.0000    0.2500
  band No.  band energies     occupation 
      1      -7.6283      2.00000
      2      -6.0250      2.00000
      3      -3.5750      2.00000
      4       1.8004      2.00000
      5       2.1868      2.00000
      6       2.8062      2.00000
      7       4.2166      2.00000
      8       4.3020      2.00000
      9       4.6158      2.00000
     10       6.1200      0.00000
     11       6.1416      0.00000
     12       6.8936      0.00000
     13       9.7593      0.00000
     14      11.0189      0.00000

 k-point    22 :       0.1111    0.1111    0.2500
  band No.  band energies     occupation 
      1      -7.4866      2.00000
      2      -5.9456      2.00000
      3      -3.7523      2.00000
      4       1.4909      2.00000
      5       1.8240      2.00000
      6       2.6710      2.00000
      7       3.6655      2.00000
      8       4.2177      2.00000
      9       4.6012      2.00000
     10       6.3266      0.00000
     11       6.8588      0.00000
     12       7.0745      0.00000
     13       9.7871      0.00000
     14      10.9888      0.00000

 k-point    23 :       0.2222    0.1111    0.2500
  band No.  band energies     occupation 
      1      -7.2355      2.00000
      2      -5.8017      2.00000
      3      -4.1052      2.00000
      4       1.1666      2.00000
      5       1.5521      2.00000
      6       2.5052      2.00000
      7       2.7965      2.00000
      8       3.8354      2.00000
      9       4.7108      2.00000
     10       6.4802      0.00000
     11       7.2073      0.00000
     12       8.0576      0.00000
     13      10.1020      0.00000
     14      10.5776      0.00000

 k-point    24 :       0.3333    0.1111    0.2500
  band No.  band energies     occupation 
      1      -6.9508      2.00000
      2      -5.6844      2.00000
      3      -4.4575      2.00000
      4       0.8857      2.00000
      5       1.1413      2.00000
      6       2.1894      2.00000
      7       2.8174      2.00000
      8       3.5256      2.00000
      9       4.7318      2.00000
     10       6.4247      0.00000
     11       7.5124      0.00000
     12       8.4110      0.00000
     13       9.7561      0.00000
     14      11.2111      0.00000

 k-point    25 :       0.4444    0.1111    0.2500
  band No.  band energies     occupation 
      1      -6.7913      2.00000
      2      -5.7270      2.00000
      3      -4.5187      2.00000
      4       0.4926      2.00000
      5       1.0262      2.00000
      6       2.0843      2.00000
      7       3.0399      2.00000
      8       3.6657      2.00000
      9       4.7398      2.00000
     10       6.3555      0.00000
     11       7.5734      0.00000
     12       7.9494      0.00000
     13       9.5089      0.00000
     14      11.8398      0.00000

 k-point    26 :      -0.4444    0.1111    0.2500
  band No.  band energies     occupation 
      1      -6.9253      2.00000
      2      -5.7999      2.00000
      3      -4.2991      2.00000
      4       0.4256      2.00000
      5       1.1492      2.00000
      6       2.1224      2.00000
      7       3.0932      2.00000
      8       4.3506      2.00000
      9       4.8142      2.00000
     10       6.2429      0.00000
     11       7.0888      0.00000
     12       7.6094      0.00000
     13       9.4075      0.00000
     14      11.8055      0.00000

 k-point    27 :      -0.3333    0.1111    0.2500
  band No.  band energies     occupation 
      1      -7.2242      2.00000
      2      -5.8572      2.00000
      3      -4.0069      2.00000
      4       0.8427      2.00000
      5       1.3860      2.00000
      6       2.3375      2.00000
      7       3.2959      2.00000
      8       4.5212      2.00000
      9       5.1180      2.00000
     10       6.0163      0.00000
     11       6.7419      0.00000
     12       7.4182      0.00000
     13       9.4693      0.00000
     14      11.2061      0.00000

 k-point    28 :       0.2222    0.2222    0.2500
  band No.  band energies     occupation 
      1      -6.9683      2.00000
      2      -5.7400      2.00000
      3      -4.3497      2.00000
      4       0.6590      2.00000
      5       1.2387      2.00000
      6       2.1161      2.00000
      7       2.6615      2.00000
      8       4.1384      2.00000
      9       4.9909      2.00000
     10       6.3164      0.00000
     11       7.1386      0.00000
     12       8.1702      0.00000
     13      10.0595      0.00000
     14      10.6356      0.00000

 k-point    29 :       0.3333    0.2222    0.2500
  band No.  band energies     occupation 
      1      -6.7546      2.00000
      2      -5.6774      2.00000
      3      -4.5943      2.00000
      4       0.6299      2.00000
      5       0.9098      2.00000
      6       1.7969      2.00000
      7       2.8621      2.00000
      8       3.7849      2.00000
      9       4.8011      2.00000
     10       6.5592      0.00000
     11       7.6384      0.00000
     12       8.1620      0.00000
     13      10.1111      0.00000
     14      11.1636      0.00000

 k-point    30 :       0.4444    0.2222    0.2500
  band No.  band energies     occupation 
      1      -6.7472      2.00000
      2      -5.7088      2.00000
      3      -4.5574      2.00000
      4       0.4952      2.00000
      5       0.9772      2.00000
      6       1.8112      2.00000
      7       2.8220      2.00000
      8       4.0577      2.00000
      9       4.6804      2.00000
     10       6.6697      0.00000
     11       7.4234      0.00000
     12       8.0536      0.00000
     13      10.0314      0.00000
     14      11.3862      0.00000

 k-point    31 :       0.3333    0.3333    0.2500
  band No.  band energies     occupation 
      1      -6.6678      2.00000
      2      -5.6691      2.00000
      3      -4.6664      2.00000
      4       0.5824      2.00000
      5       0.8819      2.00000
      6       1.4936      2.00000
      7       3.0088      2.00000
      8       3.9720      2.00000
      9       4.4195      2.00000
     10       7.0899      0.00000
     11       7.7338      0.00000
     12       7.8195      0.00000
     13      10.8202      0.00000
     14      11.0962      0.00000

 k-point    32 :       0.0000    0.0000    0.5000
  band No.  band energies     occupation 
      1      -7.0706      2.00000
      2      -7.0706      2.00000
      3      -2.8491      2.00000
      4       1.5649      2.00000
      5       2.8998      2.00000
      6       2.8998      2.00000
      7       4.1888      2.00000
      8       4.4555      2.00000
      9       4.4555      2.00000
     10       5.9790      0.00000
     11       6.0178      0.00000
     12       6.0178      0.00000
     13       9.5779      0.00000
     14      10.8379      0.00000

 k-point    33 :       0.1111    0.0000    0.5000
  band No.  band energies     occupation 
      1      -7.0140      2.00000
      2      -6.9982      2.00000
      3      -3.0057      2.00000
      4       1.5248      2.00000
      5       2.7166      2.00000
      6       2.7970      2.00000
      7       3.7591      2.00000
      8       4.0893      2.00000
      9       4.3233      2.00000
     10       6.1979      0.00000
     11       6.3933      0.00000
     12       6.7763      0.00000
     13       9.7994      0.00000
     14      10.5358      0.00000

 k-point    34 :       0.2222    0.0000    0.5000
  band No.  band energies     occupation 
      1      -6.8622      2.00000
      2      -6.7912      2.00000
      3      -3.4146      2.00000
      4       1.2354      2.00000
      5       2.1528      2.00000
      6       2.5096      2.00000
      7       3.5658      2.00000
      8       3.7206      2.00000
      9       4.1594      2.00000
     10       6.5956      0.00000
     11       7.0745      0.00000
     12       7.5094      0.00000
     13      10.0253      0.00000
     14      10.6698      0.00000

 k-point    35 :       0.3333   -0.0000    0.5000
  band No.  band energies     occupation 
      1      -6.6719      2.00000
      2      -6.4915      2.00000
      3      -3.9277      2.00000
      4       0.5801      2.00000
      5       1.8936      2.00000
      6       2.2031      2.00000
      7       3.3433      2.00000
      8       3.5995      2.00000
      9       4.4428      2.00000
     10       6.7965      0.00000
     11       7.3695      0.00000
     12       7.6351      0.00000
     13      10.0203      0.00000
     14      10.9695      0.00000

 k-point    36 :       0.4444    0.0000    0.5000
  band No.  band energies     occupation 
      1      -6.5347      2.00000
      2      -6.2216      2.00000
      3      -4.3290      2.00000
      4       0.1094      2.00000
      5       1.8614      2.00000
      6       1.9809      2.00000
      7       3.1891      2.00000
      8       3.5095      2.00000
      9       5.0435      2.00000
     10       6.3416      0.00000
     11       7.2842      0.00000
     12       7.8852      0.00000
     13      10.0402      0.00000
     14      10.8123      0.00000

 k-point    37 :       0.1111    0.1111    0.5000
  band No.  band energies     occupation 
      1      -6.9062      2.00000
      2      -6.8617      2.00000
      3      -3.2863      2.00000
      4       1.3794      2.00000
      5       2.3699      2.00000
      6       2.4289      2.00000
      7       3.5384      2.00000
      8       3.7121      2.00000
      9       4.5382      2.00000
     10       6.1260      0.00000
     11       7.1674      0.00000
     12       7.3335      0.00000
     13      10.1984      0.00000
     14      10.2766      0.00000

 k-point    38 :       0.2222    0.1111    0.5000
  band No.  band energies     occupation 
      1      -6.7245      2.00000
      2      -6.6150      2.00000
      3      -3.7392      2.00000
      4       0.9279      2.00000
      5       1.7974      2.00000
      6       1.9941      2.00000
      7       3.5359      2.00000
      8       3.8648      2.00000
      9       4.5393      2.00000
     10       6.4134      0.00000
     11       7.4480      0.00000
     12       7.6095      0.00000
     13      10.0922      0.00000
     14      10.8677      0.00000

 k-point    39 :       0.3333    0.1111    0.5000
  band No.  band energies     occupation 
      1      -6.5472      2.00000
      2      -6.3270      2.00000
      3      -4.1949      2.00000
      4       0.3496      2.00000
      5       1.5383      2.00000
      6       1.6834      2.00000
      7       3.6141      2.00000
      8       3.9528      2.00000
      9       4.8054      2.00000
     10       6.5482      0.00000
     11       7.1455      0.00000
     12       7.6792      0.00000
     13      10.1150      0.00000
     14      11.0536      0.00000

 k-point    40 :       0.4444    0.1111    0.5000
  band No.  band energies     occupation 
      1      -6.4717      2.00000
      2      -6.1768      2.00000
      3      -4.4083      2.00000
      4       0.1091      2.00000
      5       1.4978      2.00000
      6       1.5403      2.00000
      7       3.7310      2.00000
      8       3.8151      2.00000
      9       5.2468      2.00000
     10       6.1643      0.00000
     11       7.1344      0.00000
     12       7.6970      0.00000
     13      10.1838      0.00000
     14      10.8629      0.00000

 k-point    41 :       0.2222    0.2222    0.5000
  band No.  band energies     occupation 
      1      -6.5313      2.00000
      2      -6.3931      2.00000
      3      -4.1269      2.00000
      4       0.6284      2.00000
      5       1.1677      2.00000
      6       1.4583      2.00000
      7       3.9189      2.00000
      8       4.2489      2.00000
      9       4.9310      2.00000
     10       6.2560      0.00000
     11       7.3294      0.00000
     12       7.3859      0.00000
     13      10.3467      0.00000
     14      11.1868      0.00000

 k-point    42 :       0.3333    0.2222    0.5000
  band No.  band energies     occupation 
      1      -6.3819      2.00000
      2      -6.2182      2.00000
      3      -4.4109      2.00000
      4       0.3430      2.00000
      5       0.9340      2.00000
      6       1.0898      2.00000
      7       4.2194      2.00000
      8       4.6232      2.00000
      9       5.2139      2.00000
     10       6.1213      0.00000
     11       6.8978      0.00000
     12       7.2101      0.00000
     13      10.6729      0.00000
     14      11.3747      0.00000

 k-point    43 :       0.3333    0.3333    0.5000
  band No.  band energies     occupation 
      1      -6.2438      2.00000
      2      -6.2438      2.00000
      3      -4.4902      2.00000
      4       0.4945      2.00000
      5       0.7035      2.00000
      6       0.7035      2.00000
      7       4.4561      2.00000
      8       5.4021      1.97036
      9       5.4021      1.97036
     10       5.5457      0.05928
     11       6.8211      0.00000
     12       6.8211      0.00000
     13      11.3475      0.00000
     14      11.9723      0.00000


--------------------------------------------------------------------------------------------------------


 soft charge-density along one line, spin component           1
         0         1         2         3         4         5         6         7         8         9
 total charge-density along one line
 
 pseudopotential strength for first ion, spin component:           1
 51.833  56.395  -0.000  -0.000  -0.052  -0.000  -0.000  -0.075
 56.395  61.362  -0.000  -0.000  -0.057  -0.000  -0.000  -0.082
 -0.000  -0.000  12.753   0.010   0.000  18.383   0.014   0.000
 -0.000  -0.000   0.010  12.770   0.000   0.014  18.407   0.000
 -0.052  -0.057   0.000   0.000  12.769   0.000   0.000  18.406
 -0.000  -0.000  18.383   0.014   0.000  26.507   0.021   0.000
 -0.000  -0.000   0.014  18.407   0.000   0.021  26.543   0.000
 -0.075  -0.082   0.000   0.000  18.406   0.000   0.000  26.542
  0.000   0.000  -0.010   0.000  -0.000  -0.015   0.000  -0.000
  0.016   0.017   0.000  -0.000   0.000   0.000  -0.000   0.000
  0.008   0.008   0.000  -0.000   0.006   0.000  -0.000   0.009
  0.000   0.000   0.000  -0.009  -0.000   0.000  -0.014  -0.000
  0.013   0.014   0.000  -0.000  -0.010   0.000  -0.000  -0.014
 total augmentation occupancy for first ion, spin component:           1
 12.668  -9.172   0.000  -0.000   2.263   0.000  -0.000  -0.598   0.000  -0.164  -0.102   0.000  -0.114
 -9.172   7.888   0.000  -0.000  -1.896   0.000   0.000   0.510   0.000   0.150   0.092   0.000   0.103
  0.000   0.000   2.481   0.236   0.000  -0.453  -0.203   0.000  -0.057   0.000   0.000  -0.050   0.000
 -0.000   0.000   0.236   2.865   0.000  -0.203  -0.790  -0.000  -0.049   0.000  -0.000  -0.128   0.000
  2.263  -1.896   0.000   0.000   2.727   0.000  -0.000  -0.710   0.000  -0.056  -0.018   0.000  -0.056
  0.000   0.000  -0.453  -0.203   0.000   0.161   0.077   0.000   0.013   0.000   0.000   0.018   0.000
 -0.000   0.000  -0.203  -0.790  -0.000   0.077   0.284  -0.000   0.019   0.000  -0.000   0.039   0.000
 -0.598   0.510   0.000  -0.000  -0.710  -0.000   0.000   0.245   0.000   0.016   0.004   0.000   0.014
  0.000   0.000  -0.057  -0.049   0.000   0.013   0.019   0.000   0.008   0.000   0.000   0.010   0.000
 -0.164   0.150   0.000   0.000  -0.056   0.000   0.000   0.016   0.000   0.013   0.004   0.000   0.003
 -0.102   0.092   0.000  -0.000  -0.018   0.000   0.000   0.004   0.000   0.004   0.008   0.000  -0.001
  0.000   0.000  -0.050  -0.128   0.000   0.018   0.039   0.000   0.010   0.000   0.000   0.025   0.000
 -0.114   0.103   0.000   0.000  -0.056   0.000   0.000   0.014   0.000   0.003  -0.001   0.000   0.009


------------------------ aborting loop because EDIFF is reached ----------------------------------------


    CHARGE:  cpu time    0.1232: real time    0.2367
    FORLOC:  cpu time    0.0055: real time    0.0055
    FORNL :  cpu time    0.4863: real time    0.6254
    STRESS:  cpu time    1.8217: real time    1.8288
    FORCOR:  cpu time    0.2304: real time    0.2310
    FORHAR:  cpu time    0.0539: real time    0.0540
    MIXING:  cpu time    0.0223: real time    0.0223
    OFIELD:  cpu time    0.0000: real time    0.0000

  FORCE on cell =-STRESS in cart. coord.  units (eV):
  Direction    XX          YY          ZZ          XY          YZ          ZX
  --------------------------------------------------------------------------------------
  Alpha Z     2.20352     2.20352     2.20352
  Ewald    -235.96875  -235.96875  -192.84698    -0.00000    -0.00001     0.00000
  Hartree    11.72805    11.72805    23.05393     0.00000     0.00000    -0.00000
  E(xc)     -70.23156   -70.23156   -69.72659    -0.00000     0.00000    -0.00000
  Local    -113.97204  -113.97209  -158.60981    -0.00004     0.00000    -0.00000
  n-local   331.65349   332.43060   327.63919    -1.20784    -0.73698    -1.27076
  augment   -81.08861   -81.08856   -78.69961     0.00004    -0.00000     0.00000
  Kinetic   152.24226   158.43218   146.76593    -6.99892     0.10100     1.35004
  Fock        0.00000     0.00000     0.00000     0.00000     0.00000     0.00000
  -------------------------------------------------------------------------------------
  Total       0.04989     0.04989    -0.22042     0.00000     0.00000     0.00000
  in kB       0.75347     0.75347    -3.32906     0.00000     0.00000     0.00000
  external pressure =       -0.61 kB  Pullay stress =        0.00 kB


 VOLUME and BASIS-vectors are now :
 -----------------------------------------------------------------------------
  energy-cutoff  :      520.00
  volume of cell :      106.08
      direct lattice vectors                 reciprocal lattice vectors
     4.510795944  0.000000000  0.000000000     0.221690365  0.127992992  0.000000000
    -2.255397972  3.906463879 -0.000000000    -0.000000000  0.255985984  0.000000000
     0.000000000 -0.000000000  6.020086435    -0.000000000  0.000000000  0.166110572

  length of vectors
     4.510795944  4.510795944  6.020086435     0.255985984  0.255985984  0.166110572


 FORCES acting on ions
    electron-ion (+dipol)            ewald-force                    non-local-force                 convergence-correction
 -----------------------------------------------------------------------------------------------
   -.126E+02 0.122E-04 -.120E-05   0.180E+02 0.147E-05 0.175E-05   -.529E+01 0.278E-16 -.111E-15   -.909E-03 0.176E-08 -.927E-10
   0.632E+01 -.109E+02 -.185E-04   -.900E+01 0.156E+02 -.844E-05   0.265E+01 -.458E+01 0.555E-16   0.454E-03 -.787E-03 0.376E-08
   0.632E+01 0.109E+02 0.194E-04   -.900E+01 -.156E+02 0.669E-05   0.265E+01 0.458E+01 0.000E+00   0.454E-03 0.787E-03 -.367E-08
 -----------------------------------------------------------------------------------------------
   0.261E-04 -.715E-05 -.320E-06   0.000E+00 0.178E-14 0.000E+00   -.444E-15 -.888E-15 -.555E-16   -.510E-09 -.555E-09 -.815E-11
 
 
 POSITION                                       TOTAL-FORCE (eV/Angst)
 -----------------------------------------------------------------------------------
      1.19230     -0.00000      2.00670         0.068236      0.000000      0.000000
     -0.59615      1.03256      4.01339        -0.034118      0.059094     -0.000000
      1.65925      2.87390     -0.00000        -0.034118     -0.059094      0.000000
 -----------------------------------------------------------------------------------
    total drift:                                0.000026     -0.000007     -0.000000


--------------------------------------------------------------------------------------------------------



  FREE ENERGIE OF THE ION-ELECTRON SYSTEM (eV)
  ---------------------------------------------------
  free  energy   TOTEN  =        -9.42263044 eV

  energy  without entropy=       -9.42256831  energy(sigma->0) =       -9.42259938
 
 d Force = 0.4451285E-03[-0.149E-02, 0.238E-02]  d Energy = 0.1457308E-01-0.141E-01
 d Force =-0.3834237E+00[-0.393E+00,-0.373E+00]  d Ewald  = 0.5478865E+01-0.586E+01


--------------------------------------------------------------------------------------------------------


    POTLOK:  cpu time    0.1585: real time    0.2764


--------------------------------------------------------------------------------------------------------




--------------------------------------------------------------------------------------------------------


    WAVPRE:  cpu time    0.0203: real time    0.0451
    FEWALD:  cpu time    0.0023: real time    0.0216
    GENKIN:  cpu time    0.0379: real time    0.0762
    ORTHCH:  cpu time    0.0873: real time    0.1906
     LOOP+:  cpu time   23.8364: real time   34.8773


--------------------------------------- Iteration      4(   1)  ---------------------------------------


    POTLOK:  cpu time    0.0930: real time    0.1989
    SETDIJ:  cpu time    0.0117: real time    0.0246
     EDDAV:  cpu time    3.6461: real time    4.0216
       DOS:  cpu time    0.0050: real time    0.0050
    CHARGE:  cpu time    0.1260: real time    0.1264
    MIXING:  cpu time    0.0053: real time    0.0053
    --------------------------------------------
      LOOP:  cpu time    3.8870: real time    4.3817

 eigenvalue-minimisations  :  1258
 total energy-change (2. order) :-0.1313442E-02  (-0.2502100E-02)
 number of electron      17.9999992 magnetization 
 augmentation part       -3.6063996 magnetization 

 Broyden mixing:
  rms(total) = 0.99802E-02    rms(broyden)= 0.99800E-02
  rms(prec ) = 0.15169E-01
  weight for this iteration     100.00

 Free energy of the ion-electron system (eV)
  ---------------------------------------------------
  alpha Z        PSCENC =         2.20532044
  Ewald energy   TEWEN  =      -665.03131768
  -Hartree energ DENC   =       -46.43092440
  -exchange      EXHF   =         0.00000000
  -V(xc)+E(xc)   XCENC  =       -84.18084258
  PAW double counting   =      1462.89068006    -1347.51598566
  entropy T*S    EENTRO =        -0.00003955
  eigenvalues    EBANDS =        -1.17514132
  atomic energy  EATOM  =       669.81430600
  Solvation  Ediel_sol  =         0.00000000
  ---------------------------------------------------
  free energy    TOTEN  =        -9.42394470 eV

  energy without entropy =       -9.42390515  energy(sigma->0) =       -9.42392493


--------------------------------------------------------------------------------------------------------




--------------------------------------- Iteration      4(   2)  ---------------------------------------


    POTLOK:  cpu time    0.0927: real time    0.0932
    SETDIJ:  cpu time    0.0098: real time    0.0098
     EDDAV:  cpu time    3.2487: real time    4.0516
       DOS:  cpu time    0.0026: real time    0.0026
    CHARGE:  cpu time    0.1215: real time    0.2425
    MIXING:  cpu time    0.0031: real time    0.0031
    --------------------------------------------
      LOOP:  cpu time    3.4784: real time    4.4028

 eigenvalue-minimisations  :  1366
 total energy-change (2. order) : 0.3104418E-04  (-0.8598044E-04)
 number of electron      17.9999992 magnetization 
 augmentation part       -3.6061824 magnetization 

 Broyden mixing:
  rms(total) = 0.45733E-02    rms(broyden)= 0.45733E-02
  rms(prec ) = 0.80168E-02
  weight for this iteration     100.00

 eigenvalues of (default mixing * dielectric matrix)
  average eigenvalue GAMMA=   0.9907
  0.9907

 Free energy of the ion-electron system (eV)
  ---------------------------------------------------
  alpha Z        PSCENC =         2.20532044
  Ewald energy   TEWEN  =      -665.03131768
  -Hartree energ DENC   =       -46.42943101
  -exchange      EXHF   =         0.00000000
  -V(xc)+E(xc)   XCENC  =       -84.17880284
  PAW double counting   =      1463.68659246    -1348.31158468
  entropy T*S    EENTRO =        -0.00003588
  eigenvalues    EBANDS =        -1.17896046
  atomic energy  EATOM  =       669.81430600
  Solvation  Ediel_sol  =         0.00000000
  ---------------------------------------------------
  free energy    TOTEN  =        -9.42391366 eV

  energy without entropy =       -9.42387778  energy(sigma->0) =       -9.42389572


--------------------------------------------------------------------------------------------------------




--------------------------------------- Iteration      4(   3)  ---------------------------------------


    POTLOK:  cpu time    0.0726: real time    0.1428
    SETDIJ:  cpu time    0.0098: real time    0.0099
     EDDAV:  cpu time    3.8257: real time    5.0335
       DOS:  cpu time    0.0025: real time    0.0025
    CHARGE:  cpu time    0.2409: real time    0.2421
    MIXING:  cpu time    0.0061: real time    0.0061
    --------------------------------------------
      LOOP:  cpu time    4.1577: real time    5.4368

 eigenvalue-minimisations  :  1504
 total energy-change (2. order) : 0.3230318E-04  (-0.4559434E-05)
 number of electron      17.9999992 magnetization 
 augmentation part       -3.6064902 magnetization 

 Broyden mixing:
  rms(total) = 0.21223E-02    rms(broyden)= 0.21223E-02
  rms(prec ) = 0.36836E-02
  weight for this iteration     100.00

 eigenvalues of (default mixing * dielectric matrix)
  average eigenvalue GAMMA=   1.5634
  0.9240  2.2027

 Free energy of the ion-electron system (eV)
  ---------------------------------------------------
  alpha Z        PSCENC =         2.20532044
  Ewald energy   TEWEN  =      -665.03131768
  -Hartree energ DENC   =       -46.42796956
  -exchange      EXHF   =         0.00000000
  -V(xc)+E(xc)   XCENC  =       -84.17657951
  PAW double counting   =      1463.81789581    -1348.44263491
  entropy T*S    EENTRO =        -0.00003449
  eigenvalues    EBANDS =        -1.18286746
  atomic energy  EATOM  =       669.81430600
  Solvation  Ediel_sol  =         0.00000000
  ---------------------------------------------------
  free energy    TOTEN  =        -9.42388136 eV

  energy without entropy =       -9.42384687  energy(sigma->0) =       -9.42386411


--------------------------------------------------------------------------------------------------------




--------------------------------------- Iteration      4(   4)  ---------------------------------------


    POTLOK:  cpu time    0.1765: real time    0.1980
    SETDIJ:  cpu time    0.0179: real time    0.0183
     EDDAV:  cpu time    2.5772: real time    4.8642
       DOS:  cpu time    0.0026: real time    0.0026
    --------------------------------------------
      LOOP:  cpu time    2.7742: real time    5.0832

 eigenvalue-minimisations  :   764
 total energy-change (2. order) : 0.4891456E-05  (-0.2111718E-05)
 number of electron      17.9999992 magnetization 
 augmentation part       -3.6064902 magnetization 

 Free energy of the ion-electron system (eV)
  ---------------------------------------------------
  alpha Z        PSCENC =         2.20532044
  Ewald energy   TEWEN  =      -665.03131768
  -Hartree energ DENC   =       -46.42793394
  -exchange      EXHF   =         0.00000000
  -V(xc)+E(xc)   XCENC  =       -84.17466292
  PAW double counting   =      1463.75695592    -1348.38169131
  entropy T*S    EENTRO =        -0.00003374
  eigenvalues    EBANDS =        -1.18481923
  atomic energy  EATOM  =       669.81430600
  Solvation  Ediel_sol  =         0.00000000
  ---------------------------------------------------
  free energy    TOTEN  =        -9.42387647 eV

  energy without entropy =       -9.42384273  energy(sigma->0) =       -9.42385960


--------------------------------------------------------------------------------------------------------




 average (electrostatic) potential at core
  the test charge radii are     1.1897
  (the norm of the test charge is              1.0000)
       1 -89.4599       2 -89.4599       3 -89.4599
 
 
 
 E-fermi :   5.5053     XC(G=0):  -8.8901     alpha+bet :-10.1455


 k-point     1 :       0.0000    0.0000    0.0000
  band No.  band energies     occupation 
      1      -7.9101      2.00000
      2      -4.7717      2.00000
      3      -4.7717      2.00000
      4       2.5080      2.00000
      5       2.7243      2.00000
      6       2.7243      2.00000
      7       3.8803      2.00000
      8       3.8803      2.00000
      9       4.7283      2.00000
     10       6.4256      0.00000
     11       6.4256      0.00000
     12       7.0489      0.00000
     13      10.4721      0.00000
     14      10.4721      0.00000

 k-point     2 :       0.1111    0.0000    0.0000
  band No.  band energies     occupation 
      1      -7.8330      2.00000
      2      -4.7977      2.00000
      3      -4.7525      2.00000
      4       1.9166      2.00000
      5       2.3514      2.00000
      6       2.6202      2.00000
      7       4.0907      2.00000
      8       4.3864      2.00000
      9       4.8387      2.00000
     10       6.1945      0.00000
     11       6.3799      0.00000
     12       6.9563      0.00000
     13      10.2656      0.00000
     14      10.4376      0.00000

 k-point     3 :       0.2222    0.0000    0.0000
  band No.  band energies     occupation 
      1      -7.6134      2.00000
      2      -4.9068      2.00000
      3      -4.7002      2.00000
      4       1.1917      2.00000
      5       1.8300      2.00000
      6       2.3089      2.00000
      7       4.1743      2.00000
      8       4.4715      2.00000
      9       4.6667      2.00000
     10       6.3180      0.00000
     11       6.4827      0.00000
     12       7.1094      0.00000
     13       9.5805      0.00000
     14      10.6645      0.00000

 k-point     4 :       0.3333   -0.0000    0.0000
  band No.  band energies     occupation 
      1      -7.2977      2.00000
      2      -5.1359      2.00000
      3      -4.6347      2.00000
      4       0.8352      2.00000
      5       1.4210      2.00000
      6       2.0404      2.00000
      7       3.2084      2.00000
      8       4.4819      2.00000
      9       4.6693      2.00000
     10       6.3248      0.00000
     11       6.4931      0.00000
     12       8.0920      0.00000
     13       8.9704      0.00000
     14      11.4047      0.00000

 k-point     5 :       0.4444    0.0000    0.0000
  band No.  band energies     occupation 
      1      -7.0154      2.00000
      2      -5.3865      2.00000
      3      -4.5885      2.00000
      4       0.7974      2.00000
      5       1.2333      2.00000
      6       1.9794      2.00000
      7       2.3669      2.00000
      8       4.4341      2.00000
      9       4.6518      2.00000
     10       6.3293      0.00000
     11       6.4332      0.00000
     12       8.6416      0.00000
     13       8.8713      0.00000
     14      12.4407      0.00000

 k-point     6 :       0.1111    0.1111    0.0000
  band No.  band energies     occupation 
      1      -7.6844      2.00000
      2      -4.8519      2.00000
      3      -4.7314      2.00000
      4       1.4281      2.00000
      5       1.7416      2.00000
      6       2.6580      2.00000
      7       3.9533      2.00000
      8       4.6529      2.00000
      9       4.7175      2.00000
     10       6.2150      0.00000
     11       6.5222      0.00000
     12       7.0196      0.00000
     13      10.0514      0.00000
     14      10.1481      0.00000

 k-point     7 :       0.2222    0.1111    0.0000
  band No.  band energies     occupation 
      1      -7.4137      2.00000
      2      -4.9991      2.00000
      3      -4.7046      2.00000
      4       0.9848      2.00000
      5       1.3393      2.00000
      6       2.4031      2.00000
      7       3.7025      2.00000
      8       4.0332      2.00000
      9       4.4289      2.00000
     10       6.6420      0.00000
     11       6.9372      0.00000
     12       7.4942      0.00000
     13       9.5030      0.00000
     14      10.4207      0.00000

 k-point     8 :       0.3333    0.1111    0.0000
  band No.  band energies     occupation 
      1      -7.0993      2.00000
      2      -5.2425      2.00000
      3      -4.6758      2.00000
      4       0.8433      2.00000
      5       1.1943      2.00000
      6       2.1040      2.00000
      7       2.7952      2.00000
      8       3.9805      2.00000
      9       4.1994      2.00000
     10       6.7668      0.00000
     11       7.0129      0.00000
     12       8.4580      0.00000
     13       9.0933      0.00000
     14      11.2931      0.00000

 k-point     9 :       0.4444    0.1111    0.0000
  band No.  band energies     occupation 
      1      -6.9355      2.00000
      2      -5.3887      2.00000
      3      -4.6630      2.00000
      4       0.8633      2.00000
      5       1.1913      2.00000
      6       2.1306      2.00000
      7       2.2012      2.00000
      8       3.9877      2.00000
      9       4.1032      2.00000
     10       6.7801      0.00000
     11       7.0282      0.00000
     12       8.9010      0.00000
     13       8.9485      0.00000
     14      12.1986      0.00000

 k-point    10 :       0.2222    0.2222    0.0000
  band No.  band energies     occupation 
      1      -7.1343      2.00000
      2      -5.1134      2.00000
      3      -4.7862      2.00000
      4       0.9548      2.00000
      5       1.0544      2.00000
      6       2.3735      2.00000
      7       3.2378      2.00000
      8       3.5390      2.00000
      9       3.6190      2.00000
     10       7.3612      0.00000
     11       7.6312      0.00000
     12       7.8397      0.00000
     13       9.8393      0.00000
     14      10.2284      0.00000

 k-point    11 :       0.3333    0.2222    0.0000
  band No.  band energies     occupation 
      1      -6.8976      2.00000
      2      -5.2433      2.00000
      3      -4.8611      2.00000
      4       0.9974      2.00000
      5       1.1230      2.00000
      6       2.2512      2.00000
      7       2.5753      2.00000
      8       3.2467      2.00000
      9       3.3565      2.00000
     10       7.5877      0.00000
     11       7.8849      0.00000
     12       8.5405      0.00000
     13       9.7831      0.00000
     14      11.0659      0.00000

 k-point    12 :       0.3333    0.3333    0.0000
  band No.  band energies     occupation 
      1      -6.8091      2.00000
      2      -5.0975      2.00000
      3      -5.0975      2.00000
      4       1.1308      2.00000
      5       1.1308      2.00000
      6       2.5348      2.00000
      7       2.5348      2.00000
      8       2.6692      2.00000
      9       2.9625      2.00000
     10       8.1840      0.00000
     11       8.1840      0.00000
     12       8.4902      0.00000
     13      10.3627      0.00000
     14      11.3445      0.00000

 k-point    13 :       0.0000    0.0000    0.2500
  band No.  band energies     occupation 
      1      -7.6943      2.00000
      2      -6.0501      2.00000
      3      -3.4814      2.00000
      4       2.0407      2.00000
      5       2.6312      2.00000
      6       3.0237      2.00000
      7       4.0461      2.00000
      8       4.0522      2.00000
      9       4.6777      2.00000
     10       6.1382      0.00000
     11       6.1842      0.00000
     12       6.5601      0.00000
     13       9.9548      0.00000
     14      11.0096      0.00000

 k-point    14 :       0.1111    0.0000    0.2500
  band No.  band energies     occupation 
      1      -7.6206      2.00000
      2      -6.0045      2.00000
      3      -3.5779      2.00000
      4       1.8070      2.00000
      5       2.4622      2.00000
      6       2.8849      2.00000
      7       3.8008      2.00000
      8       4.1641      2.00000
      9       4.3486      2.00000
     10       6.3998      0.00000
     11       6.4967      0.00000
     12       6.8959      0.00000
     13      10.0337      0.00000
     14      10.9802      0.00000

 k-point    15 :       0.2222    0.0000    0.2500
  band No.  band energies     occupation 
      1      -7.4145      2.00000
      2      -5.8743      2.00000
      3      -3.8761      2.00000
      4       1.4800      2.00000
      5       2.0710      2.00000
      6       2.6462      2.00000
      7       3.1801      2.00000
      8       3.7496      2.00000
      9       4.2637      2.00000
     10       6.7195      0.00000
     11       7.2509      0.00000
     12       7.6336      0.00000
     13      10.2839      0.00000
     14      10.7112      0.00000

 k-point    16 :       0.3333   -0.0000    0.2500
  band No.  band energies     occupation 
      1      -7.1254      2.00000
      2      -5.7150      2.00000
      3      -4.2813      2.00000
      4       1.1720      2.00000
      5       1.5434      2.00000
      6       2.3479      2.00000
      7       2.7589      2.00000
      8       3.7319      2.00000
      9       4.1691      2.00000
     10       6.7795      0.00000
     11       7.4125      0.00000
     12       8.4270      0.00000
     13       9.8831      0.00000
     14      11.1404      0.00000

 k-point    17 :       0.4444    0.0000    0.2500
  band No.  band energies     occupation 
      1      -6.8658      2.00000
      2      -5.6815      2.00000
      3      -4.5097      2.00000
      4       0.6590      2.00000
      5       1.2444      2.00000
      6       2.0804      2.00000
      7       3.1581      2.00000
      8       3.7574      2.00000
      9       4.0975      2.00000
     10       6.6976      0.00000
     11       7.3744      0.00000
     12       8.2979      0.00000
     13       9.4599      0.00000
     14      11.5314      0.00000

 k-point    18 :      -0.4444   -0.0000    0.2500
  band No.  band energies     occupation 
      1      -6.8403      2.00000
      2      -5.7894      2.00000
      3      -4.3708      2.00000
      4       0.3657      2.00000
      5       1.1606      2.00000
      6       2.0458      2.00000
      7       3.7933      2.00000
      8       3.8722      2.00000
      9       4.2176      2.00000
     10       6.5791      0.00000
     11       7.1938      0.00000
     12       7.6037      0.00000
     13       9.1846      0.00000
     14      12.0160      0.00000

 k-point    19 :      -0.3333    0.0000    0.2500
  band No.  band energies     occupation 
      1      -7.0974      2.00000
      2      -5.8489      2.00000
      3      -4.0670      2.00000
      4       0.5513      2.00000
      5       1.2557      2.00000
      6       2.1879      2.00000
      7       4.0649      2.00000
      8       4.0924      2.00000
      9       4.9174      2.00000
     10       6.2681      0.00000
     11       6.8527      0.00000
     12       7.0018      0.00000
     13       9.1020      0.00000
     14      12.0372      0.00000

 k-point    20 :      -0.2222   -0.0000    0.2500
  band No.  band energies     occupation 
      1      -7.4047      2.00000
      2      -5.9242      2.00000
      3      -3.7706      2.00000
      4       1.1980      2.00000
      5       1.5348      2.00000
      6       2.4625      2.00000
      7       4.2518      2.00000
      8       4.3795      2.00000
      9       4.9868      2.00000
     10       6.0771      0.00000
     11       6.5034      0.00000
     12       6.7910      0.00000
     13       9.3029      0.00000
     14      11.5469      0.00000

 k-point    21 :      -0.1111   -0.0000    0.2500
  band No.  band energies     occupation 
      1      -7.6193      2.00000
      2      -6.0110      2.00000
      3      -3.5611      2.00000
      4       1.8208      2.00000
      5       2.1849      2.00000
      6       2.8010      2.00000
      7       4.2180      2.00000
      8       4.3088      2.00000
      9       4.6181      2.00000
     10       6.1140      0.00000
     11       6.1424      0.00000
     12       6.8942      0.00000
     13       9.7628      0.00000
     14      11.0298      0.00000

 k-point    22 :       0.1111    0.1111    0.2500
  band No.  band energies     occupation 
      1      -7.4773      2.00000
      2      -5.9321      2.00000
      3      -3.7413      2.00000
      4       1.5047      2.00000
      5       1.8294      2.00000
      6       2.6679      2.00000
      7       3.6732      2.00000
      8       4.2180      2.00000
      9       4.6061      2.00000
     10       6.3403      0.00000
     11       6.8610      0.00000
     12       7.0684      0.00000
     13       9.7850      0.00000
     14      11.0035      0.00000

 k-point    23 :       0.2222    0.1111    0.2500
  band No.  band energies     occupation 
      1      -7.2256      2.00000
      2      -5.7888      2.00000
      3      -4.0992      2.00000
      4       1.1764      2.00000
      5       1.5639      2.00000
      6       2.5075      2.00000
      7       2.8030      2.00000
      8       3.8348      2.00000
      9       4.7210      2.00000
     10       6.5025      0.00000
     11       7.2078      0.00000
     12       8.0647      0.00000
     13      10.1062      0.00000
     14      10.5787      0.00000

 k-point    24 :       0.3333    0.1111    0.2500
  band No.  band energies     occupation 
      1      -6.9396      2.00000
      2      -5.6724      2.00000
      3      -4.4555      2.00000
      4       0.8953      2.00000
      5       1.1510      2.00000
      6       2.1943      2.00000
      7       2.8301      2.00000
      8       3.5276      2.00000
      9       4.7451      2.00000
     10       6.4421      0.00000
     11       7.5216      0.00000
     12       8.4324      0.00000
     13       9.7611      0.00000
     14      11.2181      0.00000

 k-point    25 :       0.4444    0.1111    0.2500
  band No.  band energies     occupation 
      1      -6.7787      2.00000
      2      -5.7176      2.00000
      3      -4.5164      2.00000
      4       0.4990      2.00000
      5       1.0385      2.00000
      6       2.0868      2.00000
      7       3.0495      2.00000
      8       3.6807      2.00000
      9       4.7541      2.00000
     10       6.3671      0.00000
     11       7.5879      0.00000
     12       7.9710      0.00000
     13       9.5112      0.00000
     14      11.8685      0.00000

 k-point    26 :      -0.4444    0.1111    0.2500
  band No.  band energies     occupation 
      1      -6.9136      2.00000
      2      -5.7903      2.00000
      3      -4.2945      2.00000
      4       0.4291      2.00000
      5       1.1656      2.00000
      6       2.1211      2.00000
      7       3.1007      2.00000
      8       4.3716      2.00000
      9       4.8286      2.00000
     10       6.2530      0.00000
     11       7.1023      0.00000
     12       7.6174      0.00000
     13       9.4062      0.00000
     14      11.8125      0.00000

 k-point    27 :      -0.3333    0.1111    0.2500
  band No.  band energies     occupation 
      1      -7.2141      2.00000
      2      -5.8453      2.00000
      3      -3.9993      2.00000
      4       0.8450      2.00000
      5       1.4041      2.00000
      6       2.3334      2.00000
      7       3.3035      2.00000
      8       4.5302      2.00000
      9       5.1365      2.00000
     10       6.0330      0.00000
     11       6.7387      0.00000
     12       7.4202      0.00000
     13       9.4651      0.00000
     14      11.2155      0.00000

 k-point    28 :       0.2222    0.2222    0.2500
  band No.  band energies     occupation 
      1      -6.9572      2.00000
      2      -5.7287      2.00000
      3      -4.3464      2.00000
      4       0.6626      2.00000
      5       1.2544      2.00000
      6       2.1177      2.00000
      7       2.6724      2.00000
      8       4.1462      2.00000
      9       5.0102      2.00000
     10       6.3372      0.00000
     11       7.1382      0.00000
     12       8.1823      0.00000
     13      10.0585      0.00000
     14      10.6373      0.00000

 k-point    29 :       0.3333    0.2222    0.2500
  band No.  band energies     occupation 
      1      -6.7419      2.00000
      2      -5.6671      2.00000
      3      -4.5938      2.00000
      4       0.6353      2.00000
      5       0.9207      2.00000
      6       1.8002      2.00000
      7       2.8814      2.00000
      8       3.7940      2.00000
      9       4.8180      2.00000
     10       6.5769      0.00000
     11       7.6487      0.00000
     12       8.1795      0.00000
     13      10.1115      0.00000
     14      11.1594      0.00000

 k-point    30 :       0.4444    0.2222    0.2500
  band No.  band energies     occupation 
      1      -6.7344      2.00000
      2      -5.6992      2.00000
      3      -4.5561      2.00000
      4       0.5001      2.00000
      5       0.9890      2.00000
      6       1.8139      2.00000
      7       2.8375      2.00000
      8       4.0757      2.00000
      9       4.6929      2.00000
     10       6.6889      0.00000
     11       7.4349      0.00000
     12       8.0660      0.00000
     13      10.0306      0.00000
     14      11.3824      0.00000

 k-point    31 :       0.3333    0.3333    0.2500
  band No.  band energies     occupation 
      1      -6.6543      2.00000
      2      -5.6593      2.00000
      3      -4.6670      2.00000
      4       0.5880      2.00000
      5       0.8935      2.00000
      6       1.4943      2.00000
      7       3.0332      2.00000
      8       3.9866      2.00000
      9       4.4297      2.00000
     10       7.1216      0.00000
     11       7.7423      0.00000
     12       7.8275      0.00000
     13      10.8172      0.00000
     14      11.0903      0.00000

 k-point    32 :       0.0000    0.0000    0.5000
  band No.  band energies     occupation 
      1      -7.0593      2.00000
      2      -7.0593      2.00000
      3      -2.8365      2.00000
      4       1.5981      2.00000
      5       2.8947      2.00000
      6       2.8947      2.00000
      7       4.1959      2.00000
      8       4.4562      2.00000
      9       4.4562      2.00000
     10       5.9818      0.00000
     11       6.0033      0.00000
     12       6.0033      0.00000
     13       9.5968      0.00000
     14      10.8247      0.00000

 k-point    33 :       0.1111    0.0000    0.5000
  band No.  band energies     occupation 
      1      -7.0028      2.00000
      2      -6.9869      2.00000
      3      -2.9950      2.00000
      4       1.5553      2.00000
      5       2.7151      2.00000
      6       2.7958      2.00000
      7       3.7612      2.00000
      8       4.0897      2.00000
      9       4.3218      2.00000
     10       6.1981      0.00000
     11       6.3844      0.00000
     12       6.7738      0.00000
     13       9.8154      0.00000
     14      10.5299      0.00000

 k-point    34 :       0.2222    0.0000    0.5000
  band No.  band energies     occupation 
      1      -6.8510      2.00000
      2      -6.7798      2.00000
      3      -3.4080      2.00000
      4       1.2534      2.00000
      5       2.1613      2.00000
      6       2.5112      2.00000
      7       3.5692      2.00000
      8       3.7247      2.00000
      9       4.1584      2.00000
     10       6.6078      0.00000
     11       7.0698      0.00000
     12       7.5193      0.00000
     13      10.0305      0.00000
     14      10.6789      0.00000

 k-point    35 :       0.3333   -0.0000    0.5000
  band No.  band energies     occupation 
      1      -6.6607      2.00000
      2      -6.4793      2.00000
      3      -3.9252      2.00000
      4       0.5873      2.00000
      5       1.9072      2.00000
      6       2.2076      2.00000
      7       3.3415      2.00000
      8       3.6045      2.00000
      9       4.4578      2.00000
     10       6.8258      0.00000
     11       7.3860      0.00000
     12       7.6378      0.00000
     13      10.0308      0.00000
     14      10.9896      0.00000

 k-point    36 :       0.4444    0.0000    0.5000
  band No.  band energies     occupation 
      1      -6.5236      2.00000
      2      -6.2080      2.00000
      3      -4.3298      2.00000
      4       0.1142      2.00000
      5       1.8736      2.00000
      6       1.9878      2.00000
      7       3.1870      2.00000
      8       3.5122      2.00000
      9       5.0703      2.00000
     10       6.3725      0.00000
     11       7.3090      0.00000
     12       7.8935      0.00000
     13      10.0588      0.00000
     14      10.8287      0.00000

 k-point    37 :       0.1111    0.1111    0.5000
  band No.  band energies     occupation 
      1      -6.8949      2.00000
      2      -6.8504      2.00000
      3      -3.2786      2.00000
      4       1.4031      2.00000
      5       2.3715      2.00000
      6       2.4312      2.00000
      7       3.5429      2.00000
      8       3.7130      2.00000
      9       4.5408      2.00000
     10       6.1221      0.00000
     11       7.1760      0.00000
     12       7.3342      0.00000
     13      10.2105      0.00000
     14      10.2766      0.00000

 k-point    38 :       0.2222    0.1111    0.5000
  band No.  band energies     occupation 
      1      -6.7132      2.00000
      2      -6.6033      2.00000
      3      -3.7353      2.00000
      4       0.9396      2.00000
      5       1.8033      2.00000
      6       1.9970      2.00000
      7       3.5431      2.00000
      8       3.8789      2.00000
      9       4.5419      2.00000
     10       6.4212      0.00000
     11       7.4624      0.00000
     12       7.6216      0.00000
     13      10.0997      0.00000
     14      10.8775      0.00000

 k-point    39 :       0.3333    0.1111    0.5000
  band No.  band energies     occupation 
      1      -6.5359      2.00000
      2      -6.3142      2.00000
      3      -4.1945      2.00000
      4       0.3555      2.00000
      5       1.5444      2.00000
      6       1.6881      2.00000
      7       3.6214      2.00000
      8       3.9648      2.00000
      9       4.8222      2.00000
     10       6.5784      0.00000
     11       7.1602      0.00000
     12       7.6893      0.00000
     13      10.1290      0.00000
     14      11.0724      0.00000

 k-point    40 :       0.4444    0.1111    0.5000
  band No.  band energies     occupation 
      1      -6.4604      2.00000
      2      -6.1629      2.00000
      3      -4.4099      2.00000
      4       0.1139      2.00000
      5       1.5007      2.00000
      6       1.5482      2.00000
      7       3.7356      2.00000
      8       3.8270      2.00000
      9       5.2737      2.00000
     10       6.1930      0.00000
     11       7.1582      0.00000
     12       7.7035      0.00000
     13      10.2029      0.00000
     14      10.8788      0.00000

 k-point    41 :       0.2222    0.2222    0.5000
  band No.  band energies     occupation 
      1      -6.5196      2.00000
      2      -6.3809      2.00000
      3      -4.1260      2.00000
      4       0.6374      2.00000
      5       1.1677      2.00000
      6       1.4622      2.00000
      7       3.9395      2.00000
      8       4.2674      2.00000
      9       4.9375      2.00000
     10       6.2702      0.00000
     11       7.3419      0.00000
     12       7.4050      0.00000
     13      10.3533      0.00000
     14      11.1972      0.00000

 k-point    42 :       0.3333    0.2222    0.5000
  band No.  band energies     occupation 
      1      -6.3700      2.00000
      2      -6.2050      2.00000
      3      -4.4125      2.00000
      4       0.3487      2.00000
      5       0.9354      2.00000
      6       1.0931      2.00000
      7       4.2445      2.00000
      8       4.6405      2.00000
      9       5.2302      2.00000
     10       6.1515      0.00000
     11       6.9105      0.00000
     12       7.2168      0.00000
     13      10.6832      0.00000
     14      11.3890      0.00000

 k-point    43 :       0.3333    0.3333    0.5000
  band No.  band energies     occupation 
      1      -6.2310      2.00000
      2      -6.2310      2.00000
      3      -4.4926      2.00000
      4       0.5033      2.00000
      5       0.7036      2.00000
      6       0.7036      2.00000
      7       4.4883      2.00000
      8       5.4189      1.98543
      9       5.4189      1.98543
     10       5.5824      0.02913
     11       6.8270      0.00000
     12       6.8270      0.00000
     13      11.3517      0.00000
     14      11.9796      0.00000


--------------------------------------------------------------------------------------------------------


 soft charge-density along one line, spin component           1
         0         1         2         3         4         5         6         7         8         9
 total charge-density along one line
 
 pseudopotential strength for first ion, spin component:           1
 51.829  56.391  -0.000  -0.000  -0.052  -0.000  -0.000  -0.075
 56.391  61.358  -0.000  -0.000  -0.056  -0.000  -0.000  -0.081
 -0.000  -0.000  12.752   0.010   0.000  18.381   0.014   0.000
 -0.000  -0.000   0.010  12.769   0.000   0.014  18.406   0.000
 -0.052  -0.056   0.000   0.000  12.768   0.000   0.000  18.405
 -0.000  -0.000  18.381   0.014   0.000  26.506   0.021   0.000
 -0.000  -0.000   0.014  18.406   0.000   0.021  26.541   0.000
 -0.075  -0.081   0.000   0.000  18.405   0.000   0.000  26.540
  0.000   0.000  -0.010   0.000  -0.000  -0.015   0.000  -0.000
  0.016   0.017   0.000  -0.000   0.000   0.000  -0.000   0.000
  0.008   0.008   0.000  -0.000   0.006   0.000  -0.000   0.009
  0.000   0.000   0.000  -0.009  -0.000   0.000  -0.013  -0.000
  0.013   0.014   0.000  -0.000  -0.010   0.000  -0.000  -0.014
 total augmentation occupancy for first ion, spin component:           1
 12.687  -9.191   0.000   0.000   2.251   0.000   0.000  -0.594   0.000  -0.164  -0.100   0.000  -0.115
 -9.191   7.907   0.000  -0.000  -1.886   0.000   0.000   0.506   0.000   0.149   0.090   0.000   0.104
  0.000   0.000   2.487   0.234   0.000  -0.457  -0.202   0.000  -0.057   0.000   0.000  -0.050   0.000
 -0.000   0.000   0.234   2.858   0.000  -0.202  -0.785  -0.000  -0.049   0.000   0.000  -0.127   0.000
  2.251  -1.886   0.000   0.000   2.730   0.000  -0.000  -0.711   0.000  -0.056  -0.017   0.000  -0.056
  0.000   0.000  -0.457  -0.202   0.000   0.162   0.076   0.000   0.014   0.000   0.000   0.018   0.000
  0.000   0.000  -0.202  -0.785  -0.000   0.076   0.282   0.000   0.019   0.000  -0.000   0.038   0.000
 -0.594   0.506   0.000  -0.000  -0.711   0.000   0.000   0.245   0.000   0.016   0.004  -0.000   0.014
  0.000   0.000  -0.057  -0.049   0.000   0.014   0.019   0.000   0.008   0.000   0.000   0.010   0.000
 -0.164   0.149   0.000   0.000  -0.056   0.000   0.000   0.016   0.000   0.013   0.004   0.000   0.003
 -0.100   0.090   0.000   0.000  -0.017   0.000   0.000   0.004   0.000   0.004   0.007   0.000  -0.001
  0.000   0.000  -0.050  -0.127   0.000   0.018   0.038   0.000   0.010   0.000   0.000   0.025   0.000
 -0.115   0.104   0.000   0.000  -0.056   0.000   0.000   0.014   0.000   0.003  -0.001   0.000   0.009


------------------------ aborting loop because EDIFF is reached ----------------------------------------


    CHARGE:  cpu time    0.1363: real time    0.2801
    FORLOC:  cpu time    0.0076: real time    0.0163
    FORNL :  cpu time    0.4879: real time    0.5636
    STRESS:  cpu time    1.4442: real time    1.8480
    FORCOR:  cpu time    0.0950: real time    0.1861
    FORHAR:  cpu time    0.0285: real time    0.0662
    MIXING:  cpu time    0.0208: real time    0.0518
    OFIELD:  cpu time    0.0000: real time    0.0000

  FORCE on cell =-STRESS in cart. coord.  units (eV):
  Direction    XX          YY          ZZ          XY          YZ          ZX
  --------------------------------------------------------------------------------------
  Alpha Z     2.20532     2.20532     2.20532
  Ewald    -235.68019  -235.68018  -193.67160    -0.00000    -0.00001     0.00000
  Hartree    11.78907    11.78907    22.85139     0.00000     0.00000    -0.00000
  E(xc)     -70.22742   -70.22742   -69.73541    -0.00000     0.00000    -0.00000
  Local    -114.25091  -114.25096  -157.72212    -0.00004     0.00000    -0.00000
  n-local   331.61762   332.41574   327.69202    -1.19076    -0.72989    -1.25321
  augment   -81.07327   -81.07322   -78.73900     0.00004    -0.00000     0.00000
  Kinetic   152.13834   158.36521   146.95881    -7.02590     0.12208     1.40215
  Fock        0.00000     0.00000     0.00000     0.00000     0.00000     0.00000
  -------------------------------------------------------------------------------------
  Total       0.03105     0.03105    -0.16059     0.00000     0.00000     0.00000
  in kB       0.46936     0.46936    -2.42742     0.00000     0.00000     0.00000
  external pressure =       -0.50 kB  Pullay stress =        0.00 kB


 VOLUME and BASIS-vectors are now :
 -----------------------------------------------------------------------------
  energy-cutoff  :      520.00
  volume of cell :      105.99
      direct lattice vectors                 reciprocal lattice vectors
     4.515419214 -0.000000000  0.000000000     0.221463380  0.127861942  0.000000000
    -2.257709607  3.910467748 -0.000000000    -0.000000000  0.255723884  0.000000000
     0.000000000 -0.000000000  6.002857283    -0.000000000  0.000000000  0.166587335

  length of vectors
     4.515419214  4.515419214  6.002857283     0.255723884  0.255723884  0.166587335


 FORCES acting on ions
    electron-ion (+dipol)            ewald-force                    non-local-force                 convergence-correction
 -----------------------------------------------------------------------------------------------
   -.126E+02 0.122E-04 -.119E-05   0.179E+02 0.149E-05 0.174E-05   -.528E+01 -.555E-16 0.833E-16   -.234E-02 0.766E-08 -.339E-09
   0.630E+01 -.109E+02 -.185E-04   -.897E+01 0.155E+02 -.836E-05   0.264E+01 -.457E+01 -.111E-15   0.117E-02 -.202E-02 0.111E-08
   0.630E+01 0.109E+02 0.193E-04   -.897E+01 -.155E+02 0.663E-05   0.264E+01 0.457E+01 0.000E+00   0.117E-02 0.202E-02 -.820E-09
 -----------------------------------------------------------------------------------------------
   0.261E-04 -.724E-05 -.317E-06   -.178E-14 0.000E+00 0.000E+00   0.133E-14 -.888E-15 -.278E-16   0.209E-08 0.530E-08 -.492E-10
 
 
 POSITION                                       TOTAL-FORCE (eV/Angst)
 -----------------------------------------------------------------------------------
      1.19681     -0.00000      2.00095         0.057011     -0.000000      0.000000
     -0.59840      1.03646      4.00190        -0.028506      0.049373     -0.000000
      1.65931      2.87400     -0.00000        -0.028506     -0.049373      0.000000
 -----------------------------------------------------------------------------------
    total drift:                                0.000026     -0.000007     -0.000000


--------------------------------------------------------------------------------------------------------



  FREE ENERGIE OF THE ION-ELECTRON SYSTEM (eV)
  ---------------------------------------------------
  free  energy   TOTEN  =        -9.42387647 eV

  energy  without entropy=       -9.42384273  energy(sigma->0) =       -9.42385960
 
 d Force = 0.6164482E-03[ 0.561E-03, 0.672E-03]  d Energy = 0.1246028E-02-0.630E-03
 d Force = 0.1768551E+00[ 0.177E+00, 0.177E+00]  d Ewald  = 0.2474952E+00-0.706E-01


--------------------------------------------------------------------------------------------------------


    POTLOK:  cpu time    0.1085: real time    0.1362


--------------------------------------------------------------------------------------------------------


 Conjugate gradient step on ions:
 trial-energy change:   -0.001246  1 .order   -0.001244   -0.001404   -0.001084
  (g-gl).g = 0.178E-02      g.g   = 0.154E-02  gl.gl    = 0.112E+00
 g(Force)  = 0.674E-03   g(Stress)= 0.861E-03 ortho     =-0.249E-03
 gamma     =   0.01598
 trial     =   0.91697
 opt step  =   3.66789  (harmonic =   4.02070) maximal distance =0.01311149
 next E    =    -9.425709   (d E  =  -0.00308)


--------------------------------------------------------------------------------------------------------


    WAVPRE:  cpu time    0.0190: real time    0.0466
    FEWALD:  cpu time    0.0002: real time    0.0002
    GENKIN:  cpu time    0.0555: real time    0.1051
    ORTHCH:  cpu time    0.1042: real time    0.2121
     LOOP+:  cpu time   16.8635: real time   22.9420


--------------------------------------- Iteration      5(   1)  ---------------------------------------


    POTLOK:  cpu time    0.1021: real time    0.2010
    SETDIJ:  cpu time    0.0210: real time    0.0412
     EDDAV:  cpu time    2.6350: real time    3.5523
       DOS:  cpu time    0.0026: real time    0.0026
    CHARGE:  cpu time    0.1326: real time    0.2702
    MIXING:  cpu time    0.0029: real time    0.0029
    --------------------------------------------
      LOOP:  cpu time    2.8962: real time    4.0702

 eigenvalue-minimisations  :  1252
 total energy-change (2. order) :-0.2435399E-02  (-0.2272057E-01)
 number of electron      17.9999995 magnetization 
 augmentation part       -3.6060859 magnetization 

 Broyden mixing:
  rms(total) = 0.29149E-01    rms(broyden)= 0.29148E-01
  rms(prec ) = 0.45328E-01
  weight for this iteration     100.00

 Free energy of the ion-electron system (eV)
  ---------------------------------------------------
  alpha Z        PSCENC =         2.21087129
  Ewald energy   TEWEN  =      -665.80120021
  -Hartree energ DENC   =       -46.18501277
  -exchange      EXHF   =         0.00000000
  -V(xc)+E(xc)   XCENC  =       -84.18474159
  PAW double counting   =      1463.74581309    -1348.37072115
  entropy T*S    EENTRO =        -0.00000646
  eigenvalues    EBANDS =        -0.65562495
  atomic energy  EATOM  =       669.81430600
  Solvation  Ediel_sol  =         0.00000000
  ---------------------------------------------------
  free energy    TOTEN  =        -9.42631676 eV

  energy without entropy =       -9.42631029  energy(sigma->0) =       -9.42631353


--------------------------------------------------------------------------------------------------------




--------------------------------------- Iteration      5(   2)  ---------------------------------------


    POTLOK:  cpu time    0.0864: real time    0.1730
    SETDIJ:  cpu time    0.0100: real time    0.0192
     EDDAV:  cpu time    2.6151: real time    4.6344
       DOS:  cpu time    0.0025: real time    0.0025
    CHARGE:  cpu time    0.1247: real time    0.2439
    MIXING:  cpu time    0.0031: real time    0.0031
    --------------------------------------------
      LOOP:  cpu time    2.8419: real time    5.0761

 eigenvalue-minimisations  :  1366
 total energy-change (2. order) : 0.2622191E-03  (-0.7830186E-03)
 number of electron      17.9999995 magnetization 
 augmentation part       -3.6057227 magnetization 

 Broyden mixing:
  rms(total) = 0.13766E-01    rms(broyden)= 0.13766E-01
  rms(prec ) = 0.24313E-01
  weight for this iteration     100.00

 eigenvalues of (default mixing * dielectric matrix)
  average eigenvalue GAMMA=   0.9952
  0.9952

 Free energy of the ion-electron system (eV)
  ---------------------------------------------------
  alpha Z        PSCENC =         2.21087129
  Ewald energy   TEWEN  =      -665.80120021
  -Hartree energ DENC   =       -46.17544564
  -exchange      EXHF   =         0.00000000
  -V(xc)+E(xc)   XCENC  =       -84.17856230
  PAW double counting   =      1465.99377731    -1350.61774139
  entropy T*S    EENTRO =        -0.00000442
  eigenvalues    EBANDS =        -0.67205517
  atomic energy  EATOM  =       669.81430600
  Solvation  Ediel_sol  =         0.00000000
  ---------------------------------------------------
  free energy    TOTEN  =        -9.42605454 eV

  energy without entropy =       -9.42605012  energy(sigma->0) =       -9.42605233


--------------------------------------------------------------------------------------------------------




--------------------------------------- Iteration      5(   3)  ---------------------------------------


    POTLOK:  cpu time    0.0750: real time    0.1609
    SETDIJ:  cpu time    0.0102: real time    0.0224
     EDDAV:  cpu time    3.1214: real time    4.6659
       DOS:  cpu time    0.0025: real time    0.0025
    CHARGE:  cpu time    0.2125: real time    0.2933
    MIXING:  cpu time    0.0240: real time    0.0241
    --------------------------------------------
      LOOP:  cpu time    3.4456: real time    5.1691

 eigenvalue-minimisations  :  1522
 total energy-change (2. order) : 0.2934239E-03  (-0.4259459E-04)
 number of electron      17.9999995 magnetization 
 augmentation part       -3.6066649 magnetization 

 Broyden mixing:
  rms(total) = 0.62638E-02    rms(broyden)= 0.62638E-02
  rms(prec ) = 0.10926E-01
  weight for this iteration     100.00

 eigenvalues of (default mixing * dielectric matrix)
  average eigenvalue GAMMA=   1.5609
  0.9218  2.2000

 Free energy of the ion-electron system (eV)
  ---------------------------------------------------
  alpha Z        PSCENC =         2.21087129
  Ewald energy   TEWEN  =      -665.80120021
  -Hartree energ DENC   =       -46.16905027
  -exchange      EXHF   =         0.00000000
  -V(xc)+E(xc)   XCENC  =       -84.17170660
  PAW double counting   =      1466.16257181    -1350.78588969
  entropy T*S    EENTRO =        -0.00000377
  eigenvalues    EBANDS =        -0.68565966
  atomic energy  EATOM  =       669.81430600
  Solvation  Ediel_sol  =         0.00000000
  ---------------------------------------------------
  free energy    TOTEN  =        -9.42576111 eV

  energy without entropy =       -9.42575734  energy(sigma->0) =       -9.42575923


--------------------------------------------------------------------------------------------------------




--------------------------------------- Iteration      5(   4)  ---------------------------------------


    POTLOK:  cpu time    0.1093: real time    0.2205
    SETDIJ:  cpu time    0.0167: real time    0.0338
     EDDAV:  cpu time    3.3326: real time    4.7474
       DOS:  cpu time    0.0025: real time    0.0025
    CHARGE:  cpu time    0.2248: real time    0.2818
    MIXING:  cpu time    0.0129: real time    0.0129
    --------------------------------------------
      LOOP:  cpu time    3.6987: real time    5.2988

 eigenvalue-minimisations  :  1360
 total energy-change (2. order) : 0.3681795E-04  (-0.2047484E-04)
 number of electron      17.9999995 magnetization 
 augmentation part       -3.6075087 magnetization 

 Broyden mixing:
  rms(total) = 0.33018E-02    rms(broyden)= 0.33018E-02
  rms(prec ) = 0.36540E-02
  weight for this iteration     100.00

 eigenvalues of (default mixing * dielectric matrix)
  average eigenvalue GAMMA=   1.6746
  1.0735  2.2665  1.6838

 Free energy of the ion-electron system (eV)
  ---------------------------------------------------
  alpha Z        PSCENC =         2.21087129
  Ewald energy   TEWEN  =      -665.80120021
  -Hartree energ DENC   =       -46.16788731
  -exchange      EXHF   =         0.00000000
  -V(xc)+E(xc)   XCENC  =       -84.16598213
  PAW double counting   =      1465.78322688    -1350.40665051
  entropy T*S    EENTRO =        -0.00000347
  eigenvalues    EBANDS =        -0.69240484
  atomic energy  EATOM  =       669.81430600
  Solvation  Ediel_sol  =         0.00000000
  ---------------------------------------------------
  free energy    TOTEN  =        -9.42572430 eV

  energy without entropy =       -9.42572083  energy(sigma->0) =       -9.42572256


--------------------------------------------------------------------------------------------------------




--------------------------------------- Iteration      5(   5)  ---------------------------------------


    POTLOK:  cpu time    0.2134: real time    0.2140
    SETDIJ:  cpu time    0.0343: real time    0.0344
     EDDAV:  cpu time    2.3830: real time    3.5883
       DOS:  cpu time    0.0025: real time    0.0025
    --------------------------------------------
      LOOP:  cpu time    2.6332: real time    3.8392

 eigenvalue-minimisations  :  1142
 total energy-change (2. order) :-0.3542029E-05  (-0.2447700E-05)
 number of electron      17.9999995 magnetization 
 augmentation part       -3.6075087 magnetization 

 Free energy of the ion-electron system (eV)
  ---------------------------------------------------
  alpha Z        PSCENC =         2.21087129
  Ewald energy   TEWEN  =      -665.80120021
  -Hartree energ DENC   =       -46.17233379
  -exchange      EXHF   =         0.00000000
  -V(xc)+E(xc)   XCENC  =       -84.16526651
  PAW double counting   =      1466.00838017    -1350.63248768
  entropy T*S    EENTRO =        -0.00000362
  eigenvalues    EBANDS =        -0.68799348
  atomic energy  EATOM  =       669.81430600
  Solvation  Ediel_sol  =         0.00000000
  ---------------------------------------------------
  free energy    TOTEN  =        -9.42572784 eV

  energy without entropy =       -9.42572421  energy(sigma->0) =       -9.42572603


--------------------------------------------------------------------------------------------------------




 average (electrostatic) potential at core
  the test charge radii are     1.1897
  (the norm of the test charge is              1.0000)
       1 -89.4306       2 -89.4306       3 -89.4306
 
 
 
 E-fermi :   5.5854     XC(G=0):  -8.9011     alpha+bet :-10.1711


 k-point     1 :       0.0000    0.0000    0.0000
  band No.  band energies     occupation 
      1      -7.8843      2.00000
      2      -4.7206      2.00000
      3      -4.7206      2.00000
      4       2.4932      2.00000
      5       2.7496      2.00000
      6       2.7496      2.00000
      7       3.8726      2.00000
      8       3.8726      2.00000
      9       4.7009      2.00000
     10       6.4720      0.00000
     11       6.4720      0.00000
     12       7.0218      0.00000
     13      10.5267      0.00000
     14      10.5267      0.00000

 k-point     2 :       0.1111    0.0000    0.0000
  band No.  band energies     occupation 
      1      -7.8068      2.00000
      2      -4.7495      2.00000
      3      -4.7033      2.00000
      4       1.9229      2.00000
      5       2.3726      2.00000
      6       2.6147      2.00000
      7       4.0996      2.00000
      8       4.3884      2.00000
      9       4.8458      2.00000
     10       6.2253      0.00000
     11       6.4196      0.00000
     12       6.9262      0.00000
     13      10.2936      0.00000
     14      10.4788      0.00000

 k-point     3 :       0.2222    0.0000    0.0000
  band No.  band energies     occupation 
      1      -7.5858      2.00000
      2      -4.8680      2.00000
      3      -4.6560      2.00000
      4       1.2111      2.00000
      5       1.8567      2.00000
      6       2.2920      2.00000
      7       4.2196      2.00000
      8       4.5063      2.00000
      9       4.6799      2.00000
     10       6.3420      0.00000
     11       6.5011      0.00000
     12       7.0892      0.00000
     13       9.5836      0.00000
     14      10.6752      0.00000

 k-point     4 :       0.3333   -0.0000    0.0000
  band No.  band energies     occupation 
      1      -7.2664      2.00000
      2      -5.1112      2.00000
      3      -4.5962      2.00000
      4       0.8730      2.00000
      5       1.4538      2.00000
      6       2.0225      2.00000
      7       3.2496      2.00000
      8       4.5346      2.00000
      9       4.7017      2.00000
     10       6.3439      0.00000
     11       6.4918      0.00000
     12       8.1234      0.00000
     13       8.9667      0.00000
     14      11.3888      0.00000

 k-point     5 :       0.4444    0.0000    0.0000
  band No.  band energies     occupation 
      1      -6.9780      2.00000
      2      -5.3753      2.00000
      3      -4.5539      2.00000
      4       0.8519      2.00000
      5       1.2676      2.00000
      6       1.9690      2.00000
      7       2.3954      2.00000
      8       4.4944      2.00000
      9       4.6940      2.00000
     10       6.3514      0.00000
     11       6.4286      0.00000
     12       8.6363      0.00000
     13       8.9342      0.00000
     14      12.4299      0.00000

 k-point     6 :       0.1111    0.1111    0.0000
  band No.  band energies     occupation 
      1      -7.6572      2.00000
      2      -4.8092      2.00000
      3      -4.6864      2.00000
      4       1.4443      2.00000
      5       1.7523      2.00000
      6       2.6631      2.00000
      7       3.9537      2.00000
      8       4.6999      2.00000
      9       4.7520      2.00000
     10       6.2239      0.00000
     11       6.5433      0.00000
     12       6.9998      0.00000
     13      10.0614      0.00000
     14      10.1565      0.00000

 k-point     7 :       0.2222    0.1111    0.0000
  band No.  band energies     occupation 
      1      -7.3840      2.00000
      2      -4.9674      2.00000
      3      -4.6663      2.00000
      4       1.0146      2.00000
      5       1.3587      2.00000
      6       2.4064      2.00000
      7       3.7387      2.00000
      8       4.0555      2.00000
      9       4.4752      2.00000
     10       6.6569      0.00000
     11       6.9594      0.00000
     12       7.4986      0.00000
     13       9.4984      0.00000
     14      10.4102      0.00000

 k-point     8 :       0.3333    0.1111    0.0000
  band No.  band energies     occupation 
      1      -7.0643      2.00000
      2      -5.2250      2.00000
      3      -4.6432      2.00000
      4       0.8903      2.00000
      5       1.2253      2.00000
      6       2.1033      2.00000
      7       2.8306      2.00000
      8       4.0142      2.00000
      9       4.2415      2.00000
     10       6.7949      0.00000
     11       7.0216      0.00000
     12       8.5040      0.00000
     13       9.0859      0.00000
     14      11.2673      0.00000

 k-point     9 :       0.4444    0.1111    0.0000
  band No.  band energies     occupation 
      1      -6.8960      2.00000
      2      -5.3794      2.00000
      3      -4.6327      2.00000
      4       0.9207      2.00000
      5       1.2265      2.00000
      6       2.1215      2.00000
      7       2.2374      2.00000
      8       4.0363      2.00000
      9       4.1357      2.00000
     10       6.8117      0.00000
     11       7.0358      0.00000
     12       8.9410      0.00000
     13       8.9641      0.00000
     14      12.1779      0.00000

 k-point    10 :       0.2222    0.2222    0.0000
  band No.  band energies     occupation 
      1      -7.1004      2.00000
      2      -5.0905      2.00000
      3      -4.7578      2.00000
      4       0.9985      2.00000
      5       1.0816      2.00000
      6       2.3903      2.00000
      7       3.2674      2.00000
      8       3.5813      2.00000
      9       3.6405      2.00000
     10       7.3973      0.00000
     11       7.6653      0.00000
     12       7.8500      0.00000
     13       9.8287      0.00000
     14      10.2067      0.00000

 k-point    11 :       0.3333    0.2222    0.0000
  band No.  band energies     occupation 
      1      -6.8578      2.00000
      2      -5.2304      2.00000
      3      -4.8386      2.00000
      4       1.0514      2.00000
      5       1.1647      2.00000
      6       2.2669      2.00000
      7       2.6060      2.00000
      8       3.2790      2.00000
      9       3.3823      2.00000
     10       7.6261      0.00000
     11       7.9085      0.00000
     12       8.5848      0.00000
     13       9.7715      0.00000
     14      11.0352      0.00000

 k-point    12 :       0.3333    0.3333    0.0000
  band No.  band energies     occupation 
      1      -6.7666      2.00000
      2      -5.0832      2.00000
      3      -5.0832      2.00000
      4       1.1844      2.00000
      5       1.1844      2.00000
      6       2.5675      2.00000
      7       2.5675      2.00000
      8       2.6830      2.00000
      9       2.9834      2.00000
     10       8.2310      0.00000
     11       8.2310      0.00000
     12       8.5127      0.00000
     13      10.3458      0.00000
     14      11.3076      0.00000

 k-point    13 :       0.0000    0.0000    0.2500
  band No.  band energies     occupation 
      1      -7.6659      2.00000
      2      -6.0055      2.00000
      3      -3.4337      2.00000
      4       2.1137      2.00000
      5       2.6173      2.00000
      6       3.0166      2.00000
      7       4.0426      2.00000
      8       4.0605      2.00000
      9       4.6628      2.00000
     10       6.1443      0.00000
     11       6.2138      0.00000
     12       6.5199      0.00000
     13      10.0031      0.00000
     14      10.9888      0.00000

 k-point    14 :       0.1111    0.0000    0.2500
  band No.  band energies     occupation 
      1      -7.5919      2.00000
      2      -5.9605      2.00000
      3      -3.5356      2.00000
      4       1.8652      2.00000
      5       2.4632      2.00000
      6       2.8860      2.00000
      7       3.7990      2.00000
      8       4.1850      2.00000
      9       4.3326      2.00000
     10       6.3964      0.00000
     11       6.5267      0.00000
     12       6.8778      0.00000
     13      10.0592      0.00000
     14      10.9864      0.00000

 k-point    15 :       0.2222    0.0000    0.2500
  band No.  band energies     occupation 
      1      -7.3848      2.00000
      2      -5.8316      2.00000
      3      -3.8481      2.00000
      4       1.5368      2.00000
      5       2.0855      2.00000
      6       2.6485      2.00000
      7       3.1965      2.00000
      8       3.7592      2.00000
      9       4.2552      2.00000
     10       6.7862      0.00000
     11       7.2568      0.00000
     12       7.6317      0.00000
     13      10.2961      0.00000
     14      10.7363      0.00000

 k-point    16 :       0.3333   -0.0000    0.2500
  band No.  band energies     occupation 
      1      -7.0930      2.00000
      2      -5.6739      2.00000
      3      -4.2685      2.00000
      4       1.2207      2.00000
      5       1.5750      2.00000
      6       2.3380      2.00000
      7       2.7924      2.00000
      8       3.7529      2.00000
      9       4.1744      2.00000
     10       6.8502      0.00000
     11       7.4344      0.00000
     12       8.4758      0.00000
     13       9.9074      0.00000
     14      11.1815      0.00000

 k-point    17 :       0.4444    0.0000    0.2500
  band No.  band energies     occupation 
      1      -6.8287      2.00000
      2      -5.6473      2.00000
      3      -4.5018      2.00000
      4       0.6862      2.00000
      5       1.2945      2.00000
      6       2.0665      2.00000
      7       3.2126      2.00000
      8       3.7827      2.00000
      9       4.1160      2.00000
     10       6.7579      0.00000
     11       7.4052      0.00000
     12       8.3783      0.00000
     13       9.4748      0.00000
     14      11.6394      0.00000

 k-point    18 :      -0.4444   -0.0000    0.2500
  band No.  band energies     occupation 
      1      -6.8016      2.00000
      2      -5.7620      2.00000
      3      -4.3559      2.00000
      4       0.3824      2.00000
      5       1.2171      2.00000
      6       2.0287      2.00000
      7       3.8491      2.00000
      8       3.8987      2.00000
      9       4.2592      2.00000
     10       6.6243      0.00000
     11       7.2231      0.00000
     12       7.6669      0.00000
     13       9.1879      0.00000
     14      12.1429      0.00000

 k-point    19 :      -0.3333    0.0000    0.2500
  band No.  band energies     occupation 
      1      -7.0638      2.00000
      2      -5.8153      2.00000
      3      -4.0438      2.00000
      4       0.5598      2.00000
      5       1.3145      2.00000
      6       2.1684      2.00000
      7       4.0983      2.00000
      8       4.1238      2.00000
      9       4.9884      2.00000
     10       6.3144      0.00000
     11       6.8642      0.00000
     12       7.0078      0.00000
     13       9.0942      0.00000
     14      12.1105      0.00000

 k-point    20 :      -0.2222   -0.0000    0.2500
  band No.  band energies     occupation 
      1      -7.3746      2.00000
      2      -5.8840      2.00000
      3      -3.7373      2.00000
      4       1.2060      2.00000
      5       1.5879      2.00000
      6       2.4424      2.00000
      7       4.2889      2.00000
      8       4.4032      2.00000
      9       5.0266      2.00000
     10       6.1104      0.00000
     11       6.4865      0.00000
     12       6.7870      0.00000
     13       9.2946      0.00000
     14      11.6180      0.00000

 k-point    21 :      -0.1111   -0.0000    0.2500
  band No.  band energies     occupation 
      1      -7.5906      2.00000
      2      -5.9673      2.00000
      3      -3.5178      2.00000
      4       1.8833      2.00000
      5       2.1814      2.00000
      6       2.7873      2.00000
      7       4.2226      2.00000
      8       4.3325      2.00000
      9       4.6270      2.00000
     10       6.0952      0.00000
     11       6.1438      0.00000
     12       6.9014      0.00000
     13       9.7747      0.00000
     14      11.0647      0.00000

 k-point    22 :       0.1111    0.1111    0.2500
  band No.  band energies     occupation 
      1      -7.4479      2.00000
      2      -5.8898      2.00000
      3      -3.7071      2.00000
      4       1.5448      2.00000
      5       1.8505      2.00000
      6       2.6605      2.00000
      7       3.6981      2.00000
      8       4.2201      2.00000
      9       4.6224      2.00000
     10       6.3796      0.00000
     11       6.8701      0.00000
     12       7.0531      0.00000
     13       9.7805      0.00000
     14      11.0500      0.00000

 k-point    23 :       0.2222    0.1111    0.2500
  band No.  band energies     occupation 
      1      -7.1942      2.00000
      2      -5.7481      2.00000
      3      -4.0797      2.00000
      4       1.2055      2.00000
      5       1.6033      2.00000
      6       2.5161      2.00000
      7       2.8245      2.00000
      8       3.8340      2.00000
      9       4.7529      2.00000
     10       6.5707      0.00000
     11       7.2114      0.00000
     12       8.0861      0.00000
     13      10.1203      0.00000
     14      10.5855      0.00000

 k-point    24 :       0.3333    0.1111    0.2500
  band No.  band energies     occupation 
      1      -6.9044      2.00000
      2      -5.6346      2.00000
      3      -4.4480      2.00000
      4       0.9249      2.00000
      5       1.1819      2.00000
      6       2.2109      2.00000
      7       2.8704      2.00000
      8       3.5350      2.00000
      9       4.7868      2.00000
     10       6.4948      0.00000
     11       7.5513      0.00000
     12       8.4968      0.00000
     13       9.7792      0.00000
     14      11.2363      0.00000

 k-point    25 :       0.4444    0.1111    0.2500
  band No.  band energies     occupation 
      1      -6.7391      2.00000
      2      -5.6881      2.00000
      3      -4.5078      2.00000
      4       0.5200      2.00000
      5       1.0761      2.00000
      6       2.0970      2.00000
      7       3.0790      2.00000
      8       3.7288      2.00000
      9       4.7991      2.00000
     10       6.4015      0.00000
     11       7.6323      0.00000
     12       8.0378      0.00000
     13       9.5204      0.00000
     14      11.9540      0.00000

 k-point    26 :      -0.4444    0.1111    0.2500
  band No.  band energies     occupation 
      1      -6.8768      2.00000
      2      -5.7598      2.00000
      3      -4.2788      2.00000
      4       0.4413      2.00000
      5       1.2160      2.00000
      6       2.1199      2.00000
      7       3.1245      2.00000
      8       4.4370      2.00000
      9       4.8747      2.00000
     10       6.2810      0.00000
     11       7.1458      0.00000
     12       7.6429      0.00000
     13       9.4047      0.00000
     14      11.8335      0.00000

 k-point    27 :      -0.3333    0.1111    0.2500
  band No.  band energies     occupation 
      1      -7.1823      2.00000
      2      -5.8077      2.00000
      3      -3.9751      2.00000
      4       0.8530      2.00000
      5       1.4611      2.00000
      6       2.3227      2.00000
      7       3.3279      2.00000
      8       4.5586      2.00000
      9       5.1946      2.00000
     10       6.0823      0.00000
     11       6.7314      0.00000
     12       7.4274      0.00000
     13       9.4547      0.00000
     14      11.2472      0.00000

 k-point    28 :       0.2222    0.2222    0.2500
  band No.  band energies     occupation 
      1      -6.9220      2.00000
      2      -5.6933      2.00000
      3      -4.3348      2.00000
      4       0.6750      2.00000
      5       1.3032      2.00000
      6       2.1243      2.00000
      7       2.7071      2.00000
      8       4.1708      2.00000
      9       5.0711      2.00000
     10       6.3991      0.00000
     11       7.1383      0.00000
     12       8.2195      0.00000
     13      10.0578      0.00000
     14      10.6461      0.00000

 k-point    29 :       0.3333    0.2222    0.2500
  band No.  band energies     occupation 
      1      -6.7020      2.00000
      2      -5.6344      2.00000
      3      -4.5909      2.00000
      4       0.6533      2.00000
      5       0.9547      2.00000
      6       1.8119      2.00000
      7       2.9415      2.00000
      8       3.8231      2.00000
      9       4.8713      2.00000
     10       6.6280      0.00000
     11       7.6814      0.00000
     12       8.2336      0.00000
     13      10.1160      0.00000
     14      11.1485      0.00000

 k-point    30 :       0.4444    0.2222    0.2500
  band No.  band energies     occupation 
      1      -6.6940      2.00000
      2      -5.6689      2.00000
      3      -4.5509      2.00000
      4       0.5165      2.00000
      5       1.0258      2.00000
      6       1.8241      2.00000
      7       2.8857      2.00000
      8       4.1319      2.00000
      9       4.7325      2.00000
     10       6.7438      0.00000
     11       7.4722      0.00000
     12       8.1046      0.00000
     13      10.0306      0.00000
     14      11.3743      0.00000

 k-point    31 :       0.3333    0.3333    0.2500
  band No.  band energies     occupation 
      1      -6.6118      2.00000
      2      -5.6283      2.00000
      3      -4.6673      2.00000
      4       0.6068      2.00000
      5       0.9299      2.00000
      6       1.4985      2.00000
      7       3.1087      2.00000
      8       4.0323      2.00000
      9       4.4620      2.00000
     10       7.2155      0.00000
     11       7.7692      0.00000
     12       7.8525      0.00000
     13      10.8120      0.00000
     14      11.0746      0.00000

 k-point    32 :       0.0000    0.0000    0.5000
  band No.  band energies     occupation 
      1      -7.0240      2.00000
      2      -7.0240      2.00000
      3      -2.7975      2.00000
      4       1.6999      2.00000
      5       2.8816      2.00000
      6       2.8816      2.00000
      7       4.2195      2.00000
      8       4.4600      2.00000
      9       4.4600      2.00000
     10       5.9614      0.00000
     11       5.9614      0.00000
     12       5.9894      0.00000
     13       9.6590      0.00000
     14      10.7871      0.00000

 k-point    33 :       0.1111    0.0000    0.5000
  band No.  band energies     occupation 
      1      -6.9674      2.00000
      2      -6.9515      2.00000
      3      -2.9617      2.00000
      4       1.6484      2.00000
      5       2.7121      2.00000
      6       2.7946      2.00000
      7       3.7685      2.00000
      8       4.0931      2.00000
      9       4.3193      2.00000
     10       6.1962      0.00000
     11       6.3602      0.00000
     12       6.7686      0.00000
     13       9.8686      0.00000
     14      10.5146      0.00000

 k-point    34 :       0.2222    0.0000    0.5000
  band No.  band energies     occupation 
      1      -6.8157      2.00000
      2      -6.7438      2.00000
      3      -3.3869      2.00000
      4       1.3072      2.00000
      5       2.1900      2.00000
      6       2.5173      2.00000
      7       3.5790      2.00000
      8       3.7412      2.00000
      9       4.1573      2.00000
     10       6.6435      0.00000
     11       7.0573      0.00000
     12       7.5515      0.00000
     13      10.0495      0.00000
     14      10.7099      0.00000

 k-point    35 :       0.3333   -0.0000    0.5000
  band No.  band energies     occupation 
      1      -6.6255      2.00000
      2      -6.4411      2.00000
      3      -3.9163      2.00000
      4       0.6099      2.00000
      5       1.9500      2.00000
      6       2.2225      2.00000
      7       3.3378      2.00000
      8       3.6200      2.00000
      9       4.5057      2.00000
     10       6.9138      0.00000
     11       7.4375      0.00000
     12       7.6474      0.00000
     13      10.0657      0.00000
     14      11.0541      0.00000

 k-point    36 :       0.4444    0.0000    0.5000
  band No.  band energies     occupation 
      1      -6.4883      2.00000
      2      -6.1652      2.00000
      3      -4.3306      2.00000
      4       0.1302      2.00000
      5       1.9111      2.00000
      6       2.0102      2.00000
      7       3.1825      2.00000
      8       3.5212      2.00000
      9       5.1536      2.00000
     10       6.4664      0.00000
     11       7.3851      0.00000
     12       7.9198      0.00000
     13      10.1186      0.00000
     14      10.8822      0.00000

 k-point    37 :       0.1111    0.1111    0.5000
  band No.  band energies     occupation 
      1      -6.8595      2.00000
      2      -6.8148      2.00000
      3      -3.2540      2.00000
      4       1.4748      2.00000
      5       2.3782      2.00000
      6       2.4397      2.00000
      7       3.5590      2.00000
      8       3.7168      2.00000
      9       4.5508      2.00000
     10       6.1093      0.00000
     11       7.2045      0.00000
     12       7.3377      0.00000
     13      10.2514      0.00000
     14      10.2793      0.00000

 k-point    38 :       0.2222    0.1111    0.5000
  band No.  band energies     occupation 
      1      -6.6776      2.00000
      2      -6.5666      2.00000
      3      -3.7221      2.00000
      4       0.9751      2.00000
      5       1.8226      2.00000
      6       2.0076      2.00000
      7       3.5661      2.00000
      8       3.9231      2.00000
      9       4.5517      2.00000
     10       6.4422      0.00000
     11       7.5093      0.00000
     12       7.6602      0.00000
     13      10.1254      0.00000
     14      10.9103      0.00000

 k-point    39 :       0.3333    0.1111    0.5000
  band No.  band energies     occupation 
      1      -6.5001      2.00000
      2      -6.2740      2.00000
      3      -4.1918      2.00000
      4       0.3741      2.00000
      5       1.5632      2.00000
      6       1.7044      2.00000
      7       3.6442      2.00000
      8       4.0010      2.00000
      9       4.8760      2.00000
     10       6.6695      0.00000
     11       7.2051      0.00000
     12       7.7229      0.00000
     13      10.1749      0.00000
     14      11.1328      0.00000

 k-point    40 :       0.4444    0.1111    0.5000
  band No.  band energies     occupation 
      1      -6.4245      2.00000
      2      -6.1193      2.00000
      3      -4.4130      2.00000
      4       0.1294      2.00000
      5       1.5109      2.00000
      6       1.5733      2.00000
      7       3.7503      2.00000
      8       3.8632      2.00000
      9       5.3576      2.00000
     10       6.2804      0.00000
     11       7.2315      0.00000
     12       7.7245      0.00000
     13      10.2644      0.00000
     14      10.9305      0.00000

 k-point    41 :       0.2222    0.2222    0.5000
  band No.  band energies     occupation 
      1      -6.4830      2.00000
      2      -6.3426      2.00000
      3      -4.1217      2.00000
      4       0.6655      2.00000
      5       1.1691      2.00000
      6       1.4758      2.00000
      7       4.0029      2.00000
      8       4.3239      2.00000
      9       4.9589      2.00000
     10       6.3094      0.00000
     11       7.3847      0.00000
     12       7.4642      0.00000
     13      10.3774      0.00000
     14      11.2316      0.00000

 k-point    42 :       0.3333    0.2222    0.5000
  band No.  band energies     occupation 
      1      -6.3324      2.00000
      2      -6.1635      2.00000
      3      -4.4156      2.00000
      4       0.3670      2.00000
      5       0.9414      2.00000
      6       1.1046      2.00000
      7       4.3203      2.00000
      8       4.6922      2.00000
      9       5.2819      2.00000
     10       6.2431      0.00000
     11       6.9489      0.00000
     12       7.2402      0.00000
     13      10.7188      0.00000
     14      11.4360      0.00000

 k-point    43 :       0.3333    0.3333    0.5000
  band No.  band energies     occupation 
      1      -6.1906      2.00000
      2      -6.1906      2.00000
      3      -4.4982      2.00000
      4       0.5310      2.00000
      5       0.7056      2.00000
      6       0.7056      2.00000
      7       4.5866      2.00000
      8       5.4711      1.99878
      9       5.4711      1.99878
     10       5.6926      0.00244
     11       6.8455      0.00000
     12       6.8455      0.00000
     13      11.3695      0.00000
     14      12.0066      0.00000


--------------------------------------------------------------------------------------------------------


 soft charge-density along one line, spin component           1
         0         1         2         3         4         5         6         7         8         9
 total charge-density along one line
 
 pseudopotential strength for first ion, spin component:           1
 51.816  56.377  -0.000  -0.000  -0.051  -0.000  -0.000  -0.073
 56.377  61.342  -0.000  -0.000  -0.055  -0.000  -0.000  -0.080
 -0.000  -0.000  12.750   0.010   0.000  18.378   0.014   0.000
 -0.000  -0.000   0.010  12.766   0.000   0.014  18.401   0.000
 -0.051  -0.055   0.000   0.000  12.766   0.000   0.000  18.401
 -0.000  -0.000  18.378   0.014   0.000  26.501   0.021   0.000
 -0.000  -0.000   0.014  18.401   0.000   0.021  26.534   0.000
 -0.073  -0.080   0.000   0.000  18.401   0.000   0.000  26.534
  0.000   0.000  -0.010   0.000  -0.000  -0.014   0.001  -0.000
  0.016   0.017   0.000  -0.000   0.000   0.000  -0.000   0.001
  0.007   0.008   0.000  -0.000   0.006   0.000  -0.000   0.009
  0.000   0.000   0.000  -0.009  -0.000   0.001  -0.013  -0.000
  0.013   0.014   0.000  -0.000  -0.010   0.000  -0.000  -0.014
 total augmentation occupancy for first ion, spin component:           1
 12.768  -9.255   0.000   0.000   2.213   0.000   0.000  -0.580   0.000  -0.163  -0.092   0.000  -0.116
 -9.255   7.957   0.000  -0.000  -1.853   0.000  -0.000   0.494   0.000   0.148   0.083   0.000   0.105
  0.000   0.000   2.493   0.225   0.000  -0.462  -0.198   0.000  -0.056   0.000   0.000  -0.050   0.000
  0.000  -0.000   0.225   2.835   0.000  -0.198  -0.770   0.000  -0.049   0.000   0.000  -0.123  -0.000
  2.213  -1.853   0.000   0.000   2.731   0.000  -0.000  -0.714   0.000  -0.055  -0.015   0.000  -0.055
  0.000   0.000  -0.462  -0.198   0.000   0.164   0.074   0.000   0.013   0.000   0.000   0.018   0.000
  0.000  -0.000  -0.198  -0.770   0.000   0.074   0.276   0.000   0.018   0.000   0.000   0.037  -0.000
 -0.580   0.494   0.000   0.000  -0.714   0.000  -0.000   0.247   0.000   0.016   0.004   0.000   0.014
  0.000   0.000  -0.056  -0.049   0.000   0.013   0.018   0.000   0.009   0.000   0.000   0.010   0.000
 -0.163   0.148   0.000   0.000  -0.055  -0.000   0.000   0.016   0.000   0.013   0.004   0.000   0.003
 -0.092   0.083   0.000   0.000  -0.015  -0.000   0.000   0.004   0.000   0.004   0.007   0.000  -0.001
  0.000  -0.000  -0.050  -0.123   0.000   0.018   0.037   0.000   0.010   0.000  -0.000   0.025   0.000
 -0.116   0.105   0.000   0.000  -0.055   0.000   0.000   0.014   0.000   0.003  -0.001   0.000   0.009


------------------------ aborting loop because EDIFF is reached ----------------------------------------


    CHARGE:  cpu time    0.1478: real time    0.2856
    FORLOC:  cpu time    0.0079: real time    0.0163
    FORNL :  cpu time    0.7974: real time    0.9551
    STRESS:  cpu time    1.0305: real time    1.7543
    FORCOR:  cpu time    0.0953: real time    0.1575
    FORHAR:  cpu time    0.0311: real time    0.0311
    MIXING:  cpu time    0.0158: real time    0.0159
    OFIELD:  cpu time    0.0000: real time    0.0000

  FORCE on cell =-STRESS in cart. coord.  units (eV):
  Direction    XX          YY          ZZ          XY          YZ          ZX
  --------------------------------------------------------------------------------------
  Alpha Z     2.21087     2.21087     2.21087
  Ewald    -234.81937  -234.81937  -196.16319    -0.00000    -0.00001     0.00000
  Hartree    11.96839    11.96839    22.23946     0.00000     0.00000    -0.00000
  E(xc)     -70.21702   -70.21702   -69.75942    -0.00000     0.00000    -0.00000
  Local    -115.06939  -115.06944  -155.02635    -0.00004     0.00000    -0.00000
  n-local   331.51547   332.36931   327.83726    -1.13570    -0.70797    -1.19764
  augment   -81.03665   -81.03660   -78.86596     0.00004    -0.00000     0.00000
  Kinetic   151.83578   158.16939   147.53639    -7.10441     0.18607     1.56090
  Fock        0.00000     0.00000     0.00000     0.00000     0.00000     0.00000
  -------------------------------------------------------------------------------------
  Total      -0.01819    -0.01819     0.00906     0.00000     0.00000     0.00000
  in kB      -0.27561    -0.27561     0.13728     0.00000     0.00000     0.00000
  external pressure =       -0.14 kB  Pullay stress =        0.00 kB


 VOLUME and BASIS-vectors are now :
 -----------------------------------------------------------------------------
  energy-cutoff  :      520.00
  volume of cell :      105.73
      direct lattice vectors                 reciprocal lattice vectors
     4.529289025 -0.000000000  0.000000000     0.220785204  0.127470397  0.000000000
    -2.264644513  3.922479357 -0.000000000    -0.000000000  0.254940794  0.000000000
     0.000000000 -0.000000000  5.951169824    -0.000000000  0.000000000  0.168034190

  length of vectors
     4.529289025  4.529289025  5.951169824     0.254940794  0.254940794  0.168034190


 FORCES acting on ions
    electron-ion (+dipol)            ewald-force                    non-local-force                 convergence-correction
 -----------------------------------------------------------------------------------------------
   -.125E+02 0.121E-04 -.115E-05   0.177E+02 0.154E-05 0.170E-05   -.521E+01 0.467E-19 -.833E-16   0.305E-02 0.182E-08 -.789E-10
   0.626E+01 -.108E+02 -.183E-04   -.887E+01 0.154E+02 -.813E-05   0.261E+01 -.452E+01 0.555E-16   -.153E-02 0.265E-02 0.113E-09
   0.626E+01 0.108E+02 0.192E-04   -.887E+01 -.154E+02 0.643E-05   0.261E+01 0.452E+01 0.000E+00   -.153E-02 -.265E-02 -.802E-10
 -----------------------------------------------------------------------------------------------
   0.260E-04 -.748E-05 -.306E-06   0.178E-14 0.000E+00 0.000E+00   0.444E-15 0.000E+00 -.278E-16   0.610E-09 0.263E-08 -.466E-10
 
 
 POSITION                                       TOTAL-FORCE (eV/Angst)
 -----------------------------------------------------------------------------------
      1.21035     -0.00000      1.98372         0.021435     -0.000000      0.000000
     -0.60517      1.04819      3.96745        -0.010717      0.018563     -0.000000
      1.65947      2.87429     -0.00000        -0.010717     -0.018563      0.000000
 -----------------------------------------------------------------------------------
    total drift:                                0.000026     -0.000007     -0.000000


--------------------------------------------------------------------------------------------------------



  FREE ENERGIE OF THE ION-ELECTRON SYSTEM (eV)
  ---------------------------------------------------
  free  energy   TOTEN  =        -9.42572784 eV

  energy  without entropy=       -9.42572421  energy(sigma->0) =       -9.42572603
 
 d Force = 0.1160666E-02[ 0.634E-03, 0.169E-02]  d Energy = 0.1851372E-02-0.691E-03
 d Force = 0.5280245E+00[ 0.525E+00, 0.531E+00]  d Ewald  = 0.7698825E+00-0.242E+00


--------------------------------------------------------------------------------------------------------


    POTLOK:  cpu time    0.1687: real time    0.1691


--------------------------------------------------------------------------------------------------------




--------------------------------------------------------------------------------------------------------


    WAVPRE:  cpu time    0.0187: real time    0.0445
    FEWALD:  cpu time    0.0002: real time    0.0002
    GENKIN:  cpu time    0.0312: real time    0.0566
    ORTHCH:  cpu time    0.1274: real time    0.1966
     LOOP+:  cpu time   18.0391: real time   27.2101


--------------------------------------- Iteration      6(   1)  ---------------------------------------


    POTLOK:  cpu time    0.0847: real time    0.1848
    SETDIJ:  cpu time    0.0152: real time    0.0322
     EDDAV:  cpu time    3.5304: real time    4.8535
       DOS:  cpu time    0.0025: real time    0.0025
    CHARGE:  cpu time    0.1324: real time    0.1327
    MIXING:  cpu time    0.0030: real time    0.0030
    --------------------------------------------
      LOOP:  cpu time    3.7681: real time    5.2087

 eigenvalue-minimisations  :  1264
 total energy-change (2. order) :-0.5012253E-04  (-0.5717505E-03)
 number of electron      17.9999996 magnetization 
 augmentation part       -3.6074606 magnetization 

 Broyden mixing:
  rms(total) = 0.54050E-02    rms(broyden)= 0.54049E-02
  rms(prec ) = 0.77987E-02
  weight for this iteration     100.00

 Free energy of the ion-electron system (eV)
  ---------------------------------------------------
  alpha Z        PSCENC =         2.21176637
  Ewald energy   TEWEN  =      -665.92610746
  -Hartree energ DENC   =       -46.13473827
  -exchange      EXHF   =         0.00000000
  -V(xc)+E(xc)   XCENC  =       -84.16676982
  PAW double counting   =      1466.44851383    -1351.07262258
  entropy T*S    EENTRO =        -0.00000264
  eigenvalues    EBANDS =        -0.60011984
  atomic energy  EATOM  =       669.81430600
  Solvation  Ediel_sol  =         0.00000000
  ---------------------------------------------------
  free energy    TOTEN  =        -9.42577442 eV

  energy without entropy =       -9.42577178  energy(sigma->0) =       -9.42577310


--------------------------------------------------------------------------------------------------------




--------------------------------------- Iteration      6(   2)  ---------------------------------------


    POTLOK:  cpu time    0.0961: real time    0.0971
    SETDIJ:  cpu time    0.0159: real time    0.0160
     EDDAV:  cpu time    3.0737: real time    4.5543
       DOS:  cpu time    0.0026: real time    0.0025
    CHARGE:  cpu time    0.1348: real time    0.2752
    MIXING:  cpu time    0.0033: real time    0.0033
    --------------------------------------------
      LOOP:  cpu time    3.3264: real time    4.9484

 eigenvalue-minimisations  :  1366
 total energy-change (2. order) : 0.5982584E-05  (-0.1980745E-04)
 number of electron      17.9999996 magnetization 
 augmentation part       -3.6073464 magnetization 

 Broyden mixing:
  rms(total) = 0.21517E-02    rms(broyden)= 0.21517E-02
  rms(prec ) = 0.39161E-02
  weight for this iteration     100.00

 eigenvalues of (default mixing * dielectric matrix)
  average eigenvalue GAMMA=   1.1126
  1.1126

 Free energy of the ion-electron system (eV)
  ---------------------------------------------------
  alpha Z        PSCENC =         2.21176637
  Ewald energy   TEWEN  =      -665.92610746
  -Hartree energ DENC   =       -46.13333696
  -exchange      EXHF   =         0.00000000
  -V(xc)+E(xc)   XCENC  =       -84.16580270
  PAW double counting   =      1467.12489453    -1351.74884236
  entropy T*S    EENTRO =        -0.00000247
  eigenvalues    EBANDS =        -0.60264338
  atomic energy  EATOM  =       669.81430600
  Solvation  Ediel_sol  =         0.00000000
  ---------------------------------------------------
  free energy    TOTEN  =        -9.42576843 eV

  energy without entropy =       -9.42576597  energy(sigma->0) =       -9.42576720


--------------------------------------------------------------------------------------------------------




--------------------------------------- Iteration      6(   3)  ---------------------------------------


    POTLOK:  cpu time    0.1403: real time    0.2792
    SETDIJ:  cpu time    0.0273: real time    0.0568
     EDDAV:  cpu time    1.8149: real time    3.1255
       DOS:  cpu time    0.0025: real time    0.0025
    --------------------------------------------
      LOOP:  cpu time    1.9850: real time    3.4640

 eigenvalue-minimisations  :  1028
 total energy-change (2. order) : 0.7062601E-05  (-0.1098243E-05)
 number of electron      17.9999996 magnetization 
 augmentation part       -3.6073464 magnetization 

 Free energy of the ion-electron system (eV)
  ---------------------------------------------------
  alpha Z        PSCENC =         2.21176637
  Ewald energy   TEWEN  =      -665.92610746
  -Hartree energ DENC   =       -46.13191291
  -exchange      EXHF   =         0.00000000
  -V(xc)+E(xc)   XCENC  =       -84.16467584
  PAW double counting   =      1467.54313353    -1352.16693250
  entropy T*S    EENTRO =        -0.00000240
  eigenvalues    EBANDS =        -0.60533615
  atomic energy  EATOM  =       669.81430600
  Solvation  Ediel_sol  =         0.00000000
  ---------------------------------------------------
  free energy    TOTEN  =        -9.42576137 eV

  energy without entropy =       -9.42575897  energy(sigma->0) =       -9.42576017


--------------------------------------------------------------------------------------------------------




 average (electrostatic) potential at core
  the test charge radii are     1.1897
  (the norm of the test charge is              1.0000)
       1 -89.4249       2 -89.4249       3 -89.4249
 
 
 
 E-fermi :   5.5984     XC(G=0):  -8.9028     alpha+bet :-10.1752


 k-point     1 :       0.0000    0.0000    0.0000
  band No.  band energies     occupation 
      1      -7.8799      2.00000
      2      -4.7122      2.00000
      3      -4.7122      2.00000
      4       2.4912      2.00000
      5       2.7536      2.00000
      6       2.7536      2.00000
      7       3.8717      2.00000
      8       3.8717      2.00000
      9       4.6969      2.00000
     10       6.4798      0.00000
     11       6.4798      0.00000
     12       7.0175      0.00000
     13      10.5354      0.00000
     14      10.5354      0.00000

 k-point     2 :       0.1111    0.0000    0.0000
  band No.  band energies     occupation 
      1      -7.8024      2.00000
      2      -4.7416      2.00000
      3      -4.6952      2.00000
      4       1.9240      2.00000
      5       2.3760      2.00000
      6       2.6141      2.00000
      7       4.1012      2.00000
      8       4.3888      2.00000
      9       4.8473      2.00000
     10       6.2305      0.00000
     11       6.4263      0.00000
     12       6.9216      0.00000
     13      10.2981      0.00000
     14      10.4854      0.00000

 k-point     3 :       0.2222    0.0000    0.0000
  band No.  band energies     occupation 
      1      -7.5811      2.00000
      2      -4.8615      2.00000
      3      -4.6487      2.00000
      4       1.2143      2.00000
      5       1.8610      2.00000
      6       2.2896      2.00000
      7       4.2270      2.00000
      8       4.5119      2.00000
      9       4.6823      2.00000
     10       6.3460      0.00000
     11       6.5041      0.00000
     12       7.0861      0.00000
     13       9.5843      0.00000
     14      10.6771      0.00000

 k-point     4 :       0.3333   -0.0000    0.0000
  band No.  band energies     occupation 
      1      -7.2611      2.00000
      2      -5.1070      2.00000
      3      -4.5898      2.00000
      4       0.8791      2.00000
      5       1.4592      2.00000
      6       2.0199      2.00000
      7       3.2565      2.00000
      8       4.5432      2.00000
      9       4.7072      2.00000
     10       6.3469      0.00000
     11       6.4919      0.00000
     12       8.1283      0.00000
     13       8.9663      0.00000
     14      11.3864      0.00000

 k-point     5 :       0.4444    0.0000    0.0000
  band No.  band energies     occupation 
      1      -6.9717      2.00000
      2      -5.3732      2.00000
      3      -4.5481      2.00000
      4       0.8606      2.00000
      5       1.2732      2.00000
      6       1.9675      2.00000
      7       2.4004      2.00000
      8       4.5043      2.00000
      9       4.7010      2.00000
     10       6.3549      0.00000
     11       6.4281      0.00000
     12       8.6356      0.00000
     13       8.9441      0.00000
     14      12.4280      0.00000

 k-point     6 :       0.1111    0.1111    0.0000
  band No.  band energies     occupation 
      1      -7.6527      2.00000
      2      -4.8021      2.00000
      3      -4.6790      2.00000
      4       1.4469      2.00000
      5       1.7541      2.00000
      6       2.6641      2.00000
      7       3.9539      2.00000
      8       4.7077      2.00000
      9       4.7577      2.00000
     10       6.2254      0.00000
     11       6.5465      0.00000
     12       6.9972      0.00000
     13      10.0632      0.00000
     14      10.1580      0.00000

 k-point     7 :       0.2222    0.1111    0.0000
  band No.  band energies     occupation 
      1      -7.3790      2.00000
      2      -4.9621      2.00000
      3      -4.6600      2.00000
      4       1.0195      2.00000
      5       1.3618      2.00000
      6       2.4071      2.00000
      7       3.7446      2.00000
      8       4.0593      2.00000
      9       4.4829      2.00000
     10       6.6591      0.00000
     11       6.9632      0.00000
     12       7.4994      0.00000
     13       9.4979      0.00000
     14      10.4088      0.00000

 k-point     8 :       0.3333    0.1111    0.0000
  band No.  band energies     occupation 
      1      -7.0585      2.00000
      2      -5.2220      2.00000
      3      -4.6377      2.00000
      4       0.8979      2.00000
      5       1.2303      2.00000
      6       2.1034      2.00000
      7       2.8366      2.00000
      8       4.0196      2.00000
      9       4.2485      2.00000
     10       6.7993      0.00000
     11       7.0232      0.00000
     12       8.5111      0.00000
     13       9.0849      0.00000
     14      11.2634      0.00000

 k-point     9 :       0.4444    0.1111    0.0000
  band No.  band energies     occupation 
      1      -6.8894      2.00000
      2      -5.3777      2.00000
      3      -4.6276      2.00000
      4       0.9299      2.00000
      5       1.2322      2.00000
      6       2.1204      2.00000
      7       2.2434      2.00000
      8       4.0443      2.00000
      9       4.1411      2.00000
     10       6.8168      0.00000
     11       7.0372      0.00000
     12       8.9399      0.00000
     13       8.9740      0.00000
     14      12.1747      0.00000

 k-point    10 :       0.2222    0.2222    0.0000
  band No.  band energies     occupation 
      1      -7.0947      2.00000
      2      -5.0866      2.00000
      3      -4.7530      2.00000
      4       1.0055      2.00000
      5       1.0861      2.00000
      6       2.3932      2.00000
      7       3.2722      2.00000
      8       3.5884      2.00000
      9       3.6441      2.00000
     10       7.4031      0.00000
     11       7.6707      0.00000
     12       7.8519      0.00000
     13       9.8272      0.00000
     14      10.2034      0.00000

 k-point    11 :       0.3333    0.2222    0.0000
  band No.  band energies     occupation 
      1      -6.8511      2.00000
      2      -5.2281      2.00000
      3      -4.8347      2.00000
      4       1.0600      2.00000
      5       1.1715      2.00000
      6       2.2696      2.00000
      7       2.6112      2.00000
      8       3.2843      2.00000
      9       3.3867      2.00000
     10       7.6322      0.00000
     11       7.9123      0.00000
     12       8.5918      0.00000
     13       9.7698      0.00000
     14      11.0305      0.00000

 k-point    12 :       0.3333    0.3333    0.0000
  band No.  band energies     occupation 
      1      -6.7595      2.00000
      2      -5.0806      2.00000
      3      -5.0806      2.00000
      4       1.1931      2.00000
      5       1.1931      2.00000
      6       2.5730      2.00000
      7       2.5730      2.00000
      8       2.6853      2.00000
      9       2.9868      2.00000
     10       8.2384      0.00000
     11       8.2384      0.00000
     12       8.5165      0.00000
     13      10.3433      0.00000
     14      11.3018      0.00000

 k-point    13 :       0.0000    0.0000    0.2500
  band No.  band energies     occupation 
      1      -7.6612      2.00000
      2      -5.9982      2.00000
      3      -3.4258      2.00000
      4       2.1252      2.00000
      5       2.6155      2.00000
      6       3.0156      2.00000
      7       4.0421      2.00000
      8       4.0622      2.00000
      9       4.6607      2.00000
     10       6.1457      0.00000
     11       6.2187      0.00000
     12       6.5136      0.00000
     13      10.0109      0.00000
     14      10.9858      0.00000

 k-point    14 :       0.1111    0.0000    0.2500
  band No.  band energies     occupation 
      1      -7.5871      2.00000
      2      -5.9533      2.00000
      3      -3.5286      2.00000
      4       1.8743      2.00000
      5       2.4636      2.00000
      6       2.8864      2.00000
      7       3.7990      2.00000
      8       4.1885      2.00000
      9       4.3304      2.00000
     10       6.3947      0.00000
     11       6.5329      0.00000
     12       6.8752      0.00000
     13      10.0633      0.00000
     14      10.9864      0.00000

 k-point    15 :       0.2222    0.0000    0.2500
  band No.  band energies     occupation 
      1      -7.3798      2.00000
      2      -5.8245      2.00000
      3      -3.8433      2.00000
      4       1.5458      2.00000
      5       2.0879      2.00000
      6       2.6491      2.00000
      7       3.1993      2.00000
      8       3.7610      2.00000
      9       4.2541      2.00000
     10       6.7970      0.00000
     11       7.2578      0.00000
     12       7.6315      0.00000
     13      10.2980      0.00000
     14      10.7405      0.00000

 k-point    16 :       0.3333   -0.0000    0.2500
  band No.  band energies     occupation 
      1      -7.0876      2.00000
      2      -5.6670      2.00000
      3      -4.2662      2.00000
      4       1.2284      2.00000
      5       1.5802      2.00000
      6       2.3366      2.00000
      7       2.7979      2.00000
      8       3.7563      2.00000
      9       4.1755      2.00000
     10       6.8618      0.00000
     11       7.4380      0.00000
     12       8.4835      0.00000
     13       9.9115      0.00000
     14      11.1870      0.00000

 k-point    17 :       0.4444    0.0000    0.2500
  band No.  band energies     occupation 
      1      -6.8225      2.00000
      2      -5.6415      2.00000
      3      -4.5003      2.00000
      4       0.6907      2.00000
      5       1.3025      2.00000
      6       2.0645      2.00000
      7       3.2216      2.00000
      8       3.7868      2.00000
      9       4.1192      2.00000
     10       6.7677      0.00000
     11       7.4101      0.00000
     12       8.3910      0.00000
     13       9.4774      0.00000
     14      11.6565      0.00000

 k-point    18 :      -0.4444   -0.0000    0.2500
  band No.  band energies     occupation 
      1      -6.7951      2.00000
      2      -5.7574      2.00000
      3      -4.3532      2.00000
      4       0.3851      2.00000
      5       1.2261      2.00000
      6       2.0262      2.00000
      7       3.8580      2.00000
      8       3.9029      2.00000
      9       4.2663      2.00000
     10       6.6316      0.00000
     11       7.2276      0.00000
     12       7.6771      0.00000
     13       9.1886      0.00000
     14      12.1632      0.00000

 k-point    19 :      -0.3333    0.0000    0.2500
  band No.  band energies     occupation 
      1      -7.0582      2.00000
      2      -5.8097      2.00000
      3      -4.0398      2.00000
      4       0.5612      2.00000
      5       1.3238      2.00000
      6       2.1655      2.00000
      7       4.1036      2.00000
      8       4.1291      2.00000
      9       5.0001      2.00000
     10       6.3216      0.00000
     11       6.8662      0.00000
     12       7.0088      0.00000
     13       9.0932      0.00000
     14      12.1216      0.00000

 k-point    20 :      -0.2222   -0.0000    0.2500
  band No.  band energies     occupation 
      1      -7.3695      2.00000
      2      -5.8774      2.00000
      3      -3.7317      2.00000
      4       1.2072      2.00000
      5       1.5965      2.00000
      6       2.4395      2.00000
      7       4.2950      2.00000
      8       4.4071      2.00000
      9       5.0330      2.00000
     10       6.1155      0.00000
     11       6.4838      0.00000
     12       6.7869      0.00000
     13       9.2934      0.00000
     14      11.6291      0.00000

 k-point    21 :      -0.1111   -0.0000    0.2500
  band No.  band energies     occupation 
      1      -7.5858      2.00000
      2      -5.9601      2.00000
      3      -3.5107      2.00000
      4       1.8931      2.00000
      5       2.1811      2.00000
      6       2.7853      2.00000
      7       4.2234      2.00000
      8       4.3366      2.00000
      9       4.6287      2.00000
     10       6.0923      0.00000
     11       6.1439      0.00000
     12       6.9031      0.00000
     13       9.7766      0.00000
     14      11.0704      0.00000

 k-point    22 :       0.1111    0.1111    0.2500
  band No.  band energies     occupation 
      1      -7.4430      2.00000
      2      -5.8828      2.00000
      3      -3.7014      2.00000
      4       1.5507      2.00000
      5       1.8545      2.00000
      6       2.6596      2.00000
      7       3.7023      2.00000
      8       4.2206      2.00000
      9       4.6253      2.00000
     10       6.3858      0.00000
     11       6.8719      0.00000
     12       7.0511      0.00000
     13       9.7799      0.00000
     14      11.0575      0.00000

 k-point    23 :       0.2222    0.1111    0.2500
  band No.  band energies     occupation 
      1      -7.1890      2.00000
      2      -5.7414      2.00000
      3      -4.0764      2.00000
      4       1.2099      2.00000
      5       1.6099      2.00000
      6       2.5176      2.00000
      7       2.8282      2.00000
      8       3.8341      2.00000
      9       4.7581      2.00000
     10       6.5818      0.00000
     11       7.2121      0.00000
     12       8.0895      0.00000
     13      10.1226      0.00000
     14      10.5869      0.00000

 k-point    24 :       0.3333    0.1111    0.2500
  band No.  band energies     occupation 
      1      -6.8985      2.00000
      2      -5.6282      2.00000
      3      -4.4465      2.00000
      4       0.9296      2.00000
      5       1.1869      2.00000
      6       2.2138      2.00000
      7       2.8772      2.00000
      8       3.5363      2.00000
      9       4.7937      2.00000
     10       6.5033      0.00000
     11       7.5562      0.00000
     12       8.5070      0.00000
     13       9.7823      0.00000
     14      11.2387      0.00000

 k-point    25 :       0.4444    0.1111    0.2500
  band No.  band energies     occupation 
      1      -6.7325      2.00000
      2      -5.6831      2.00000
      3      -4.5061      2.00000
      4       0.5234      2.00000
      5       1.0820      2.00000
      6       2.0989      2.00000
      7       3.0837      2.00000
      8       3.7368      2.00000
      9       4.8065      2.00000
     10       6.4070      0.00000
     11       7.6394      0.00000
     12       8.0486      0.00000
     13       9.5221      0.00000
     14      11.9673      0.00000

 k-point    26 :      -0.4444    0.1111    0.2500
  band No.  band energies     occupation 
      1      -6.8707      2.00000
      2      -5.7547      2.00000
      3      -4.2759      2.00000
      4       0.4434      2.00000
      5       1.2239      2.00000
      6       2.1199      2.00000
      7       3.1285      2.00000
      8       4.4476      2.00000
      9       4.8825      2.00000
     10       6.2852      0.00000
     11       7.1530      0.00000
     12       7.6470      0.00000
     13       9.4046      0.00000
     14      11.8367      0.00000

 k-point    27 :      -0.3333    0.1111    0.2500
  band No.  band energies     occupation 
      1      -7.1769      2.00000
      2      -5.8014      2.00000
      3      -3.9709      2.00000
      4       0.8544      2.00000
      5       1.4702      2.00000
      6       2.3212      2.00000
      7       3.3320      2.00000
      8       4.5633      2.00000
      9       5.2040      2.00000
     10       6.0901      0.00000
     11       6.7305      0.00000
     12       7.4286      0.00000
     13       9.4532      0.00000
     14      11.2525      0.00000

 k-point    28 :       0.2222    0.2222    0.2500
  band No.  band energies     occupation 
      1      -6.9161      2.00000
      2      -5.6873      2.00000
      3      -4.3327      2.00000
      4       0.6771      2.00000
      5       1.3110      2.00000
      6       2.1255      2.00000
      7       2.7129      2.00000
      8       4.1748      2.00000
      9       5.0811      2.00000
     10       6.4088      0.00000
     11       7.1384      0.00000
     12       8.2255      0.00000
     13      10.0578      0.00000
     14      10.6479      0.00000

 k-point    29 :       0.3333    0.2222    0.2500
  band No.  band energies     occupation 
      1      -6.6954      2.00000
      2      -5.6289      2.00000
      3      -4.5901      2.00000
      4       0.6563      2.00000
      5       0.9602      2.00000
      6       1.8139      2.00000
      7       2.9513      2.00000
      8       3.8279      2.00000
      9       4.8800      2.00000
     10       6.6358      0.00000
     11       7.6868      0.00000
     12       8.2423      0.00000
     13      10.1170      0.00000
     14      11.1469      0.00000

 k-point    30 :       0.4444    0.2222    0.2500
  band No.  band energies     occupation 
      1      -6.6872      2.00000
      2      -5.6639      2.00000
      3      -4.5498      2.00000
      4       0.5193      2.00000
      5       1.0316      2.00000
      6       1.8259      2.00000
      7       2.8936      2.00000
      8       4.1411      2.00000
      9       4.7390      2.00000
     10       6.7521      0.00000
     11       7.4784      0.00000
     12       8.1108      0.00000
     13      10.0308      0.00000
     14      11.3733      0.00000

 k-point    31 :       0.3333    0.3333    0.2500
  band No.  band energies     occupation 
      1      -6.6047      2.00000
      2      -5.6231      2.00000
      3      -4.6671      2.00000
      4       0.6099      2.00000
      5       0.9357      2.00000
      6       1.4992      2.00000
      7       3.1209      2.00000
      8       4.0398      2.00000
      9       4.4673      2.00000
     10       7.2303      0.00000
     11       7.7736      0.00000
     12       7.8565      0.00000
     13      10.8115      0.00000
     14      11.0722      0.00000

 k-point    32 :       0.0000    0.0000    0.5000
  band No.  band energies     occupation 
      1      -7.0181      2.00000
      2      -7.0181      2.00000
      3      -2.7911      2.00000
      4       1.7159      2.00000
      5       2.8798      2.00000
      6       2.8798      2.00000
      7       4.2236      2.00000
      8       4.4609      2.00000
      9       4.4609      2.00000
     10       5.9549      0.00000
     11       5.9549      0.00000
     12       5.9906      0.00000
     13       9.6693      0.00000
     14      10.7813      0.00000

 k-point    33 :       0.1111    0.0000    0.5000
  band No.  band energies     occupation 
      1      -6.9615      2.00000
      2      -6.9456      2.00000
      3      -2.9562      2.00000
      4       1.6630      2.00000
      5       2.7118      2.00000
      6       2.7947      2.00000
      7       3.7699      2.00000
      8       4.0939      2.00000
      9       4.3192      2.00000
     10       6.1957      0.00000
     11       6.3567      0.00000
     12       6.7681      0.00000
     13       9.8775      0.00000
     14      10.5124      0.00000

 k-point    34 :       0.2222    0.0000    0.5000
  band No.  band energies     occupation 
      1      -6.8099      2.00000
      2      -6.7378      2.00000
      3      -3.3833      2.00000
      4       1.3155      2.00000
      5       2.1947      2.00000
      6       2.5184      2.00000
      7       3.5805      2.00000
      8       3.7443      2.00000
      9       4.1574      2.00000
     10       6.6491      0.00000
     11       7.0554      0.00000
     12       7.5568      0.00000
     13      10.0528      0.00000
     14      10.7151      0.00000

 k-point    35 :       0.3333   -0.0000    0.5000
  band No.  band energies     occupation 
      1      -6.6196      2.00000
      2      -6.4348      2.00000
      3      -3.9145      2.00000
      4       0.6135      2.00000
      5       1.9568      2.00000
      6       2.2250      2.00000
      7       3.3375      2.00000
      8       3.6225      2.00000
      9       4.5137      2.00000
     10       6.9280      0.00000
     11       7.4459      0.00000
     12       7.6489      0.00000
     13      10.0715      0.00000
     14      11.0647      0.00000

 k-point    36 :       0.4444    0.0000    0.5000
  band No.  band energies     occupation 
      1      -6.4824      2.00000
      2      -6.1580      2.00000
      3      -4.3304      2.00000
      4       0.1327      2.00000
      5       1.9170      2.00000
      6       2.0139      2.00000
      7       3.1821      2.00000
      8       3.5227      2.00000
      9       5.1672      2.00000
     10       6.4814      0.00000
     11       7.3975      0.00000
     12       7.9239      0.00000
     13      10.1284      0.00000
     14      10.8911      0.00000

 k-point    37 :       0.1111    0.1111    0.5000
  band No.  band energies     occupation 
      1      -6.8536      2.00000
      2      -6.8089      2.00000
      3      -3.2498      2.00000
      4       1.4860      2.00000
      5       2.3795      2.00000
      6       2.4412      2.00000
      7       3.5618      2.00000
      8       3.7177      2.00000
      9       4.5527      2.00000
     10       6.1072      0.00000
     11       7.2093      0.00000
     12       7.3384      0.00000
     13      10.2584      0.00000
     14      10.2800      0.00000

 k-point    38 :       0.2222    0.1111    0.5000
  band No.  band energies     occupation 
      1      -6.6717      2.00000
      2      -6.5605      2.00000
      3      -3.7197      2.00000
      4       0.9806      2.00000
      5       1.8257      2.00000
      6       2.0095      2.00000
      7       3.5700      2.00000
      8       3.9304      2.00000
      9       4.5535      2.00000
     10       6.4454      0.00000
     11       7.5172      0.00000
     12       7.6665      0.00000
     13      10.1298      0.00000
     14      10.9158      0.00000

 k-point    39 :       0.3333    0.1111    0.5000
  band No.  band energies     occupation 
      1      -6.4941      2.00000
      2      -6.2674      2.00000
      3      -4.1911      2.00000
      4       0.3771      2.00000
      5       1.5661      2.00000
      6       1.7072      2.00000
      7       3.6479      2.00000
      8       4.0068      2.00000
      9       4.8849      2.00000
     10       6.6840      0.00000
     11       7.2123      0.00000
     12       7.7286      0.00000
     13      10.1825      0.00000
     14      11.1428      0.00000

 k-point    40 :       0.4444    0.1111    0.5000
  band No.  band energies     occupation 
      1      -6.4185      2.00000
      2      -6.1121      2.00000
      3      -4.4132      2.00000
      4       0.1319      2.00000
      5       1.5126      2.00000
      6       1.5773      2.00000
      7       3.7529      2.00000
      8       3.8689      2.00000
      9       5.3713      2.00000
     10       6.2944      0.00000
     11       7.2435      0.00000
     12       7.7278      0.00000
     13      10.2745      0.00000
     14      10.9391      0.00000

 k-point    41 :       0.2222    0.2222    0.5000
  band No.  band energies     occupation 
      1      -6.4769      2.00000
      2      -6.3362      2.00000
      3      -4.1207      2.00000
      4       0.6700      2.00000
      5       1.1694      2.00000
      6       1.4781      2.00000
      7       4.0130      2.00000
      8       4.3330      2.00000
      9       4.9626      2.00000
     10       6.3152      0.00000
     11       7.3921      0.00000
     12       7.4738      0.00000
     13      10.3817      0.00000
     14      11.2373      0.00000

 k-point    42 :       0.3333    0.2222    0.5000
  band No.  band energies     occupation 
      1      -6.3261      2.00000
      2      -6.1566      2.00000
      3      -4.4158      2.00000
      4       0.3700      2.00000
      5       0.9425      2.00000
      6       1.1066      2.00000
      7       4.3321      2.00000
      8       4.7005      2.00000
      9       5.2905      2.00000
     10       6.2578      0.00000
     11       6.9548      0.00000
     12       7.2442      0.00000
     13      10.7249      0.00000
     14      11.4439      0.00000

 k-point    43 :       0.3333    0.3333    0.5000
  band No.  band energies     occupation 
      1      -6.1839      2.00000
      2      -6.1839      2.00000
      3      -4.4988      2.00000
      4       0.5355      2.00000
      5       0.7060      2.00000
      6       0.7060      2.00000
      7       4.6021      2.00000
      8       5.4796      1.99922
      9       5.4796      1.99922
     10       5.7102      0.00156
     11       6.8484      0.00000
     12       6.8484      0.00000
     13      11.3729      0.00000
     14      12.0114      0.00000


--------------------------------------------------------------------------------------------------------


 soft charge-density along one line, spin component           1
         0         1         2         3         4         5         6         7         8         9
 total charge-density along one line
 
 pseudopotential strength for first ion, spin component:           1
 51.813  56.374  -0.000  -0.000  -0.051  -0.000  -0.000  -0.073
 56.374  61.339  -0.000  -0.000  -0.055  -0.000  -0.000  -0.080
 -0.000  -0.000  12.749   0.010   0.000  18.377   0.014   0.000
 -0.000  -0.000   0.010  12.765   0.000   0.014  18.401   0.000
 -0.051  -0.055   0.000   0.000  12.765   0.000   0.000  18.401
 -0.000  -0.000  18.377   0.014   0.000  26.500   0.021   0.000
 -0.000  -0.000   0.014  18.401   0.000   0.021  26.533   0.000
 -0.073  -0.080   0.000   0.000  18.401   0.000   0.000  26.533
  0.000   0.000  -0.010   0.000  -0.000  -0.014   0.001  -0.000
  0.016   0.017   0.000  -0.000   0.000   0.000  -0.000   0.001
  0.007   0.008   0.000  -0.000   0.006   0.000  -0.000   0.009
  0.000   0.000   0.000  -0.009  -0.000   0.001  -0.013  -0.000
  0.013   0.014   0.000  -0.000  -0.010   0.000  -0.000  -0.014
 total augmentation occupancy for first ion, spin component:           1
 12.787  -9.272   0.000   0.000   2.212   0.000   0.000  -0.581   0.000  -0.163  -0.091   0.000  -0.117
 -9.272   7.971   0.000  -0.000  -1.853   0.000   0.000   0.495   0.000   0.148   0.082   0.000   0.105
  0.000   0.000   2.493   0.224   0.000  -0.463  -0.198   0.000  -0.056   0.000   0.000  -0.050   0.000
 -0.000   0.000   0.224   2.838   0.000  -0.197  -0.771  -0.000  -0.049   0.000   0.000  -0.123   0.000
  2.212  -1.853   0.000   0.000   2.736   0.000  -0.000  -0.717   0.000  -0.055  -0.015   0.000  -0.055
  0.000   0.000  -0.463  -0.197   0.000   0.165   0.074  -0.000   0.014   0.000   0.000   0.018   0.000
  0.000   0.000  -0.198  -0.771  -0.000   0.074   0.276   0.000   0.018   0.000   0.000   0.037   0.000
 -0.581   0.495   0.000  -0.000  -0.717   0.000   0.000   0.248   0.000   0.016   0.003   0.000   0.014
  0.000   0.000  -0.056  -0.049   0.000   0.014   0.018   0.000   0.009   0.000  -0.000   0.010   0.000
 -0.163   0.148   0.000  -0.000  -0.055   0.000   0.000   0.016   0.000   0.013   0.004   0.000   0.003
 -0.091   0.082   0.000   0.000  -0.015   0.000   0.000   0.003   0.000   0.004   0.007   0.000  -0.001
  0.000   0.000  -0.050  -0.123   0.000   0.018   0.037  -0.000   0.010   0.000   0.000   0.025   0.000
 -0.117   0.105   0.000   0.000  -0.055  -0.000   0.000   0.014   0.000   0.003  -0.001   0.000   0.009


------------------------ aborting loop because EDIFF is reached ----------------------------------------


    CHARGE:  cpu time    0.1269: real time    0.2532
    FORLOC:  cpu time    0.0056: real time    0.0056
    FORNL :  cpu time    0.6067: real time    1.0566
    STRESS:  cpu time    1.4414: real time    2.1260
    FORCOR:  cpu time    0.1057: real time    0.2120
    FORHAR:  cpu time    0.0415: real time    0.0503
    MIXING:  cpu time    0.0143: real time    0.0144
    OFIELD:  cpu time    0.0000: real time    0.0000

  FORCE on cell =-STRESS in cart. coord.  units (eV):
  Direction    XX          YY          ZZ          XY          YZ          ZX
  --------------------------------------------------------------------------------------
  Alpha Z     2.21177     2.21177     2.21177
  Ewald    -234.68462  -234.68461  -196.55760    -0.00000    -0.00001     0.00000
  Hartree    11.99579    11.99579    22.14069     0.00000     0.00000    -0.00000
  E(xc)     -70.21529   -70.21529   -69.76698    -0.00000     0.00000    -0.00000
  Local    -115.18444  -115.18449  -154.61640    -0.00004     0.00000    -0.00000
  n-local   331.47867   332.34071   327.86761    -1.12656    -0.70436    -1.18864
  augment   -81.02449   -81.02444   -78.88106     0.00004    -0.00000     0.00000
  Kinetic   151.78306   158.13339   147.62339    -7.11691     0.19641     1.58643
  Fock        0.00000     0.00000     0.00000     0.00000     0.00000     0.00000
  -------------------------------------------------------------------------------------
  Total      -0.03336    -0.03336     0.02140     0.00000     0.00000     0.00000
  in kB      -0.50570    -0.50570     0.32440     0.00000     0.00000     0.00000
  external pressure =       -0.23 kB  Pullay stress =        0.00 kB


 VOLUME and BASIS-vectors are now :
 -----------------------------------------------------------------------------
  energy-cutoff  :      520.00
  volume of cell :      105.69
      direct lattice vectors                 reciprocal lattice vectors
     4.531475044 -0.000000000  0.000000000     0.220678695  0.127408904  0.000000000
    -2.265737522  3.924372505 -0.000000000    -0.000000000  0.254817808  0.000000000
     0.000000000 -0.000000000  5.943023371    -0.000000000  0.000000000  0.168264524

  length of vectors
     4.531475044  4.531475044  5.943023371     0.254817808  0.254817808  0.168264524


 FORCES acting on ions
    electron-ion (+dipol)            ewald-force                    non-local-force                 convergence-correction
 -----------------------------------------------------------------------------------------------
   -.125E+02 0.121E-04 -.114E-05   0.177E+02 0.155E-05 0.169E-05   -.520E+01 0.473E-19 0.000E+00   0.403E-02 0.326E-07 -.147E-08
   0.625E+01 -.108E+02 -.183E-04   -.886E+01 0.153E+02 -.809E-05   0.260E+01 -.450E+01 0.000E+00   -.202E-02 0.349E-02 0.148E-08
   0.625E+01 0.108E+02 0.191E-04   -.886E+01 -.153E+02 0.640E-05   0.260E+01 0.450E+01 0.000E+00   -.202E-02 -.349E-02 -.756E-10
 -----------------------------------------------------------------------------------------------
   0.260E-04 -.752E-05 -.305E-06   0.178E-14 0.000E+00 -.173E-17   0.444E-15 0.888E-15 0.000E+00   0.985E-08 0.184E-07 -.705E-10
 
 
 POSITION                                       TOTAL-FORCE (eV/Angst)
 -----------------------------------------------------------------------------------
      1.21248     -0.00000      1.98101         0.016602      0.000000      0.000000
     -0.60624      1.05004      3.96202        -0.008301      0.014378     -0.000000
      1.65950      2.87433     -0.00000        -0.008301     -0.014378      0.000000
 -----------------------------------------------------------------------------------
    total drift:                                0.000026     -0.000007     -0.000000


--------------------------------------------------------------------------------------------------------



  FREE ENERGIE OF THE ION-ELECTRON SYSTEM (eV)
  ---------------------------------------------------
  free  energy   TOTEN  =        -9.42576137 eV

  energy  without entropy=       -9.42575897  energy(sigma->0) =       -9.42576017
 
 d Force = 0.8847081E-04[ 0.772E-04, 0.997E-04]  d Energy = 0.3353532E-04 0.549E-04
 d Force = 0.8249555E-01[ 0.824E-01, 0.826E-01]  d Ewald  = 0.1249072E+00-0.424E-01


--------------------------------------------------------------------------------------------------------


    POTLOK:  cpu time    0.1915: real time    0.1919


--------------------------------------------------------------------------------------------------------




--------------------------------------------------------------------------------------------------------


    WAVPRE:  cpu time    0.0189: real time    0.0357
    FEWALD:  cpu time    0.0034: real time    0.0117
    GENKIN:  cpu time    0.0328: real time    0.0577
    ORTHCH:  cpu time    0.0777: real time    0.1546
     LOOP+:  cpu time   11.8106: real time   17.9066


--------------------------------------- Iteration      7(   1)  ---------------------------------------


    POTLOK:  cpu time    0.1081: real time    0.2150
    SETDIJ:  cpu time    0.0160: real time    0.0347
     EDDAV:  cpu time    2.4367: real time    3.3959
       DOS:  cpu time    0.0026: real time    0.0026
    CHARGE:  cpu time    0.1473: real time    0.3002
    MIXING:  cpu time    0.0030: real time    0.0030
    --------------------------------------------
      LOOP:  cpu time    2.7137: real time    3.9514

 eigenvalue-minimisations  :  1276
 total energy-change (2. order) : 0.1117863E-04  (-0.5092598E-04)
 number of electron      17.9999996 magnetization 
 augmentation part       -3.6075996 magnetization 

 Broyden mixing:
  rms(total) = 0.17796E-02    rms(broyden)= 0.17796E-02
  rms(prec ) = 0.24447E-02
  weight for this iteration     100.00

 Free energy of the ion-electron system (eV)
  ---------------------------------------------------
  alpha Z        PSCENC =         2.21204016
  Ewald energy   TEWEN  =      -665.96435596
  -Hartree energ DENC   =       -46.11972116
  -exchange      EXHF   =         0.00000000
  -V(xc)+E(xc)   XCENC  =       -84.16423241
  PAW double counting   =      1467.82847312    -1352.45225616
  entropy T*S    EENTRO =        -0.00000215
  eigenvalues    EBANDS =        -0.58000870
  atomic energy  EATOM  =       669.81430600
  Solvation  Ediel_sol  =         0.00000000
  ---------------------------------------------------
  free energy    TOTEN  =        -9.42575726 eV

  energy without entropy =       -9.42575511  energy(sigma->0) =       -9.42575618


--------------------------------------------------------------------------------------------------------




--------------------------------------- Iteration      7(   2)  ---------------------------------------


    POTLOK:  cpu time    0.0901: real time    0.1823
    SETDIJ:  cpu time    0.0107: real time    0.0197
     EDDAV:  cpu time    2.2604: real time    3.0170
       DOS:  cpu time    0.0105: real time    0.0105
    --------------------------------------------
      LOOP:  cpu time    2.3717: real time    3.2296

 eigenvalue-minimisations  :  1178
 total energy-change (2. order) :-0.2396821E-06  (-0.1993743E-05)
 number of electron      17.9999996 magnetization 
 augmentation part       -3.6075996 magnetization 

 Free energy of the ion-electron system (eV)
  ---------------------------------------------------
  alpha Z        PSCENC =         2.21204016
  Ewald energy   TEWEN  =      -665.96435596
  -Hartree energ DENC   =       -46.11953018
  -exchange      EXHF   =         0.00000000
  -V(xc)+E(xc)   XCENC  =       -84.16389852
  PAW double counting   =      1467.92860808    -1352.55240850
  entropy T*S    EENTRO =        -0.00000211
  eigenvalues    EBANDS =        -0.58051646
  atomic energy  EATOM  =       669.81430600
  Solvation  Ediel_sol  =         0.00000000
  ---------------------------------------------------
  free energy    TOTEN  =        -9.42575750 eV

  energy without entropy =       -9.42575538  energy(sigma->0) =       -9.42575644


--------------------------------------------------------------------------------------------------------




 average (electrostatic) potential at core
  the test charge radii are     1.1897
  (the norm of the test charge is              1.0000)
       1 -89.4237       2 -89.4237       3 -89.4237
 
 
 
 E-fermi :   5.6022     XC(G=0):  -8.9033     alpha+bet :-10.1764


 k-point     1 :       0.0000    0.0000    0.0000
  band No.  band energies     occupation 
      1      -7.8786      2.00000
      2      -4.7097      2.00000
      3      -4.7097      2.00000
      4       2.4906      2.00000
      5       2.7549      2.00000
      6       2.7549      2.00000
      7       3.8713      2.00000
      8       3.8713      2.00000
      9       4.6955      2.00000
     10       6.4821      0.00000
     11       6.4821      0.00000
     12       7.0164      0.00000
     13      10.5381      0.00000
     14      10.5381      0.00000

 k-point     2 :       0.1111    0.0000    0.0000
  band No.  band energies     occupation 
      1      -7.8011      2.00000
      2      -4.7393      2.00000
      3      -4.6929      2.00000
      4       1.9244      2.00000
      5       2.3771      2.00000
      6       2.6139      2.00000
      7       4.1017      2.00000
      8       4.3889      2.00000
      9       4.8476      2.00000
     10       6.2320      0.00000
     11       6.4283      0.00000
     12       6.9203      0.00000
     13      10.2996      0.00000
     14      10.4875      0.00000

 k-point     3 :       0.2222    0.0000    0.0000
  band No.  band energies     occupation 
      1      -7.5797      2.00000
      2      -4.8597      2.00000
      3      -4.6465      2.00000
      4       1.2154      2.00000
      5       1.8624      2.00000
      6       2.2888      2.00000
      7       4.2292      2.00000
      8       4.5136      2.00000
      9       4.6829      2.00000
     10       6.3471      0.00000
     11       6.5051      0.00000
     12       7.0852      0.00000
     13       9.5846      0.00000
     14      10.6777      0.00000

 k-point     4 :       0.3333   -0.0000    0.0000
  band No.  band energies     occupation 
      1      -7.2595      2.00000
      2      -5.1058      2.00000
      3      -4.5879      2.00000
      4       0.8811      2.00000
      5       1.4609      2.00000
      6       2.0191      2.00000
      7       3.2586      2.00000
      8       4.5457      2.00000
      9       4.7088      2.00000
     10       6.3477      0.00000
     11       6.4919      0.00000
     12       8.1297      0.00000
     13       8.9663      0.00000
     14      11.3858      0.00000

 k-point     5 :       0.4444    0.0000    0.0000
  band No.  band energies     occupation 
      1      -6.9699      2.00000
      2      -5.3727      2.00000
      3      -4.5465      2.00000
      4       0.8634      2.00000
      5       1.2749      2.00000
      6       1.9670      2.00000
      7       2.4019      2.00000
      8       4.5072      2.00000
      9       4.7031      2.00000
     10       6.3559      0.00000
     11       6.4279      0.00000
     12       8.6355      0.00000
     13       8.9470      0.00000
     14      12.4275      0.00000

 k-point     6 :       0.1111    0.1111    0.0000
  band No.  band energies     occupation 
      1      -7.6513      2.00000
      2      -4.8000      2.00000
      3      -4.6768      2.00000
      4       1.4478      2.00000
      5       1.7547      2.00000
      6       2.6645      2.00000
      7       3.9539      2.00000
      8       4.7100      2.00000
      9       4.7595      2.00000
     10       6.2259      0.00000
     11       6.5474      0.00000
     12       6.9965      0.00000
     13      10.0638      0.00000
     14      10.1585      0.00000

 k-point     7 :       0.2222    0.1111    0.0000
  band No.  band energies     occupation 
      1      -7.3775      2.00000
      2      -4.9606      2.00000
      3      -4.6582      2.00000
      4       1.0210      2.00000
      5       1.3629      2.00000
      6       2.4074      2.00000
      7       3.7463      2.00000
      8       4.0604      2.00000
      9       4.4852      2.00000
     10       6.6597      0.00000
     11       6.9643      0.00000
     12       7.4996      0.00000
     13       9.4978      0.00000
     14      10.4084      0.00000

 k-point     8 :       0.3333    0.1111    0.0000
  band No.  band energies     occupation 
      1      -7.0567      2.00000
      2      -5.2211      2.00000
      3      -4.6362      2.00000
      4       0.9003      2.00000
      5       1.2319      2.00000
      6       2.1034      2.00000
      7       2.8384      2.00000
      8       4.0212      2.00000
      9       4.2506      2.00000
     10       6.8007      0.00000
     11       7.0237      0.00000
     12       8.5133      0.00000
     13       9.0846      0.00000
     14      11.2622      0.00000

 k-point     9 :       0.4444    0.1111    0.0000
  band No.  band energies     occupation 
      1      -6.8874      2.00000
      2      -5.3773      2.00000
      3      -4.6261      2.00000
      4       0.9328      2.00000
      5       1.2340      2.00000
      6       2.1200      2.00000
      7       2.2451      2.00000
      8       4.0466      2.00000
      9       4.1428      2.00000
     10       6.8184      0.00000
     11       7.0376      0.00000
     12       8.9397      0.00000
     13       8.9769      0.00000
     14      12.1738      0.00000

 k-point    10 :       0.2222    0.2222    0.0000
  band No.  band energies     occupation 
      1      -7.0930      2.00000
      2      -5.0855      2.00000
      3      -4.7517      2.00000
      4       1.0077      2.00000
      5       1.0875      2.00000
      6       2.3941      2.00000
      7       3.2736      2.00000
      8       3.5905      2.00000
      9       3.6452      2.00000
     10       7.4049      0.00000
     11       7.6722      0.00000
     12       7.8524      0.00000
     13       9.8268      0.00000
     14      10.2025      0.00000

 k-point    11 :       0.3333    0.2222    0.0000
  band No.  band energies     occupation 
      1      -6.8491      2.00000
      2      -5.2275      2.00000
      3      -4.8337      2.00000
      4       1.0627      2.00000
      5       1.1737      2.00000
      6       2.2704      2.00000
      7       2.6127      2.00000
      8       3.2859      2.00000
      9       3.3880      2.00000
     10       7.6341      0.00000
     11       7.9134      0.00000
     12       8.5939      0.00000
     13       9.7693      0.00000
     14      11.0292      0.00000

 k-point    12 :       0.3333    0.3333    0.0000
  band No.  band energies     occupation 
      1      -6.7574      2.00000
      2      -5.0800      2.00000
      3      -5.0800      2.00000
      4       1.1958      2.00000
      5       1.1958      2.00000
      6       2.5745      2.00000
      7       2.5745      2.00000
      8       2.6860      2.00000
      9       2.9879      2.00000
     10       8.2407      0.00000
     11       8.2407      0.00000
     12       8.5176      0.00000
     13      10.3426      0.00000
     14      11.3001      0.00000

 k-point    13 :       0.0000    0.0000    0.2500
  band No.  band energies     occupation 
      1      -7.6597      2.00000
      2      -5.9960      2.00000
      3      -3.4236      2.00000
      4       2.1288      2.00000
      5       2.6149      2.00000
      6       3.0153      2.00000
      7       4.0420      2.00000
      8       4.0626      2.00000
      9       4.6599      2.00000
     10       6.1460      0.00000
     11       6.2201      0.00000
     12       6.5118      0.00000
     13      10.0134      0.00000
     14      10.9849      0.00000

 k-point    14 :       0.1111    0.0000    0.2500
  band No.  band energies     occupation 
      1      -7.5857      2.00000
      2      -5.9511      2.00000
      3      -3.5266      2.00000
      4       1.8772      2.00000
      5       2.4638      2.00000
      6       2.8865      2.00000
      7       3.7989      2.00000
      8       4.1895      2.00000
      9       4.3297      2.00000
     10       6.3941      0.00000
     11       6.5347      0.00000
     12       6.8745      0.00000
     13      10.0646      0.00000
     14      10.9864      0.00000

 k-point    15 :       0.2222    0.0000    0.2500
  band No.  band energies     occupation 
      1      -7.3783      2.00000
      2      -5.8224      2.00000
      3      -3.8420      2.00000
      4       1.5487      2.00000
      5       2.0887      2.00000
      6       2.6493      2.00000
      7       3.2001      2.00000
      8       3.7615      2.00000
      9       4.2537      2.00000
     10       6.8002      0.00000
     11       7.2582      0.00000
     12       7.6314      0.00000
     13      10.2987      0.00000
     14      10.7419      0.00000

 k-point    16 :       0.3333   -0.0000    0.2500
  band No.  band energies     occupation 
      1      -7.0860      2.00000
      2      -5.6650      2.00000
      3      -4.2656      2.00000
      4       1.2308      2.00000
      5       1.5819      2.00000
      6       2.3362      2.00000
      7       2.7996      2.00000
      8       3.7574      2.00000
      9       4.1757      2.00000
     10       6.8652      0.00000
     11       7.4392      0.00000
     12       8.4857      0.00000
     13       9.9129      0.00000
     14      11.1887      0.00000

 k-point    17 :       0.4444    0.0000    0.2500
  band No.  band energies     occupation 
      1      -6.8206      2.00000
      2      -5.6399      2.00000
      3      -4.4999      2.00000
      4       0.6920      2.00000
      5       1.3050      2.00000
      6       2.0638      2.00000
      7       3.2243      2.00000
      8       3.7881      2.00000
      9       4.1201      2.00000
     10       6.7706      0.00000
     11       7.4117      0.00000
     12       8.3949      0.00000
     13       9.4782      0.00000
     14      11.6617      0.00000

 k-point    18 :      -0.4444   -0.0000    0.2500
  band No.  band energies     occupation 
      1      -6.7932      2.00000
      2      -5.7561      2.00000
      3      -4.3525      2.00000
      4       0.3860      2.00000
      5       1.2289      2.00000
      6       2.0254      2.00000
      7       3.8606      2.00000
      8       3.9042      2.00000
      9       4.2684      2.00000
     10       6.6337      0.00000
     11       7.2290      0.00000
     12       7.6802      0.00000
     13       9.1889      0.00000
     14      12.1694      0.00000

 k-point    19 :      -0.3333    0.0000    0.2500
  band No.  band energies     occupation 
      1      -7.0565      2.00000
      2      -5.8081      2.00000
      3      -4.0387      2.00000
      4       0.5617      2.00000
      5       1.3268      2.00000
      6       2.1646      2.00000
      7       4.1052      2.00000
      8       4.1308      2.00000
      9       5.0036      2.00000
     10       6.3237      0.00000
     11       6.8668      0.00000
     12       7.0092      0.00000
     13       9.0930      0.00000
     14      12.1250      0.00000

 k-point    20 :      -0.2222   -0.0000    0.2500
  band No.  band energies     occupation 
      1      -7.3680      2.00000
      2      -5.8754      2.00000
      3      -3.7301      2.00000
      4       1.2076      2.00000
      5       1.5993      2.00000
      6       2.4385      2.00000
      7       4.2968      2.00000
      8       4.4083      2.00000
      9       5.0349      2.00000
     10       6.1169      0.00000
     11       6.4830      0.00000
     12       6.7869      0.00000
     13       9.2932      0.00000
     14      11.6326      0.00000

 k-point    21 :      -0.1111   -0.0000    0.2500
  band No.  band energies     occupation 
      1      -7.5844      2.00000
      2      -5.9580      2.00000
      3      -3.5086      2.00000
      4       1.8962      2.00000
      5       2.1810      2.00000
      6       2.7847      2.00000
      7       4.2236      2.00000
      8       4.3379      2.00000
      9       4.6292      2.00000
     10       6.0914      0.00000
     11       6.1439      0.00000
     12       6.9038      0.00000
     13       9.7772      0.00000
     14      11.0722      0.00000

 k-point    22 :       0.1111    0.1111    0.2500
  band No.  band energies     occupation 
      1      -7.4415      2.00000
      2      -5.8808      2.00000
      3      -3.6998      2.00000
      4       1.5526      2.00000
      5       1.8558      2.00000
      6       2.6593      2.00000
      7       3.7036      2.00000
      8       4.2207      2.00000
      9       4.6261      2.00000
     10       6.3875      0.00000
     11       6.8724      0.00000
     12       7.0505      0.00000
     13       9.7798      0.00000
     14      11.0599      0.00000

 k-point    23 :       0.2222    0.1111    0.2500
  band No.  band energies     occupation 
      1      -7.1874      2.00000
      2      -5.7394      2.00000
      3      -4.0755      2.00000
      4       1.2112      2.00000
      5       1.6121      2.00000
      6       2.5181      2.00000
      7       2.8293      2.00000
      8       3.8340      2.00000
      9       4.7597      2.00000
     10       6.5851      0.00000
     11       7.2124      0.00000
     12       8.0905      0.00000
     13      10.1233      0.00000
     14      10.5874      0.00000

 k-point    24 :       0.3333    0.1111    0.2500
  band No.  band energies     occupation 
      1      -6.8967      2.00000
      2      -5.6264      2.00000
      3      -4.4462      2.00000
      4       0.9311      2.00000
      5       1.1885      2.00000
      6       2.2147      2.00000
      7       2.8792      2.00000
      8       3.5367      2.00000
      9       4.7957      2.00000
     10       6.5058      0.00000
     11       7.5577      0.00000
     12       8.5101      0.00000
     13       9.7833      0.00000
     14      11.2395      0.00000

 k-point    25 :       0.4444    0.1111    0.2500
  band No.  band energies     occupation 
      1      -6.7305      2.00000
      2      -5.6817      2.00000
      3      -4.5057      2.00000
      4       0.5245      2.00000
      5       1.0838      2.00000
      6       2.0995      2.00000
      7       3.0851      2.00000
      8       3.7392      2.00000
      9       4.8087      2.00000
     10       6.4086      0.00000
     11       7.6416      0.00000
     12       8.0519      0.00000
     13       9.5227      0.00000
     14      11.9713      0.00000

 k-point    26 :      -0.4444    0.1111    0.2500
  band No.  band energies     occupation 
      1      -6.8689      2.00000
      2      -5.7533      2.00000
      3      -4.2752      2.00000
      4       0.4441      2.00000
      5       1.2264      2.00000
      6       2.1200      2.00000
      7       3.1296      2.00000
      8       4.4508      2.00000
      9       4.8847      2.00000
     10       6.2864      0.00000
     11       7.1552      0.00000
     12       7.6483      0.00000
     13       9.4046      0.00000
     14      11.8377      0.00000

 k-point    27 :      -0.3333    0.1111    0.2500
  band No.  band energies     occupation 
      1      -7.1754      2.00000
      2      -5.7996      2.00000
      3      -3.9698      2.00000
      4       0.8548      2.00000
      5       1.4731      2.00000
      6       2.3208      2.00000
      7       3.3332      2.00000
      8       4.5646      2.00000
      9       5.2069      2.00000
     10       6.0924      0.00000
     11       6.7303      0.00000
     12       7.4290      0.00000
     13       9.4528      0.00000
     14      11.2542      0.00000

 k-point    28 :       0.2222    0.2222    0.2500
  band No.  band energies     occupation 
      1      -6.9143      2.00000
      2      -5.6856      2.00000
      3      -4.3321      2.00000
      4       0.6777      2.00000
      5       1.3134      2.00000
      6       2.1259      2.00000
      7       2.7146      2.00000
      8       4.1760      2.00000
      9       5.0841      2.00000
     10       6.4117      0.00000
     11       7.1385      0.00000
     12       8.2273      0.00000
     13      10.0579      0.00000
     14      10.6485      0.00000

 k-point    29 :       0.3333    0.2222    0.2500
  band No.  band energies     occupation 
      1      -6.6934      2.00000
      2      -5.6273      2.00000
      3      -4.5900      2.00000
      4       0.6573      2.00000
      5       0.9619      2.00000
      6       1.8146      2.00000
      7       2.9542      2.00000
      8       3.8293      2.00000
      9       4.8827      2.00000
     10       6.6382      0.00000
     11       7.6884      0.00000
     12       8.2449      0.00000
     13      10.1173      0.00000
     14      11.1464      0.00000

 k-point    30 :       0.4444    0.2222    0.2500
  band No.  band energies     occupation 
      1      -6.6852      2.00000
      2      -5.6624      2.00000
      3      -4.5496      2.00000
      4       0.5201      2.00000
      5       1.0334      2.00000
      6       1.8265      2.00000
      7       2.8959      2.00000
      8       4.1439      2.00000
      9       4.7410      2.00000
     10       6.7546      0.00000
     11       7.4803      0.00000
     12       8.1127      0.00000
     13      10.0309      0.00000
     14      11.3731      0.00000

 k-point    31 :       0.3333    0.3333    0.2500
  band No.  band energies     occupation 
      1      -6.6026      2.00000
      2      -5.6216      2.00000
      3      -4.6671      2.00000
      4       0.6109      2.00000
      5       0.9375      2.00000
      6       1.4995      2.00000
      7       3.1247      2.00000
      8       4.0420      2.00000
      9       4.4688      2.00000
     10       7.2347      0.00000
     11       7.7749      0.00000
     12       7.8577      0.00000
     13      10.8114      0.00000
     14      11.0716      0.00000

 k-point    32 :       0.0000    0.0000    0.5000
  band No.  band energies     occupation 
      1      -7.0163      2.00000
      2      -7.0163      2.00000
      3      -2.7893      2.00000
      4       1.7210      2.00000
      5       2.8792      2.00000
      6       2.8792      2.00000
      7       4.2248      2.00000
      8       4.4611      2.00000
      9       4.4611      2.00000
     10       5.9529      0.00000
     11       5.9529      0.00000
     12       5.9909      0.00000
     13       9.6726      0.00000
     14      10.7796      0.00000

 k-point    33 :       0.1111    0.0000    0.5000
  band No.  band energies     occupation 
      1      -6.9598      2.00000
      2      -6.9439      2.00000
      3      -2.9546      2.00000
      4       1.6676      2.00000
      5       2.7117      2.00000
      6       2.7947      2.00000
      7       3.7703      2.00000
      8       4.0941      2.00000
      9       4.3191      2.00000
     10       6.1955      0.00000
     11       6.3556      0.00000
     12       6.7680      0.00000
     13       9.8804      0.00000
     14      10.5118      0.00000

 k-point    34 :       0.2222    0.0000    0.5000
  band No.  band energies     occupation 
      1      -6.8081      2.00000
      2      -6.7361      2.00000
      3      -3.3823      2.00000
      4       1.3181      2.00000
      5       2.1963      2.00000
      6       2.5188      2.00000
      7       3.5809      2.00000
      8       3.7453      2.00000
      9       4.1574      2.00000
     10       6.6507      0.00000
     11       7.0549      0.00000
     12       7.5584      0.00000
     13      10.0538      0.00000
     14      10.7168      0.00000

 k-point    35 :       0.3333   -0.0000    0.5000
  band No.  band energies     occupation 
      1      -6.6178      2.00000
      2      -6.4329      2.00000
      3      -3.9141      2.00000
      4       0.6146      2.00000
      5       1.9590      2.00000
      6       2.2257      2.00000
      7       3.3373      2.00000
      8       3.6232      2.00000
      9       4.5160      2.00000
     10       6.9322      0.00000
     11       7.4484      0.00000
     12       7.6495      0.00000
     13      10.0733      0.00000
     14      11.0681      0.00000

 k-point    36 :       0.4444    0.0000    0.5000
  band No.  band energies     occupation 
      1      -6.4807      2.00000
      2      -6.1559      2.00000
      3      -4.3304      2.00000
      4       0.1336      2.00000
      5       1.9189      2.00000
      6       2.0151      2.00000
      7       3.1819      2.00000
      8       3.5231      2.00000
      9       5.1712      2.00000
     10       6.4859      0.00000
     11       7.4012      0.00000
     12       7.9253      0.00000
     13      10.1315      0.00000
     14      10.8939      0.00000

 k-point    37 :       0.1111    0.1111    0.5000
  band No.  band energies     occupation 
      1      -6.8519      2.00000
      2      -6.8071      2.00000
      3      -3.2487      2.00000
      4       1.4895      2.00000
      5       2.3799      2.00000
      6       2.4417      2.00000
      7       3.5627      2.00000
      8       3.7178      2.00000
      9       4.5532      2.00000
     10       6.1065      0.00000
     11       7.2107      0.00000
     12       7.3386      0.00000
     13      10.2606      0.00000
     14      10.2802      0.00000

 k-point    38 :       0.2222    0.1111    0.5000
  band No.  band energies     occupation 
      1      -6.6699      2.00000
      2      -6.5587      2.00000
      3      -3.7191      2.00000
      4       0.9824      2.00000
      5       1.8267      2.00000
      6       2.0101      2.00000
      7       3.5711      2.00000
      8       3.9326      2.00000
      9       4.5540      2.00000
     10       6.4462      0.00000
     11       7.5196      0.00000
     12       7.6684      0.00000
     13      10.1312      0.00000
     14      10.9175      0.00000

 k-point    39 :       0.3333    0.1111    0.5000
  band No.  band energies     occupation 
      1      -6.4924      2.00000
      2      -6.2654      2.00000
      3      -4.1910      2.00000
      4       0.3781      2.00000
      5       1.5670      2.00000
      6       1.7081      2.00000
      7       3.6490      2.00000
      8       4.0085      2.00000
      9       4.8876      2.00000
     10       6.6883      0.00000
     11       7.2145      0.00000
     12       7.7304      0.00000
     13      10.1849      0.00000
     14      11.1459      0.00000

 k-point    40 :       0.4444    0.1111    0.5000
  band No.  band energies     occupation 
      1      -6.4167      2.00000
      2      -6.1099      2.00000
      3      -4.4134      2.00000
      4       0.1327      2.00000
      5       1.5131      2.00000
      6       1.5786      2.00000
      7       3.7536      2.00000
      8       3.8707      2.00000
      9       5.3754      2.00000
     10       6.2986      0.00000
     11       7.2471      0.00000
     12       7.7289      0.00000
     13      10.2777      0.00000
     14      10.9418      0.00000

 k-point    41 :       0.2222    0.2222    0.5000
  band No.  band energies     occupation 
      1      -6.4750      2.00000
      2      -6.3343      2.00000
      3      -4.1206      2.00000
      4       0.6714      2.00000
      5       1.1695      2.00000
      6       1.4788      2.00000
      7       4.0161      2.00000
      8       4.3357      2.00000
      9       4.9637      2.00000
     10       6.3169      0.00000
     11       7.3945      0.00000
     12       7.4767      0.00000
     13      10.3831      0.00000
     14      11.2392      0.00000

 k-point    42 :       0.3333    0.2222    0.5000
  band No.  band energies     occupation 
      1      -6.3242      2.00000
      2      -6.1545      2.00000
      3      -4.4160      2.00000
      4       0.3709      2.00000
      5       0.9428      2.00000
      6       1.1073      2.00000
      7       4.3358      2.00000
      8       4.7029      2.00000
      9       5.2930      2.00000
     10       6.2622      0.00000
     11       6.9566      0.00000
     12       7.2455      0.00000
     13      10.7269      0.00000
     14      11.4464      0.00000

 k-point    43 :       0.3333    0.3333    0.5000
  band No.  band energies     occupation 
      1      -6.1819      2.00000
      2      -6.1819      2.00000
      3      -4.4991      2.00000
      4       0.5369      2.00000
      5       0.7062      2.00000
      6       0.7062      2.00000
      7       4.6070      2.00000
      8       5.4821      1.99932
      9       5.4821      1.99932
     10       5.7155      0.00136
     11       6.8493      0.00000
     12       6.8493      0.00000
     13      11.3740      0.00000
     14      12.0130      0.00000


--------------------------------------------------------------------------------------------------------


 soft charge-density along one line, spin component           1
         0         1         2         3         4         5         6         7         8         9
 total charge-density along one line
 
 pseudopotential strength for first ion, spin component:           1
 51.813  56.373  -0.000  -0.000  -0.050  -0.000  -0.000  -0.073
 56.373  61.339  -0.000  -0.000  -0.055  -0.000  -0.000  -0.080
 -0.000  -0.000  12.749   0.010   0.000  18.377   0.014   0.000
 -0.000  -0.000   0.010  12.765   0.000   0.014  18.400   0.000
 -0.050  -0.055   0.000   0.000  12.765   0.000   0.000  18.400
 -0.000  -0.000  18.377   0.014   0.000  26.500   0.021   0.000
 -0.000  -0.000   0.014  18.400   0.000   0.021  26.533   0.000
 -0.073  -0.080   0.000   0.000  18.400   0.000   0.000  26.533
  0.000   0.000  -0.010   0.000  -0.000  -0.014   0.001  -0.000
  0.016   0.017   0.000  -0.000   0.000   0.000  -0.000   0.001
  0.007   0.008   0.000  -0.000   0.006   0.000  -0.000   0.009
  0.000   0.000   0.000  -0.009  -0.000   0.001  -0.013  -0.000
  0.013   0.014   0.000  -0.000  -0.010   0.000  -0.000  -0.014
 total augmentation occupancy for first ion, spin component:           1
 12.804  -9.284   0.000   0.000   2.211   0.000   0.000  -0.581   0.000  -0.163  -0.090   0.000  -0.117
 -9.284   7.979   0.000  -0.000  -1.851   0.000   0.000   0.493   0.000   0.148   0.082  -0.000   0.106
  0.000   0.000   2.492   0.223   0.000  -0.463  -0.197   0.000  -0.056   0.000   0.000  -0.050   0.000
 -0.000   0.000   0.223   2.833   0.000  -0.197  -0.768  -0.000  -0.049   0.000  -0.000  -0.123   0.000
  2.211  -1.851   0.000   0.000   2.735   0.000  -0.000  -0.716   0.000  -0.055  -0.015   0.000  -0.055
  0.000   0.000  -0.463  -0.197   0.000   0.165   0.074   0.000   0.013   0.000   0.000   0.018  -0.000
 -0.000   0.000  -0.197  -0.768  -0.000   0.074   0.275   0.000   0.018   0.000   0.000   0.037   0.000
 -0.581   0.493   0.000  -0.000  -0.716   0.000   0.000   0.248   0.000   0.016   0.003   0.000   0.014
  0.000   0.000  -0.056  -0.049   0.000   0.013   0.018   0.000   0.009   0.000   0.000   0.010   0.000
 -0.163   0.148   0.000   0.000  -0.055   0.000   0.000   0.016   0.000   0.013   0.004   0.000   0.003
 -0.090   0.082   0.000  -0.000  -0.015   0.000   0.000   0.003   0.000   0.004   0.007  -0.000  -0.001
  0.000  -0.000  -0.050  -0.123   0.000   0.018   0.037  -0.000   0.010   0.000   0.000   0.025   0.000
 -0.117   0.106   0.000   0.000  -0.055  -0.000   0.000   0.014   0.000   0.003  -0.001   0.000   0.009


------------------------ aborting loop because EDIFF is reached ----------------------------------------


    CHARGE:  cpu time    0.1399: real time    0.2830
    FORLOC:  cpu time    0.0056: real time    0.0055
    FORNL :  cpu time    0.5295: real time    1.0677
    STRESS:  cpu time    1.4483: real time    2.0686
    FORCOR:  cpu time    0.1885: real time    0.2164
    FORHAR:  cpu time    0.0271: real time    0.0272
    MIXING:  cpu time    0.0149: real time    0.0149
    OFIELD:  cpu time    0.0000: real time    0.0000

  FORCE on cell =-STRESS in cart. coord.  units (eV):
  Direction    XX          YY          ZZ          XY          YZ          ZX
  --------------------------------------------------------------------------------------
  Alpha Z     2.21204     2.21204     2.21204
  Ewald    -234.64362  -234.64361  -196.67785    -0.00000    -0.00001     0.00000
  Hartree    12.00438    12.00438    22.11078     0.00000     0.00000    -0.00000
  E(xc)     -70.21493   -70.21493   -69.76658    -0.00000     0.00000    -0.00000
  Local    -115.22701  -115.22706  -154.47676    -0.00004     0.00000    -0.00000
  n-local   331.48018   332.34455   327.86919    -1.12390    -0.70330    -1.18574
  augment   -81.02523   -81.02518   -78.88915     0.00004    -0.00000     0.00000
  Kinetic   151.77036   158.12563   147.65256    -7.12055     0.19950     1.59415
  Fock        0.00000     0.00000     0.00000     0.00000     0.00000     0.00000
  -------------------------------------------------------------------------------------
  Total      -0.03400    -0.03400     0.03423     0.00000     0.00000     0.00000
  in kB      -0.51556    -0.51556     0.51902     0.00000     0.00000     0.00000
  external pressure =       -0.17 kB  Pullay stress =        0.00 kB


 VOLUME and BASIS-vectors are now :
 -----------------------------------------------------------------------------
  energy-cutoff  :      520.00
  volume of cell :      105.67
      direct lattice vectors                 reciprocal lattice vectors
     4.532141031 -0.000000000  0.000000000     0.220646267  0.127390182  0.000000000
    -2.266070516  3.924949267 -0.000000000    -0.000000000  0.254780363  0.000000000
     0.000000000 -0.000000000  5.940541492    -0.000000000  0.000000000  0.168334823

  length of vectors
     4.532141031  4.532141031  5.940541492     0.254780363  0.254780363  0.168334823


 FORCES acting on ions
    electron-ion (+dipol)            ewald-force                    non-local-force                 convergence-correction
 -----------------------------------------------------------------------------------------------
   -.125E+02 0.121E-04 -.114E-05   0.177E+02 0.156E-05 0.169E-05   -.520E+01 0.278E-16 0.555E-16   0.310E-02 0.195E-07 -.878E-09
   0.625E+01 -.108E+02 -.183E-04   -.885E+01 0.153E+02 -.808E-05   0.260E+01 -.450E+01 0.000E+00   -.155E-02 0.268E-02 0.890E-09
   0.625E+01 0.108E+02 0.191E-04   -.885E+01 -.153E+02 0.639E-05   0.260E+01 0.450E+01 0.000E+00   -.155E-02 -.268E-02 -.567E-10
 -----------------------------------------------------------------------------------------------
   0.260E-04 -.753E-05 -.304E-06   -.178E-14 -.178E-14 -.173E-17   0.444E-15 -.888E-15 0.555E-16   0.561E-08 0.105E-07 -.453E-10
 
 
 POSITION                                       TOTAL-FORCE (eV/Angst)
 -----------------------------------------------------------------------------------
      1.21313     -0.00000      1.98018         0.014749      0.000000      0.000000
     -0.60657      1.05060      3.96036        -0.007375      0.012773     -0.000000
      1.65950      2.87435     -0.00000        -0.007375     -0.012773      0.000000
 -----------------------------------------------------------------------------------
    total drift:                                0.000026     -0.000008     -0.000000


--------------------------------------------------------------------------------------------------------



  FREE ENERGIE OF THE ION-ELECTRON SYSTEM (eV)
  ---------------------------------------------------
  free  energy   TOTEN  =        -9.42575750 eV

  energy  without entropy=       -9.42575538  energy(sigma->0) =       -9.42575644
 
 d Force = 0.2220824E-04[ 0.209E-04, 0.235E-04]  d Energy =-0.3876344E-05 0.261E-04
 d Force = 0.2509499E-01[ 0.251E-01, 0.251E-01]  d Ewald  = 0.3824850E-01-0.132E-01


--------------------------------------------------------------------------------------------------------


    POTLOK:  cpu time    0.1694: real time    0.1699


--------------------------------------------------------------------------------------------------------




--------------------------------------------------------------------------------------------------------


    WAVPRE:  cpu time    0.0198: real time    0.0498
    FEWALD:  cpu time    0.0182: real time    0.0352
    GENKIN:  cpu time    0.0317: real time    0.0670
    ORTHCH:  cpu time    0.0786: real time    0.1601
     LOOP+:  cpu time    7.8072: real time   11.4306


--------------------------------------- Iteration      8(   1)  ---------------------------------------


    POTLOK:  cpu time    0.1058: real time    0.2200
    SETDIJ:  cpu time    0.0159: real time    0.0345
     EDDAV:  cpu time    2.2674: real time    4.5598
       DOS:  cpu time    0.0024: real time    0.0024
    CHARGE:  cpu time    0.1231: real time    0.2505
    MIXING:  cpu time    0.0080: real time    0.0168
    --------------------------------------------
      LOOP:  cpu time    2.5225: real time    5.0839

 eigenvalue-minimisations  :  1240
 total energy-change (2. order) :-0.2196013E-05  (-0.9269927E-05)
 number of electron      17.9999996 magnetization 
 augmentation part       -3.6076737 magnetization 

 Broyden mixing:
  rms(total) = 0.41081E-03    rms(broyden)= 0.41079E-03
  rms(prec ) = 0.59299E-03
  weight for this iteration     100.00

 Free energy of the ion-electron system (eV)
  ---------------------------------------------------
  alpha Z        PSCENC =         2.21192995
  Ewald energy   TEWEN  =      -665.94895807
  -Hartree energ DENC   =       -46.12397494
  -exchange      EXHF   =         0.00000000
  -V(xc)+E(xc)   XCENC  =       -84.16328365
  PAW double counting   =      1468.10628950    -1352.73009410
  entropy T*S    EENTRO =        -0.00000218
  eigenvalues    EBANDS =        -0.59197197
  atomic energy  EATOM  =       669.81430600
  Solvation  Ediel_sol  =         0.00000000
  ---------------------------------------------------
  free energy    TOTEN  =        -9.42575945 eV

  energy without entropy =       -9.42575727  energy(sigma->0) =       -9.42575836


--------------------------------------------------------------------------------------------------------




--------------------------------------- Iteration      8(   2)  ---------------------------------------


    POTLOK:  cpu time    0.0880: real time    0.1752
    SETDIJ:  cpu time    0.0100: real time    0.0214
     EDDAV:  cpu time    2.2457: real time    3.5347
       DOS:  cpu time    0.0025: real time    0.0024
    --------------------------------------------
      LOOP:  cpu time    2.3462: real time    3.7337

 eigenvalue-minimisations  :   620
 total energy-change (2. order) : 0.3066134E-07  (-0.2183455E-06)
 number of electron      17.9999996 magnetization 
 augmentation part       -3.6076737 magnetization 

 Free energy of the ion-electron system (eV)
  ---------------------------------------------------
  alpha Z        PSCENC =         2.21192995
  Ewald energy   TEWEN  =      -665.94895807
  -Hartree energ DENC   =       -46.12443320
  -exchange      EXHF   =         0.00000000
  -V(xc)+E(xc)   XCENC  =       -84.16330760
  PAW double counting   =      1468.11162926    -1352.73547632
  entropy T*S    EENTRO =        -0.00000220
  eigenvalues    EBANDS =        -0.59144725
  atomic energy  EATOM  =       669.81430600
  Solvation  Ediel_sol  =         0.00000000
  ---------------------------------------------------
  free energy    TOTEN  =        -9.42575942 eV

  energy without entropy =       -9.42575722  energy(sigma->0) =       -9.42575832


--------------------------------------------------------------------------------------------------------




 average (electrostatic) potential at core
  the test charge radii are     1.1897
  (the norm of the test charge is              1.0000)
       1 -89.4251       2 -89.4251       3 -89.4251
 
 
 
 E-fermi :   5.6005     XC(G=0):  -8.9031     alpha+bet :-10.1759


 k-point     1 :       0.0000    0.0000    0.0000
  band No.  band energies     occupation 
      1      -7.8792      2.00000
      2      -4.7108      2.00000
      3      -4.7108      2.00000
      4       2.4909      2.00000
      5       2.7545      2.00000
      6       2.7545      2.00000
      7       3.8713      2.00000
      8       3.8713      2.00000
      9       4.6956      2.00000
     10       6.4810      0.00000
     11       6.4810      0.00000
     12       7.0172      0.00000
     13      10.5372      0.00000
     14      10.5372      0.00000

 k-point     2 :       0.1111    0.0000    0.0000
  band No.  band energies     occupation 
      1      -7.8016      2.00000
      2      -4.7403      2.00000
      3      -4.6940      2.00000
      4       1.9244      2.00000
      5       2.3767      2.00000
      6       2.6140      2.00000
      7       4.1014      2.00000
      8       4.3887      2.00000
      9       4.8472      2.00000
     10       6.2313      0.00000
     11       6.4273      0.00000
     12       6.9211      0.00000
     13      10.2991      0.00000
     14      10.4868      0.00000

 k-point     3 :       0.2222    0.0000    0.0000
  band No.  band energies     occupation 
      1      -7.5803      2.00000
      2      -4.8606      2.00000
      3      -4.6475      2.00000
      4       1.2151      2.00000
      5       1.8620      2.00000
      6       2.2890      2.00000
      7       4.2283      2.00000
      8       4.5129      2.00000
      9       4.6824      2.00000
     10       6.3466      0.00000
     11       6.5048      0.00000
     12       7.0855      0.00000
     13       9.5845      0.00000
     14      10.6776      0.00000

 k-point     4 :       0.3333   -0.0000    0.0000
  band No.  band energies     occupation 
      1      -7.2602      2.00000
      2      -5.1065      2.00000
      3      -4.5889      2.00000
      4       0.8805      2.00000
      5       1.4603      2.00000
      6       2.0193      2.00000
      7       3.2577      2.00000
      8       4.5447      2.00000
      9       4.7080      2.00000
     10       6.3473      0.00000
     11       6.4920      0.00000
     12       8.1290      0.00000
     13       8.9663      0.00000
     14      11.3862      0.00000

 k-point     5 :       0.4444    0.0000    0.0000
  band No.  band energies     occupation 
      1      -6.9706      2.00000
      2      -5.3731      2.00000
      3      -4.5473      2.00000
      4       0.8626      2.00000
      5       1.2743      2.00000
      6       1.9671      2.00000
      7       2.4012      2.00000
      8       4.5060      2.00000
      9       4.7021      2.00000
     10       6.3555      0.00000
     11       6.4279      0.00000
     12       8.6355      0.00000
     13       8.9457      0.00000
     14      12.4278      0.00000

 k-point     6 :       0.1111    0.1111    0.0000
  band No.  band energies     occupation 
      1      -7.6519      2.00000
      2      -4.8010      2.00000
      3      -4.6778      2.00000
      4       1.4476      2.00000
      5       1.7545      2.00000
      6       2.6643      2.00000
      7       3.9538      2.00000
      8       4.7089      2.00000
      9       4.7587      2.00000
     10       6.2257      0.00000
     11       6.5469      0.00000
     12       6.9969      0.00000
     13      10.0637      0.00000
     14      10.1584      0.00000

 k-point     7 :       0.2222    0.1111    0.0000
  band No.  band energies     occupation 
      1      -7.3781      2.00000
      2      -4.9613      2.00000
      3      -4.6591      2.00000
      4       1.0205      2.00000
      5       1.3625      2.00000
      6       2.4072      2.00000
      7       3.7455      2.00000
      8       4.0598      2.00000
      9       4.4842      2.00000
     10       6.6594      0.00000
     11       6.9639      0.00000
     12       7.4994      0.00000
     13       9.4979      0.00000
     14      10.4087      0.00000

 k-point     8 :       0.3333    0.1111    0.0000
  band No.  band energies     occupation 
      1      -7.0574      2.00000
      2      -5.2216      2.00000
      3      -4.6370      2.00000
      4       0.8996      2.00000
      5       1.2314      2.00000
      6       2.1033      2.00000
      7       2.8376      2.00000
      8       4.0205      2.00000
      9       4.2497      2.00000
     10       6.8001      0.00000
     11       7.0235      0.00000
     12       8.5123      0.00000
     13       9.0847      0.00000
     14      11.2628      0.00000

 k-point     9 :       0.4444    0.1111    0.0000
  band No.  band energies     occupation 
      1      -6.8882      2.00000
      2      -5.3777      2.00000
      3      -4.6269      2.00000
      4       0.9319      2.00000
      5       1.2333      2.00000
      6       2.1200      2.00000
      7       2.2442      2.00000
      8       4.0456      2.00000
      9       4.1420      2.00000
     10       6.8178      0.00000
     11       7.0374      0.00000
     12       8.9398      0.00000
     13       8.9756      0.00000
     14      12.1742      0.00000

 k-point    10 :       0.2222    0.2222    0.0000
  band No.  band energies     occupation 
      1      -7.0936      2.00000
      2      -5.0861      2.00000
      3      -4.7524      2.00000
      4       1.0070      2.00000
      5       1.0870      2.00000
      6       2.3937      2.00000
      7       3.2730      2.00000
      8       3.5895      2.00000
      9       3.6447      2.00000
     10       7.4042      0.00000
     11       7.6716      0.00000
     12       7.8520      0.00000
     13       9.8270      0.00000
     14      10.2029      0.00000

 k-point    11 :       0.3333    0.2222    0.0000
  band No.  band energies     occupation 
      1      -6.8499      2.00000
      2      -5.2279      2.00000
      3      -4.8343      2.00000
      4       1.0619      2.00000
      5       1.1730      2.00000
      6       2.2699      2.00000
      7       2.6120      2.00000
      8       3.2851      2.00000
      9       3.3874      2.00000
     10       7.6334      0.00000
     11       7.9129      0.00000
     12       8.5930      0.00000
     13       9.7696      0.00000
     14      11.0298      0.00000

 k-point    12 :       0.3333    0.3333    0.0000
  band No.  band energies     occupation 
      1      -6.7582      2.00000
      2      -5.0804      2.00000
      3      -5.0804      2.00000
      4       1.1950      2.00000
      5       1.1950      2.00000
      6       2.5737      2.00000
      7       2.5737      2.00000
      8       2.6857      2.00000
      9       2.9874      2.00000
     10       8.2397      0.00000
     11       8.2397      0.00000
     12       8.5169      0.00000
     13      10.3430      0.00000
     14      11.3009      0.00000

 k-point    13 :       0.0000    0.0000    0.2500
  band No.  band energies     occupation 
      1      -7.6603      2.00000
      2      -5.9969      2.00000
      3      -3.4247      2.00000
      4       2.1277      2.00000
      5       2.6152      2.00000
      6       3.0154      2.00000
      7       4.0421      2.00000
      8       4.0622      2.00000
      9       4.6598      2.00000
     10       6.1457      0.00000
     11       6.2194      0.00000
     12       6.5128      0.00000
     13      10.0126      0.00000
     14      10.9852      0.00000

 k-point    14 :       0.1111    0.0000    0.2500
  band No.  band energies     occupation 
      1      -7.5863      2.00000
      2      -5.9520      2.00000
      3      -3.5277      2.00000
      4       1.8763      2.00000
      5       2.4638      2.00000
      6       2.8864      2.00000
      7       3.7988      2.00000
      8       4.1890      2.00000
      9       4.3297      2.00000
     10       6.3942      0.00000
     11       6.5338      0.00000
     12       6.8750      0.00000
     13      10.0642      0.00000
     14      10.9864      0.00000

 k-point    15 :       0.2222    0.0000    0.2500
  band No.  band energies     occupation 
      1      -7.3789      2.00000
      2      -5.8234      2.00000
      3      -3.8428      2.00000
      4       1.5478      2.00000
      5       2.0885      2.00000
      6       2.6492      2.00000
      7       3.1997      2.00000
      8       3.7612      2.00000
      9       4.2535      2.00000
     10       6.7987      0.00000
     11       7.2583      0.00000
     12       7.6313      0.00000
     13      10.2986      0.00000
     14      10.7415      0.00000

 k-point    16 :       0.3333   -0.0000    0.2500
  band No.  band energies     occupation 
      1      -7.0866      2.00000
      2      -5.6659      2.00000
      3      -4.2661      2.00000
      4       1.2300      2.00000
      5       1.5814      2.00000
      6       2.3363      2.00000
      7       2.7988      2.00000
      8       3.7569      2.00000
      9       4.1753      2.00000
     10       6.8636      0.00000
     11       7.4389      0.00000
     12       8.4847      0.00000
     13       9.9124      0.00000
     14      11.1881      0.00000

 k-point    17 :       0.4444    0.0000    0.2500
  band No.  band energies     occupation 
      1      -6.8214      2.00000
      2      -5.6406      2.00000
      3      -4.5003      2.00000
      4       0.6915      2.00000
      5       1.3043      2.00000
      6       2.0640      2.00000
      7       3.2232      2.00000
      8       3.7875      2.00000
      9       4.1195      2.00000
     10       6.7693      0.00000
     11       7.4112      0.00000
     12       8.3933      0.00000
     13       9.4778      0.00000
     14      11.6598      0.00000

 k-point    18 :      -0.4444   -0.0000    0.2500
  band No.  band energies     occupation 
      1      -6.7939      2.00000
      2      -5.7567      2.00000
      3      -4.3531      2.00000
      4       0.3857      2.00000
      5       1.2281      2.00000
      6       2.0256      2.00000
      7       3.8595      2.00000
      8       3.9038      2.00000
      9       4.2673      2.00000
     10       6.6327      0.00000
     11       7.2286      0.00000
     12       7.6789      0.00000
     13       9.1888      0.00000
     14      12.1671      0.00000

 k-point    19 :      -0.3333    0.0000    0.2500
  band No.  band energies     occupation 
      1      -7.0571      2.00000
      2      -5.8088      2.00000
      3      -4.0394      2.00000
      4       0.5615      2.00000
      5       1.3259      2.00000
      6       2.1649      2.00000
      7       4.1044      2.00000
      8       4.1301      2.00000
      9       5.0021      2.00000
     10       6.3228      0.00000
     11       6.8665      0.00000
     12       7.0090      0.00000
     13       9.0931      0.00000
     14      12.1239      0.00000

 k-point    20 :      -0.2222   -0.0000    0.2500
  band No.  band energies     occupation 
      1      -7.3687      2.00000
      2      -5.8763      2.00000
      3      -3.7310      2.00000
      4       1.2075      2.00000
      5       1.5984      2.00000
      6       2.4388      2.00000
      7       4.2960      2.00000
      8       4.4078      2.00000
      9       5.0340      2.00000
     10       6.1162      0.00000
     11       6.4834      0.00000
     12       6.7869      0.00000
     13       9.2933      0.00000
     14      11.6314      0.00000

 k-point    21 :      -0.1111   -0.0000    0.2500
  band No.  band energies     occupation 
      1      -7.5850      2.00000
      2      -5.9589      2.00000
      3      -3.5097      2.00000
      4       1.8952      2.00000
      5       2.1811      2.00000
      6       2.7849      2.00000
      7       4.2234      2.00000
      8       4.3373      2.00000
      9       4.6288      2.00000
     10       6.0917      0.00000
     11       6.1437      0.00000
     12       6.9036      0.00000
     13       9.7771      0.00000
     14      11.0716      0.00000

 k-point    22 :       0.1111    0.1111    0.2500
  band No.  band energies     occupation 
      1      -7.4421      2.00000
      2      -5.8817      2.00000
      3      -3.7007      2.00000
      4       1.5520      2.00000
      5       1.8554      2.00000
      6       2.6593      2.00000
      7       3.7030      2.00000
      8       4.2205      2.00000
      9       4.6255      2.00000
     10       6.3866      0.00000
     11       6.8723      0.00000
     12       7.0507      0.00000
     13       9.7799      0.00000
     14      11.0592      0.00000

 k-point    23 :       0.2222    0.1111    0.2500
  band No.  band energies     occupation 
      1      -7.1880      2.00000
      2      -5.7402      2.00000
      3      -4.0761      2.00000
      4       1.2108      2.00000
      5       1.6114      2.00000
      6       2.5179      2.00000
      7       2.8287      2.00000
      8       3.8339      2.00000
      9       4.7589      2.00000
     10       6.5836      0.00000
     11       7.2124      0.00000
     12       8.0901      0.00000
     13      10.1231      0.00000
     14      10.5873      0.00000

 k-point    24 :       0.3333    0.1111    0.2500
  band No.  band energies     occupation 
      1      -6.8974      2.00000
      2      -5.6272      2.00000
      3      -4.4466      2.00000
      4       0.9306      2.00000
      5       1.1880      2.00000
      6       2.2144      2.00000
      7       2.8783      2.00000
      8       3.5364      2.00000
      9       4.7947      2.00000
     10       6.5047      0.00000
     11       7.5572      0.00000
     12       8.5088      0.00000
     13       9.7829      0.00000
     14      11.2393      0.00000

 k-point    25 :       0.4444    0.1111    0.2500
  band No.  band energies     occupation 
      1      -6.7313      2.00000
      2      -5.6824      2.00000
      3      -4.5062      2.00000
      4       0.5241      2.00000
      5       1.0833      2.00000
      6       2.0993      2.00000
      7       3.0845      2.00000
      8       3.7381      2.00000
      9       4.8077      2.00000
     10       6.4078      0.00000
     11       7.6408      0.00000
     12       8.0505      0.00000
     13       9.5224      0.00000
     14      11.9698      0.00000

 k-point    26 :      -0.4444    0.1111    0.2500
  band No.  band energies     occupation 
      1      -6.8696      2.00000
      2      -5.7540      2.00000
      3      -4.2757      2.00000
      4       0.4438      2.00000
      5       1.2256      2.00000
      6       2.1199      2.00000
      7       3.1290      2.00000
      8       4.4495      2.00000
      9       4.8836      2.00000
     10       6.2858      0.00000
     11       7.1542      0.00000
     12       7.6478      0.00000
     13       9.4046      0.00000
     14      11.8375      0.00000

 k-point    27 :      -0.3333    0.1111    0.2500
  band No.  band energies     occupation 
      1      -7.1760      2.00000
      2      -5.8004      2.00000
      3      -3.9705      2.00000
      4       0.8547      2.00000
      5       1.4722      2.00000
      6       2.3208      2.00000
      7       3.3326      2.00000
      8       4.5640      2.00000
      9       5.2056      2.00000
     10       6.0913      0.00000
     11       6.7304      0.00000
     12       7.4288      0.00000
     13       9.4530      0.00000
     14      11.2536      0.00000

 k-point    28 :       0.2222    0.2222    0.2500
  band No.  band energies     occupation 
      1      -6.9150      2.00000
      2      -5.6864      2.00000
      3      -4.3326      2.00000
      4       0.6775      2.00000
      5       1.3127      2.00000
      6       2.1258      2.00000
      7       2.7137      2.00000
      8       4.1754      2.00000
      9       5.0828      2.00000
     10       6.4105      0.00000
     11       7.1385      0.00000
     12       8.2265      0.00000
     13      10.0579      0.00000
     14      10.6483      0.00000

 k-point    29 :       0.3333    0.2222    0.2500
  band No.  band energies     occupation 
      1      -6.6941      2.00000
      2      -5.6281      2.00000
      3      -4.5903      2.00000
      4       0.6570      2.00000
      5       0.9613      2.00000
      6       1.8144      2.00000
      7       2.9530      2.00000
      8       3.8285      2.00000
      9       4.8815      2.00000
     10       6.6372      0.00000
     11       7.6878      0.00000
     12       8.2438      0.00000
     13      10.1173      0.00000
     14      11.1467      0.00000

 k-point    30 :       0.4444    0.2222    0.2500
  band No.  band energies     occupation 
      1      -6.6860      2.00000
      2      -5.6631      2.00000
      3      -4.5499      2.00000
      4       0.5199      2.00000
      5       1.0328      2.00000
      6       1.8263      2.00000
      7       2.8949      2.00000
      8       4.1427      2.00000
      9       4.7400      2.00000
     10       6.7536      0.00000
     11       7.4794      0.00000
     12       8.1119      0.00000
     13      10.0309      0.00000
     14      11.3733      0.00000

 k-point    31 :       0.3333    0.3333    0.2500
  band No.  band energies     occupation 
      1      -6.6034      2.00000
      2      -5.6223      2.00000
      3      -4.6674      2.00000
      4       0.6106      2.00000
      5       0.9369      2.00000
      6       1.4994      2.00000
      7       3.1232      2.00000
      8       4.0409      2.00000
      9       4.4681      2.00000
     10       7.2330      0.00000
     11       7.7742      0.00000
     12       7.8572      0.00000
     13      10.8115      0.00000
     14      11.0720      0.00000

 k-point    32 :       0.0000    0.0000    0.5000
  band No.  band energies     occupation 
      1      -7.0171      2.00000
      2      -7.0171      2.00000
      3      -2.7903      2.00000
      4       1.7194      2.00000
      5       2.8794      2.00000
      6       2.8794      2.00000
      7       4.2240      2.00000
      8       4.4609      2.00000
      9       4.4609      2.00000
     10       5.9537      0.00000
     11       5.9537      0.00000
     12       5.9906      0.00000
     13       9.6715      0.00000
     14      10.7802      0.00000

 k-point    33 :       0.1111    0.0000    0.5000
  band No.  band energies     occupation 
      1      -6.9605      2.00000
      2      -6.9446      2.00000
      3      -2.9556      2.00000
      4       1.6661      2.00000
      5       2.7118      2.00000
      6       2.7947      2.00000
      7       3.7699      2.00000
      8       4.0939      2.00000
      9       4.3189      2.00000
     10       6.1954      0.00000
     11       6.3561      0.00000
     12       6.7680      0.00000
     13       9.8794      0.00000
     14      10.5121      0.00000

 k-point    34 :       0.2222    0.0000    0.5000
  band No.  band energies     occupation 
      1      -6.8088      2.00000
      2      -6.7368      2.00000
      3      -3.3830      2.00000
      4       1.3172      2.00000
      5       2.1958      2.00000
      6       2.5187      2.00000
      7       3.5806      2.00000
      8       3.7448      2.00000
      9       4.1571      2.00000
     10       6.6499      0.00000
     11       7.0552      0.00000
     12       7.5578      0.00000
     13      10.0535      0.00000
     14      10.7164      0.00000

 k-point    35 :       0.3333   -0.0000    0.5000
  band No.  band energies     occupation 
      1      -6.6185      2.00000
      2      -6.4337      2.00000
      3      -3.9146      2.00000
      4       0.6142      2.00000
      5       1.9583      2.00000
      6       2.2255      2.00000
      7       3.3372      2.00000
      8       3.6227      2.00000
      9       4.5149      2.00000
     10       6.9304      0.00000
     11       7.4473      0.00000
     12       7.6494      0.00000
     13      10.0726      0.00000
     14      11.0669      0.00000

 k-point    36 :       0.4444    0.0000    0.5000
  band No.  band energies     occupation 
      1      -6.4814      2.00000
      2      -6.1568      2.00000
      3      -4.3307      2.00000
      4       0.1333      2.00000
      5       1.9183      2.00000
      6       2.0147      2.00000
      7       3.1818      2.00000
      8       3.5228      2.00000
      9       5.1694      2.00000
     10       6.4841      0.00000
     11       7.3995      0.00000
     12       7.9249      0.00000
     13      10.1303      0.00000
     14      10.8928      0.00000

 k-point    37 :       0.1111    0.1111    0.5000
  band No.  band energies     occupation 
      1      -6.8526      2.00000
      2      -6.8079      2.00000
      3      -3.2494      2.00000
      4       1.4883      2.00000
      5       2.3798      2.00000
      6       2.4415      2.00000
      7       3.5622      2.00000
      8       3.7175      2.00000
      9       4.5529      2.00000
     10       6.1067      0.00000
     11       7.2102      0.00000
     12       7.3384      0.00000
     13      10.2599      0.00000
     14      10.2802      0.00000

 k-point    38 :       0.2222    0.1111    0.5000
  band No.  band energies     occupation 
      1      -6.6706      2.00000
      2      -6.5595      2.00000
      3      -3.7196      2.00000
      4       0.9818      2.00000
      5       1.8264      2.00000
      6       2.0099      2.00000
      7       3.5705      2.00000
      8       3.9315      2.00000
      9       4.5536      2.00000
     10       6.4457      0.00000
     11       7.5187      0.00000
     12       7.6677      0.00000
     13      10.1307      0.00000
     14      10.9170      0.00000

 k-point    39 :       0.3333    0.1111    0.5000
  band No.  band energies     occupation 
      1      -6.4931      2.00000
      2      -6.2662      2.00000
      3      -4.1913      2.00000
      4       0.3778      2.00000
      5       1.5668      2.00000
      6       1.7078      2.00000
      7       3.6484      2.00000
      8       4.0077      2.00000
      9       4.8863      2.00000
     10       6.6865      0.00000
     11       7.2135      0.00000
     12       7.7298      0.00000
     13      10.1840      0.00000
     14      11.1448      0.00000

 k-point    40 :       0.4444    0.1111    0.5000
  band No.  band energies     occupation 
      1      -6.4175      2.00000
      2      -6.1108      2.00000
      3      -4.4136      2.00000
      4       0.1324      2.00000
      5       1.5130      2.00000
      6       1.5782      2.00000
      7       3.7532      2.00000
      8       3.8699      2.00000
      9       5.3735      2.00000
     10       6.2969      0.00000
     11       7.2454      0.00000
     12       7.7287      0.00000
     13      10.2766      0.00000
     14      10.9408      0.00000

 k-point    41 :       0.2222    0.2222    0.5000
  band No.  band energies     occupation 
      1      -6.4758      2.00000
      2      -6.3351      2.00000
      3      -4.1209      2.00000
      4       0.6709      2.00000
      5       1.1695      2.00000
      6       1.4786      2.00000
      7       4.0150      2.00000
      8       4.3344      2.00000
      9       4.9631      2.00000
     10       6.3160      0.00000
     11       7.3936      0.00000
     12       7.4755      0.00000
     13      10.3826      0.00000
     14      11.2386      0.00000

 k-point    42 :       0.3333    0.2222    0.5000
  band No.  band energies     occupation 
      1      -6.3250      2.00000
      2      -6.1553      2.00000
      3      -4.4163      2.00000
      4       0.3706      2.00000
      5       0.9427      2.00000
      6       1.1071      2.00000
      7       4.3345      2.00000
      8       4.7018      2.00000
      9       5.2917      2.00000
     10       6.2603      0.00000
     11       6.9558      0.00000
     12       7.2451      0.00000
     13      10.7262      0.00000
     14      11.4455      0.00000

 k-point    43 :       0.3333    0.3333    0.5000
  band No.  band energies     occupation 
      1      -6.1827      2.00000
      2      -6.1827      2.00000
      3      -4.4993      2.00000
      4       0.5364      2.00000
      5       0.7061      2.00000
      6       0.7061      2.00000
      7       4.6053      2.00000
      8       5.4808      1.99929
      9       5.4808      1.99929
     10       5.7133      0.00142
     11       6.8490      0.00000
     12       6.8490      0.00000
     13      11.3737      0.00000
     14      12.0124      0.00000


--------------------------------------------------------------------------------------------------------


 soft charge-density along one line, spin component           1
         0         1         2         3         4         5         6         7         8         9
 total charge-density along one line
 
 pseudopotential strength for first ion, spin component:           1
 51.813  56.374  -0.000  -0.000  -0.050  -0.000  -0.000  -0.073
 56.374  61.340  -0.000  -0.000  -0.055  -0.000  -0.000  -0.080
 -0.000  -0.000  12.749   0.010   0.000  18.377   0.014   0.000
 -0.000  -0.000   0.010  12.765   0.000   0.014  18.400   0.000
 -0.050  -0.055   0.000   0.000  12.765   0.000   0.000  18.401
 -0.000  -0.000  18.377   0.014   0.000  26.500   0.021   0.000
 -0.000  -0.000   0.014  18.400   0.000   0.021  26.533   0.000
 -0.073  -0.080   0.000   0.000  18.401   0.000   0.000  26.533
  0.000   0.000  -0.010   0.000  -0.000  -0.014   0.001  -0.000
  0.016   0.017   0.000  -0.000   0.000   0.000  -0.000   0.001
  0.007   0.008   0.000  -0.000   0.006   0.000  -0.000   0.009
  0.000   0.000   0.000  -0.009  -0.000   0.001  -0.013  -0.000
  0.013   0.014   0.000  -0.000  -0.010   0.000  -0.000  -0.014
 total augmentation occupancy for first ion, spin component:           1
 12.800  -9.279   0.000   0.000   2.211   0.000   0.000  -0.579   0.000  -0.163  -0.091   0.000  -0.117
 -9.279   7.974   0.000   0.000  -1.854   0.000   0.000   0.494   0.000   0.148   0.082   0.000   0.105
  0.000   0.000   2.490   0.224   0.000  -0.462  -0.198   0.000  -0.056   0.000   0.000  -0.050   0.000
  0.000   0.000   0.224   2.838   0.000  -0.197  -0.771  -0.000  -0.049   0.000  -0.000  -0.123   0.000
  2.211  -1.854   0.000   0.000   2.734   0.000  -0.000  -0.716   0.000  -0.055  -0.015   0.000  -0.055
  0.000   0.000  -0.462  -0.197   0.000   0.164   0.074   0.000   0.013   0.000   0.000   0.018   0.000
  0.000   0.000  -0.198  -0.771  -0.000   0.074   0.276   0.000   0.018   0.000   0.000   0.037   0.000
 -0.579   0.494   0.000  -0.000  -0.716   0.000   0.000   0.248   0.000   0.016   0.003   0.000   0.014
  0.000   0.000  -0.056  -0.049   0.000   0.013   0.018   0.000   0.009   0.000  -0.000   0.010   0.000
 -0.163   0.148   0.000  -0.000  -0.055   0.000   0.000   0.016   0.000   0.013   0.004   0.000   0.003
 -0.091   0.082   0.000  -0.000  -0.015   0.000   0.000   0.003  -0.000   0.004   0.007   0.000  -0.001
  0.000   0.000  -0.050  -0.123   0.000   0.018   0.037   0.000   0.010   0.000   0.000   0.025   0.000
 -0.117   0.105   0.000   0.000  -0.055   0.000   0.000   0.014   0.000   0.003  -0.001   0.000   0.009


------------------------ aborting loop because EDIFF is reached ----------------------------------------


    CHARGE:  cpu time    0.1274: real time    0.2632
    FORLOC:  cpu time    0.0056: real time    0.0186
    FORNL :  cpu time    0.4996: real time    0.7136
    STRESS:  cpu time    1.6467: real time    1.6764
    FORCOR:  cpu time    0.1013: real time    0.1950
    FORHAR:  cpu time    0.0183: real time    0.0370
    MIXING:  cpu time    0.0030: real time    0.0031
    OFIELD:  cpu time    0.0000: real time    0.0000

  FORCE on cell =-STRESS in cart. coord.  units (eV):
  Direction    XX          YY          ZZ          XY          YZ          ZX
  --------------------------------------------------------------------------------------
  Alpha Z     2.21193     2.21193     2.21193
  Ewald    -234.66011  -234.66011  -196.62947    -0.00000    -0.00001     0.00000
  Hartree    12.00157    12.00157    22.12226     0.00000     0.00000    -0.00000
  E(xc)     -70.21532   -70.21532   -69.76274    -0.00000     0.00000    -0.00000
  Local    -115.22168  -115.22173  -154.51312    -0.00004     0.00000    -0.00000
  n-local   331.49592   332.35936   327.85964    -1.12511    -0.70380    -1.18670
  augment   -81.02960   -81.02955   -78.88963     0.00004    -0.00000     0.00000
  Kinetic   151.77988   158.13288   147.64241    -7.11878     0.19815     1.59109
  Fock        0.00000     0.00000     0.00000     0.00000     0.00000     0.00000
  -------------------------------------------------------------------------------------
  Total      -0.02918    -0.02918     0.04127     0.00000     0.00000    -0.00000
  in kB      -0.44240    -0.44240     0.62572     0.00000     0.00000    -0.00000
  external pressure =       -0.09 kB  Pullay stress =        0.00 kB


 VOLUME and BASIS-vectors are now :
 -----------------------------------------------------------------------------
  energy-cutoff  :      520.00
  volume of cell :      105.68
      direct lattice vectors                 reciprocal lattice vectors
     4.531873098 -0.000000000  0.000000000     0.220659312  0.127397713  0.000000000
    -2.265936549  3.924717229 -0.000000000    -0.000000000  0.254795426  0.000000000
     0.000000000 -0.000000000  5.941539978    -0.000000000  0.000000000  0.168306534

  length of vectors
     4.531873098  4.531873098  5.941539978     0.254795426  0.254795426  0.168306534


 FORCES acting on ions
    electron-ion (+dipol)            ewald-force                    non-local-force                 convergence-correction
 -----------------------------------------------------------------------------------------------
   -.125E+02 0.121E-04 -.114E-05   0.177E+02 0.156E-05 0.169E-05   -.520E+01 0.278E-16 -.555E-16   -.999E-03 -.364E-08 0.108E-09
   0.625E+01 -.108E+02 -.183E-04   -.886E+01 0.153E+02 -.808E-05   0.260E+01 -.451E+01 0.000E+00   0.499E-03 -.865E-03 -.908E-10
   0.625E+01 0.108E+02 0.191E-04   -.886E+01 -.153E+02 0.639E-05   0.260E+01 0.451E+01 0.000E+00   0.499E-03 0.865E-03 -.210E-10
 -----------------------------------------------------------------------------------------------
   0.260E-04 -.752E-05 -.304E-06   0.000E+00 0.178E-14 -.173E-17   0.000E+00 -.888E-15 -.555E-16   -.785E-09 -.101E-08 -.405E-11
 
 
 POSITION                                       TOTAL-FORCE (eV/Angst)
 -----------------------------------------------------------------------------------
      1.21287     -0.00000      1.98051         0.014405      0.000000      0.000000
     -0.60643      1.05038      3.96103        -0.007202      0.012475     -0.000000
      1.65950      2.87434     -0.00000        -0.007202     -0.012475      0.000000
 -----------------------------------------------------------------------------------
    total drift:                                0.000026     -0.000008     -0.000000


--------------------------------------------------------------------------------------------------------



  FREE ENERGIE OF THE ION-ELECTRON SYSTEM (eV)
  ---------------------------------------------------
  free  energy   TOTEN  =        -9.42575942 eV

  energy  without entropy=       -9.42575722  energy(sigma->0) =       -9.42575832
 
 d Force =-0.8306742E-05[-0.821E-05,-0.840E-05]  d Energy = 0.1925670E-05-0.102E-04
 d Force =-0.1009223E-01[-0.101E-01,-0.101E-01]  d Ewald  =-0.1539790E-01 0.531E-02


--------------------------------------------------------------------------------------------------------


    POTLOK:  cpu time    0.1444: real time    0.2929


--------------------------------------------------------------------------------------------------------




--------------------------------------------------------------------------------------------------------


    WAVPRE:  cpu time    0.0184: real time    0.0217
    FEWALD:  cpu time    0.0003: real time    0.0133
    GENKIN:  cpu time    0.0310: real time    0.0524
    ORTHCH:  cpu time    0.1352: real time    0.2790
     LOOP+:  cpu time    7.6426: real time   12.4563


--------------------------------------- Iteration      9(   1)  ---------------------------------------


    POTLOK:  cpu time    0.1680: real time    0.3384
    SETDIJ:  cpu time    0.0358: real time    0.0698
     EDDAV:  cpu time    2.6542: real time    4.3558
       DOS:  cpu time    0.0024: real time    0.0024
    CHARGE:  cpu time    0.1209: real time    0.2445
    MIXING:  cpu time    0.0029: real time    0.0029
    --------------------------------------------
      LOOP:  cpu time    2.9841: real time    5.0139

 eigenvalue-minimisations  :  1300
 total energy-change (2. order) :-0.1143899E-05  (-0.5111158E-05)
 number of electron      17.9999996 magnetization 
 augmentation part       -3.6076982 magnetization 

 Broyden mixing:
  rms(total) = 0.44778E-03    rms(broyden)= 0.44777E-03
  rms(prec ) = 0.75884E-03
  weight for this iteration     100.00

 Free energy of the ion-electron system (eV)
  ---------------------------------------------------
  alpha Z        PSCENC =         2.21184504
  Ewald energy   TEWEN  =      -665.93709728
  -Hartree energ DENC   =       -46.12848271
  -exchange      EXHF   =         0.00000000
  -V(xc)+E(xc)   XCENC  =       -84.16320306
  PAW double counting   =      1468.13851711    -1352.76239532
  entropy T*S    EENTRO =        -0.00000228
  eigenvalues    EBANDS =        -0.59924810
  atomic energy  EATOM  =       669.81430600
  Solvation  Ediel_sol  =         0.00000000
  ---------------------------------------------------
  free energy    TOTEN  =        -9.42576060 eV

  energy without entropy =       -9.42575832  energy(sigma->0) =       -9.42575946


--------------------------------------------------------------------------------------------------------




--------------------------------------- Iteration      9(   2)  ---------------------------------------


    POTLOK:  cpu time    0.0843: real time    0.1712
    SETDIJ:  cpu time    0.0151: real time    0.0321
     EDDAV:  cpu time    1.9504: real time    2.9107
       DOS:  cpu time    0.0024: real time    0.0024
    --------------------------------------------
      LOOP:  cpu time    2.0522: real time    3.1165

 eigenvalue-minimisations  :   602
 total energy-change (2. order) : 0.1647852E-06  (-0.1942483E-06)
 number of electron      17.9999996 magnetization 
 augmentation part       -3.6076982 magnetization 

 Free energy of the ion-electron system (eV)
  ---------------------------------------------------
  alpha Z        PSCENC =         2.21184504
  Ewald energy   TEWEN  =      -665.93709728
  -Hartree energ DENC   =       -46.12884803
  -exchange      EXHF   =         0.00000000
  -V(xc)+E(xc)   XCENC  =       -84.16332051
  PAW double counting   =      1468.13629870    -1352.76019872
  entropy T*S    EENTRO =        -0.00000229
  eigenvalues    EBANDS =        -0.59874334
  atomic energy  EATOM  =       669.81430600
  Solvation  Ediel_sol  =         0.00000000
  ---------------------------------------------------
  free energy    TOTEN  =        -9.42576043 eV

  energy without entropy =       -9.42575814  energy(sigma->0) =       -9.42575929


--------------------------------------------------------------------------------------------------------




 average (electrostatic) potential at core
  the test charge radii are     1.1897
  (the norm of the test charge is              1.0000)
       1 -89.4256       2 -89.4256       3 -89.4256
 
 
 
 E-fermi :   5.5993     XC(G=0):  -8.9029     alpha+bet :-10.1755


 k-point     1 :       0.0000    0.0000    0.0000
  band No.  band energies     occupation 
      1      -7.8796      2.00000
      2      -4.7116      2.00000
      3      -4.7116      2.00000
      4       2.4911      2.00000
      5       2.7542      2.00000
      6       2.7542      2.00000
      7       3.8715      2.00000
      8       3.8715      2.00000
      9       4.6960      2.00000
     10       6.4803      0.00000
     11       6.4803      0.00000
     12       7.0176      0.00000
     13      10.5364      0.00000
     14      10.5364      0.00000

 k-point     2 :       0.1111    0.0000    0.0000
  band No.  band energies     occupation 
      1      -7.8020      2.00000
      2      -4.7411      2.00000
      3      -4.6947      2.00000
      4       1.9243      2.00000
      5       2.3765      2.00000
      6       2.6141      2.00000
      7       4.1013      2.00000
      8       4.3887      2.00000
      9       4.8471      2.00000
     10       6.2308      0.00000
     11       6.4267      0.00000
     12       6.9215      0.00000
     13      10.2987      0.00000
     14      10.4863      0.00000

 k-point     3 :       0.2222    0.0000    0.0000
  band No.  band energies     occupation 
      1      -7.5807      2.00000
      2      -4.8611      2.00000
      3      -4.6482      2.00000
      4       1.2148      2.00000
      5       1.8616      2.00000
      6       2.2893      2.00000
      7       4.2276      2.00000
      8       4.5124      2.00000
      9       4.6822      2.00000
     10       6.3462      0.00000
     11       6.5045      0.00000
     12       7.0858      0.00000
     13       9.5845      0.00000
     14      10.6775      0.00000

 k-point     4 :       0.3333   -0.0000    0.0000
  band No.  band energies     occupation 
      1      -7.2606      2.00000
      2      -5.1069      2.00000
      3      -4.5894      2.00000
      4       0.8799      2.00000
      5       1.4598      2.00000
      6       2.0196      2.00000
      7       3.2570      2.00000
      8       4.5439      2.00000
      9       4.7075      2.00000
     10       6.3470      0.00000
     11       6.4920      0.00000
     12       8.1286      0.00000
     13       8.9664      0.00000
     14      11.3865      0.00000

 k-point     5 :       0.4444    0.0000    0.0000
  band No.  band energies     occupation 
      1      -6.9711      2.00000
      2      -5.3733      2.00000
      3      -4.5478      2.00000
      4       0.8617      2.00000
      5       1.2738      2.00000
      6       1.9672      2.00000
      7       2.4007      2.00000
      8       4.5051      2.00000
      9       4.7015      2.00000
     10       6.3552      0.00000
     11       6.4280      0.00000
     12       8.6357      0.00000
     13       8.9448      0.00000
     14      12.4280      0.00000

 k-point     6 :       0.1111    0.1111    0.0000
  band No.  band energies     occupation 
      1      -7.6523      2.00000
      2      -4.8016      2.00000
      3      -4.6785      2.00000
      4       1.4474      2.00000
      5       1.7544      2.00000
      6       2.6643      2.00000
      7       3.9538      2.00000
      8       4.7082      2.00000
      9       4.7582      2.00000
     10       6.2255      0.00000
     11       6.5466      0.00000
     12       6.9971      0.00000
     13      10.0635      0.00000
     14      10.1583      0.00000

 k-point     7 :       0.2222    0.1111    0.0000
  band No.  band energies     occupation 
      1      -7.3786      2.00000
      2      -4.9618      2.00000
      3      -4.6596      2.00000
      4       1.0201      2.00000
      5       1.3622      2.00000
      6       2.4072      2.00000
      7       3.7450      2.00000
      8       4.0595      2.00000
      9       4.4835      2.00000
     10       6.6592      0.00000
     11       6.9635      0.00000
     12       7.4994      0.00000
     13       9.4980      0.00000
     14      10.4088      0.00000

 k-point     8 :       0.3333    0.1111    0.0000
  band No.  band energies     occupation 
      1      -7.0579      2.00000
      2      -5.2219      2.00000
      3      -4.6375      2.00000
      4       0.8989      2.00000
      5       1.2309      2.00000
      6       2.1033      2.00000
      7       2.8370      2.00000
      8       4.0200      2.00000
      9       4.2491      2.00000
     10       6.7997      0.00000
     11       7.0233      0.00000
     12       8.5117      0.00000
     13       9.0849      0.00000
     14      11.2632      0.00000

 k-point     9 :       0.4444    0.1111    0.0000
  band No.  band energies     occupation 
      1      -6.8888      2.00000
      2      -5.3778      2.00000
      3      -4.6274      2.00000
      4       0.9310      2.00000
      5       1.2328      2.00000
      6       2.1202      2.00000
      7       2.2437      2.00000
      8       4.0449      2.00000
      9       4.1415      2.00000
     10       6.8173      0.00000
     11       7.0372      0.00000
     12       8.9399      0.00000
     13       8.9747      0.00000
     14      12.1746      0.00000

 k-point    10 :       0.2222    0.2222    0.0000
  band No.  band energies     occupation 
      1      -7.0941      2.00000
      2      -5.0865      2.00000
      3      -4.7528      2.00000
      4       1.0064      2.00000
      5       1.0866      2.00000
      6       2.3934      2.00000
      7       3.2725      2.00000
      8       3.5889      2.00000
      9       3.6444      2.00000
     10       7.4037      0.00000
     11       7.6711      0.00000
     12       7.8519      0.00000
     13       9.8272      0.00000
     14      10.2033      0.00000

 k-point    11 :       0.3333    0.2222    0.0000
  band No.  band energies     occupation 
      1      -6.8505      2.00000
      2      -5.2281      2.00000
      3      -4.8346      2.00000
      4       1.0611      2.00000
      5       1.1724      2.00000
      6       2.2697      2.00000
      7       2.6115      2.00000
      8       3.2847      2.00000
      9       3.3870      2.00000
     10       7.6328      0.00000
     11       7.9125      0.00000
     12       8.5923      0.00000
     13       9.7698      0.00000
     14      11.0303      0.00000

 k-point    12 :       0.3333    0.3333    0.0000
  band No.  band energies     occupation 
      1      -6.7588      2.00000
      2      -5.0806      2.00000
      3      -5.0806      2.00000
      4       1.1942      2.00000
      5       1.1942      2.00000
      6       2.5732      2.00000
      7       2.5732      2.00000
      8       2.6855      2.00000
      9       2.9871      2.00000
     10       8.2391      0.00000
     11       8.2391      0.00000
     12       8.5166      0.00000
     13      10.3432      0.00000
     14      11.3014      0.00000

 k-point    13 :       0.0000    0.0000    0.2500
  band No.  band energies     occupation 
      1      -7.6608      2.00000
      2      -5.9976      2.00000
      3      -3.4254      2.00000
      4       2.1266      2.00000
      5       2.6154      2.00000
      6       3.0155      2.00000
      7       4.0422      2.00000
      8       4.0621      2.00000
      9       4.6601      2.00000
     10       6.1456      0.00000
     11       6.2190      0.00000
     12       6.5134      0.00000
     13      10.0118      0.00000
     14      10.9855      0.00000

 k-point    14 :       0.1111    0.0000    0.2500
  band No.  band energies     occupation 
      1      -7.5867      2.00000
      2      -5.9527      2.00000
      3      -3.5283      2.00000
      4       1.8755      2.00000
      5       2.4638      2.00000
      6       2.8864      2.00000
      7       3.7988      2.00000
      8       4.1887      2.00000
      9       4.3299      2.00000
     10       6.3944      0.00000
     11       6.5332      0.00000
     12       6.8753      0.00000
     13      10.0638      0.00000
     14      10.9865      0.00000

 k-point    15 :       0.2222    0.0000    0.2500
  band No.  band energies     occupation 
      1      -7.3794      2.00000
      2      -5.8240      2.00000
      3      -3.8432      2.00000
      4       1.5469      2.00000
      5       2.0883      2.00000
      6       2.6491      2.00000
      7       3.1994      2.00000
      8       3.7610      2.00000
      9       4.2537      2.00000
     10       6.7977      0.00000
     11       7.2582      0.00000
     12       7.6314      0.00000
     13      10.2984      0.00000
     14      10.7411      0.00000

 k-point    16 :       0.3333   -0.0000    0.2500
  band No.  band energies     occupation 
      1      -7.0871      2.00000
      2      -5.6665      2.00000
      3      -4.2662      2.00000
      4       1.2293      2.00000
      5       1.5809      2.00000
      6       2.3365      2.00000
      7       2.7983      2.00000
      8       3.7566      2.00000
      9       4.1753      2.00000
     10       6.8626      0.00000
     11       7.4386      0.00000
     12       8.4840      0.00000
     13       9.9120      0.00000
     14      11.1877      0.00000

 k-point    17 :       0.4444    0.0000    0.2500
  band No.  band energies     occupation 
      1      -6.8219      2.00000
      2      -5.6411      2.00000
      3      -4.5004      2.00000
      4       0.6911      2.00000
      5       1.3035      2.00000
      6       2.0642      2.00000
      7       3.2224      2.00000
      8       3.7872      2.00000
      9       4.1192      2.00000
     10       6.7684      0.00000
     11       7.4108      0.00000
     12       8.3921      0.00000
     13       9.4776      0.00000
     14      11.6582      0.00000

 k-point    18 :      -0.4444   -0.0000    0.2500
  band No.  band energies     occupation 
      1      -6.7945      2.00000
      2      -5.7571      2.00000
      3      -4.3533      2.00000
      4       0.3854      2.00000
      5       1.2272      2.00000
      6       2.0259      2.00000
      7       3.8587      2.00000
      8       3.9034      2.00000
      9       4.2667      2.00000
     10       6.6321      0.00000
     11       7.2282      0.00000
     12       7.6779      0.00000
     13       9.1887      0.00000
     14      12.1652      0.00000

 k-point    19 :      -0.3333    0.0000    0.2500
  band No.  band energies     occupation 
      1      -7.0576      2.00000
      2      -5.8093      2.00000
      3      -4.0397      2.00000
      4       0.5614      2.00000
      5       1.3250      2.00000
      6       2.1652      2.00000
      7       4.1039      2.00000
      8       4.1297      2.00000
      9       5.0010      2.00000
     10       6.3221      0.00000
     11       6.8664      0.00000
     12       7.0089      0.00000
     13       9.0932      0.00000
     14      12.1229      0.00000

 k-point    20 :      -0.2222   -0.0000    0.2500
  band No.  band energies     occupation 
      1      -7.3691      2.00000
      2      -5.8769      2.00000
      3      -3.7315      2.00000
      4       1.2074      2.00000
      5       1.5976      2.00000
      6       2.4391      2.00000
      7       4.2954      2.00000
      8       4.4075      2.00000
      9       5.0334      2.00000
     10       6.1158      0.00000
     11       6.4837      0.00000
     12       6.7869      0.00000
     13       9.2935      0.00000
     14      11.6304      0.00000

 k-point    21 :      -0.1111   -0.0000    0.2500
  band No.  band energies     occupation 
      1      -7.5854      2.00000
      2      -5.9596      2.00000
      3      -3.5103      2.00000
      4       1.8943      2.00000
      5       2.1812      2.00000
      6       2.7851      2.00000
      7       4.2233      2.00000
      8       4.3369      2.00000
      9       4.6287      2.00000
     10       6.0920      0.00000
     11       6.1438      0.00000
     12       6.9035      0.00000
     13       9.7769      0.00000
     14      11.0711      0.00000

 k-point    22 :       0.1111    0.1111    0.2500
  band No.  band energies     occupation 
      1      -7.4425      2.00000
      2      -5.8823      2.00000
      3      -3.7012      2.00000
      4       1.5515      2.00000
      5       1.8551      2.00000
      6       2.6594      2.00000
      7       3.7026      2.00000
      8       4.2205      2.00000
      9       4.6253      2.00000
     10       6.3861      0.00000
     11       6.8721      0.00000
     12       7.0509      0.00000
     13       9.7800      0.00000
     14      11.0585      0.00000

 k-point    23 :       0.2222    0.1111    0.2500
  band No.  band energies     occupation 
      1      -7.1885      2.00000
      2      -5.7409      2.00000
      3      -4.0764      2.00000
      4       1.2104      2.00000
      5       1.6108      2.00000
      6       2.5178      2.00000
      7       2.8284      2.00000
      8       3.8339      2.00000
      9       4.7584      2.00000
     10       6.5826      0.00000
     11       7.2124      0.00000
     12       8.0898      0.00000
     13      10.1230      0.00000
     14      10.5872      0.00000

 k-point    24 :       0.3333    0.1111    0.2500
  band No.  band energies     occupation 
      1      -6.8979      2.00000
      2      -5.6278      2.00000
      3      -4.4467      2.00000
      4       0.9301      2.00000
      5       1.1876      2.00000
      6       2.2141      2.00000
      7       2.8776      2.00000
      8       3.5363      2.00000
      9       4.7941      2.00000
     10       6.5039      0.00000
     11       7.5568      0.00000
     12       8.5078      0.00000
     13       9.7827      0.00000
     14      11.2391      0.00000

 k-point    25 :       0.4444    0.1111    0.2500
  band No.  band energies     occupation 
      1      -6.7319      2.00000
      2      -5.6828      2.00000
      3      -4.5063      2.00000
      4       0.5238      2.00000
      5       1.0827      2.00000
      6       2.0992      2.00000
      7       3.0840      2.00000
      8       3.7374      2.00000
      9       4.8070      2.00000
     10       6.4074      0.00000
     11       7.6401      0.00000
     12       8.0495      0.00000
     13       9.5223      0.00000
     14      11.9686      0.00000

 k-point    26 :      -0.4444    0.1111    0.2500
  band No.  band energies     occupation 
      1      -6.8701      2.00000
      2      -5.7544      2.00000
      3      -4.2760      2.00000
      4       0.4437      2.00000
      5       1.2249      2.00000
      6       2.1199      2.00000
      7       3.1287      2.00000
      8       4.4485      2.00000
      9       4.8829      2.00000
     10       6.2855      0.00000
     11       7.1536      0.00000
     12       7.6474      0.00000
     13       9.4047      0.00000
     14      11.8372      0.00000

 k-point    27 :      -0.3333    0.1111    0.2500
  band No.  band energies     occupation 
      1      -7.1765      2.00000
      2      -5.8009      2.00000
      3      -3.9708      2.00000
      4       0.8546      2.00000
      5       1.4714      2.00000
      6       2.3210      2.00000
      7       3.3322      2.00000
      8       4.5636      2.00000
      9       5.2047      2.00000
     10       6.0906      0.00000
     11       6.7305      0.00000
     12       7.4287      0.00000
     13       9.4532      0.00000
     14      11.2532      0.00000

 k-point    28 :       0.2222    0.2222    0.2500
  band No.  band energies     occupation 
      1      -6.9155      2.00000
      2      -5.6869      2.00000
      3      -4.3328      2.00000
      4       0.6773      2.00000
      5       1.3119      2.00000
      6       2.1257      2.00000
      7       2.7132      2.00000
      8       4.1750      2.00000
      9       5.0819      2.00000
     10       6.4096      0.00000
     11       7.1385      0.00000
     12       8.2260      0.00000
     13      10.0579      0.00000
     14      10.6482      0.00000

 k-point    29 :       0.3333    0.2222    0.2500
  band No.  band energies     occupation 
      1      -6.6947      2.00000
      2      -5.6286      2.00000
      3      -4.5904      2.00000
      4       0.6567      2.00000
      5       0.9608      2.00000
      6       1.8142      2.00000
      7       2.9521      2.00000
      8       3.8281      2.00000
      9       4.8807      2.00000
     10       6.6365      0.00000
     11       7.6873      0.00000
     12       8.2430      0.00000
     13      10.1172      0.00000
     14      11.1469      0.00000

 k-point    30 :       0.4444    0.2222    0.2500
  band No.  band energies     occupation 
      1      -6.6866      2.00000
      2      -5.6635      2.00000
      3      -4.5500      2.00000
      4       0.5196      2.00000
      5       1.0323      2.00000
      6       1.8261      2.00000
      7       2.8942      2.00000
      8       4.1418      2.00000
      9       4.7394      2.00000
     10       6.7528      0.00000
     11       7.4789      0.00000
     12       8.1114      0.00000
     13      10.0309      0.00000
     14      11.3734      0.00000

 k-point    31 :       0.3333    0.3333    0.2500
  band No.  band energies     occupation 
      1      -6.6041      2.00000
      2      -5.6228      2.00000
      3      -4.6674      2.00000
      4       0.6104      2.00000
      5       0.9363      2.00000
      6       1.4993      2.00000
      7       3.1221      2.00000
      8       4.0402      2.00000
      9       4.4676      2.00000
     10       7.2316      0.00000
     11       7.7738      0.00000
     12       7.8568      0.00000
     13      10.8116      0.00000
     14      11.0722      0.00000

 k-point    32 :       0.0000    0.0000    0.5000
  band No.  band energies     occupation 
      1      -7.0176      2.00000
      2      -7.0176      2.00000
      3      -2.7909      2.00000
      4       1.7179      2.00000
      5       2.8796      2.00000
      6       2.8796      2.00000
      7       4.2237      2.00000
      8       4.4609      2.00000
      9       4.4609      2.00000
     10       5.9543      0.00000
     11       5.9543      0.00000
     12       5.9906      0.00000
     13       9.6705      0.00000
     14      10.7808      0.00000

 k-point    33 :       0.1111    0.0000    0.5000
  band No.  band energies     occupation 
      1      -6.9611      2.00000
      2      -6.9451      2.00000
      3      -2.9560      2.00000
      4       1.6648      2.00000
      5       2.7118      2.00000
      6       2.7947      2.00000
      7       3.7698      2.00000
      8       4.0938      2.00000
      9       4.3190      2.00000
     10       6.1955      0.00000
     11       6.3565      0.00000
     12       6.7681      0.00000
     13       9.8786      0.00000
     14      10.5123      0.00000

 k-point    34 :       0.2222    0.0000    0.5000
  band No.  band energies     occupation 
      1      -6.8094      2.00000
      2      -6.7374      2.00000
      3      -3.3833      2.00000
      4       1.3165      2.00000
      5       2.1954      2.00000
      6       2.5186      2.00000
      7       3.5805      2.00000
      8       3.7445      2.00000
      9       4.1571      2.00000
     10       6.6494      0.00000
     11       7.0554      0.00000
     12       7.5573      0.00000
     13      10.0532      0.00000
     14      10.7159      0.00000

 k-point    35 :       0.3333   -0.0000    0.5000
  band No.  band energies     occupation 
      1      -6.6191      2.00000
      2      -6.4342      2.00000
      3      -3.9147      2.00000
      4       0.6139      2.00000
      5       1.9577      2.00000
      6       2.2253      2.00000
      7       3.3372      2.00000
      8       3.6225      2.00000
      9       4.5142      2.00000
     10       6.9291      0.00000
     11       7.4465      0.00000
     12       7.6493      0.00000
     13      10.0721      0.00000
     14      11.0660      0.00000

 k-point    36 :       0.4444    0.0000    0.5000
  band No.  band energies     occupation 
      1      -6.4819      2.00000
      2      -6.1574      2.00000
      3      -4.3307      2.00000
      4       0.1331      2.00000
      5       1.9178      2.00000
      6       2.0144      2.00000
      7       3.1818      2.00000
      8       3.5227      2.00000
      9       5.1682      2.00000
     10       6.4827      0.00000
     11       7.3984      0.00000
     12       7.9246      0.00000
     13      10.1295      0.00000
     14      10.8920      0.00000

 k-point    37 :       0.1111    0.1111    0.5000
  band No.  band energies     occupation 
      1      -6.8531      2.00000
      2      -6.8084      2.00000
      3      -3.2498      2.00000
      4       1.4873      2.00000
      5       2.3797      2.00000
      6       2.4414      2.00000
      7       3.5620      2.00000
      8       3.7174      2.00000
      9       4.5527      2.00000
     10       6.1069      0.00000
     11       7.2097      0.00000
     12       7.3384      0.00000
     13      10.2592      0.00000
     14      10.2802      0.00000

 k-point    38 :       0.2222    0.1111    0.5000
  band No.  band energies     occupation 
      1      -6.6712      2.00000
      2      -6.5600      2.00000
      3      -3.7198      2.00000
      4       0.9813      2.00000
      5       1.8261      2.00000
      6       2.0098      2.00000
      7       3.5702      2.00000
      8       3.9309      2.00000
      9       4.5535      2.00000
     10       6.4455      0.00000
     11       7.5180      0.00000
     12       7.6671      0.00000
     13      10.1303      0.00000
     14      10.9165      0.00000

 k-point    39 :       0.3333    0.1111    0.5000
  band No.  band energies     occupation 
      1      -6.4936      2.00000
      2      -6.2668      2.00000
      3      -4.1914      2.00000
      4       0.3775      2.00000
      5       1.5665      2.00000
      6       1.7076      2.00000
      7       3.6481      2.00000
      8       4.0072      2.00000
      9       4.8855      2.00000
     10       6.6852      0.00000
     11       7.2129      0.00000
     12       7.7292      0.00000
     13      10.1833      0.00000
     14      11.1439      0.00000

 k-point    40 :       0.4444    0.1111    0.5000
  band No.  band energies     occupation 
      1      -6.4180      2.00000
      2      -6.1114      2.00000
      3      -4.4135      2.00000
      4       0.1322      2.00000
      5       1.5128      2.00000
      6       1.5778      2.00000
      7       3.7529      2.00000
      8       3.8694      2.00000
      9       5.3723      2.00000
     10       6.2956      0.00000
     11       7.2443      0.00000
     12       7.7284      0.00000
     13      10.2757      0.00000
     14      10.9400      0.00000

 k-point    41 :       0.2222    0.2222    0.5000
  band No.  band energies     occupation 
      1      -6.4763      2.00000
      2      -6.3356      2.00000
      3      -4.1210      2.00000
      4       0.6705      2.00000
      5       1.1695      2.00000
      6       1.4784      2.00000
      7       4.0140      2.00000
      8       4.3336      2.00000
      9       4.9628      2.00000
     10       6.3155      0.00000
     11       7.3929      0.00000
     12       7.4747      0.00000
     13      10.3823      0.00000
     14      11.2380      0.00000

 k-point    42 :       0.3333    0.2222    0.5000
  band No.  band energies     occupation 
      1      -6.3255      2.00000
      2      -6.1560      2.00000
      3      -4.4162      2.00000
      4       0.3703      2.00000
      5       0.9427      2.00000
      6       1.1069      2.00000
      7       4.3334      2.00000
      8       4.7011      2.00000
      9       5.2909      2.00000
     10       6.2589      0.00000
     11       6.9553      0.00000
     12       7.2447      0.00000
     13      10.7257      0.00000
     14      11.4448      0.00000

 k-point    43 :       0.3333    0.3333    0.5000
  band No.  band energies     occupation 
      1      -6.1833      2.00000
      2      -6.1833      2.00000
      3      -4.4992      2.00000
      4       0.5360      2.00000
      5       0.7061      2.00000
      6       0.7061      2.00000
      7       4.6038      2.00000
      8       5.4800      1.99926
      9       5.4800      1.99926
     10       5.7117      0.00148
     11       6.8487      0.00000
     12       6.8487      0.00000
     13      11.3734      0.00000
     14      12.0120      0.00000


--------------------------------------------------------------------------------------------------------


 soft charge-density along one line, spin component           1
         0         1         2         3         4         5         6         7         8         9
 total charge-density along one line
 
 pseudopotential strength for first ion, spin component:           1
 51.814  56.374  -0.000  -0.000  -0.051  -0.000  -0.000  -0.073
 56.374  61.340  -0.000  -0.000  -0.055  -0.000  -0.000  -0.080
 -0.000  -0.000  12.749   0.010   0.000  18.377   0.014   0.000
 -0.000  -0.000   0.010  12.765   0.000   0.014  18.400   0.000
 -0.051  -0.055   0.000   0.000  12.765   0.000   0.000  18.401
 -0.000  -0.000  18.377   0.014   0.000  26.500   0.021   0.000
 -0.000  -0.000   0.014  18.400   0.000   0.021  26.533   0.000
 -0.073  -0.080   0.000   0.000  18.401   0.000   0.000  26.534
  0.000   0.000  -0.010   0.000  -0.000  -0.014   0.001  -0.000
  0.016   0.017   0.000  -0.000   0.000   0.000  -0.000   0.001
  0.007   0.008   0.000  -0.000   0.006   0.000  -0.000   0.009
  0.000   0.000   0.000  -0.009  -0.000   0.001  -0.013  -0.000
  0.013   0.014   0.000  -0.000  -0.010   0.000  -0.000  -0.014
 total augmentation occupancy for first ion, spin component:           1
 12.801  -9.279   0.000   0.000   2.212   0.000   0.000  -0.579   0.000  -0.163  -0.091   0.000  -0.117
 -9.279   7.973   0.000   0.000  -1.855   0.000   0.000   0.495   0.000   0.148   0.082  -0.000   0.105
  0.000   0.000   2.490   0.224   0.000  -0.462  -0.198   0.000  -0.056   0.000   0.000  -0.050   0.000
 -0.000  -0.000   0.224   2.839   0.000  -0.198  -0.772   0.000  -0.049   0.000  -0.000  -0.123  -0.000
  2.212  -1.855   0.000   0.000   2.734   0.000  -0.000  -0.716   0.000  -0.055  -0.015   0.000  -0.055
  0.000   0.000  -0.462  -0.198   0.000   0.164   0.074   0.000   0.013   0.000   0.000   0.018   0.000
  0.000   0.000  -0.198  -0.772   0.000   0.074   0.277   0.000   0.018   0.000   0.000   0.037   0.000
 -0.579   0.495   0.000   0.000  -0.716   0.000  -0.000   0.248   0.000   0.016   0.003   0.000   0.014
  0.000   0.000  -0.056  -0.049   0.000   0.013   0.018   0.000   0.009   0.000   0.000   0.010   0.000
 -0.163   0.148   0.000  -0.000  -0.055   0.000   0.000   0.016   0.000   0.013   0.004   0.000   0.003
 -0.091   0.082   0.000  -0.000  -0.015   0.000   0.000   0.003  -0.000   0.004   0.007   0.000  -0.001
  0.000   0.000  -0.050  -0.123   0.000   0.018   0.037   0.000   0.010   0.000   0.000   0.025   0.000
 -0.117   0.105   0.000   0.000  -0.055   0.000   0.000   0.014   0.000   0.003  -0.001   0.000   0.009


------------------------ aborting loop because EDIFF is reached ----------------------------------------


    CHARGE:  cpu time    0.1389: real time    0.2817
    FORLOC:  cpu time    0.0079: real time    0.0163
    FORNL :  cpu time    0.7176: real time    1.1711
    STRESS:  cpu time    1.3508: real time    2.0730
    FORCOR:  cpu time    0.1043: real time    0.2114
    FORHAR:  cpu time    0.0262: real time    0.0635
    MIXING:  cpu time    0.0084: real time    0.0084
    OFIELD:  cpu time    0.0000: real time    0.0000

  FORCE on cell =-STRESS in cart. coord.  units (eV):
  Direction    XX          YY          ZZ          XY          YZ          ZX
  --------------------------------------------------------------------------------------
  Alpha Z     2.21185     2.21185     2.21185
  Ewald    -234.67283  -234.67282  -196.59218    -0.00000    -0.00001     0.00000
  Hartree    11.99892    11.99892    22.13158     0.00000     0.00000    -0.00000
  E(xc)     -70.21560   -70.21560   -69.76189    -0.00000     0.00000    -0.00000
  Local    -115.21050  -115.21056  -154.55101    -0.00004     0.00000    -0.00000
  n-local   331.49882   332.36151   327.85545    -1.12599    -0.70414    -1.18751
  augment   -81.03067   -81.03062   -78.88813     0.00004    -0.00000    -0.00000
  Kinetic   151.78465   158.13609   147.63403    -7.11762     0.19718     1.58867
  Fock        0.00000     0.00000     0.00000     0.00000     0.00000     0.00000
  -------------------------------------------------------------------------------------
  Total      -0.02829    -0.02829     0.03971     0.00000     0.00000     0.00000
  in kB      -0.42886    -0.42886     0.60207     0.00000     0.00000     0.00000
  external pressure =       -0.09 kB  Pullay stress =        0.00 kB


 VOLUME and BASIS-vectors are now :
 -----------------------------------------------------------------------------
  energy-cutoff  :      520.00
  volume of cell :      105.68
      direct lattice vectors                 reciprocal lattice vectors
     4.531666535 -0.000000000  0.000000000     0.220669370  0.127403520  0.000000000
    -2.265833267  3.924538340 -0.000000000    -0.000000000  0.254807041  0.000000000
     0.000000000 -0.000000000  5.942309760    -0.000000000  0.000000000  0.168284731

  length of vectors
     4.531666535  4.531666535  5.942309760     0.254807041  0.254807041  0.168284731


 FORCES acting on ions
    electron-ion (+dipol)            ewald-force                    non-local-force                 convergence-correction
 -----------------------------------------------------------------------------------------------
   -.125E+02 0.121E-04 -.114E-05   0.177E+02 0.155E-05 0.169E-05   -.520E+01 0.473E-19 0.000E+00   -.119E-02 -.750E-08 0.315E-09
   0.625E+01 -.108E+02 -.183E-04   -.886E+01 0.153E+02 -.809E-05   0.260E+01 -.451E+01 0.000E+00   0.596E-03 -.103E-02 -.308E-09
   0.625E+01 0.108E+02 0.191E-04   -.886E+01 -.153E+02 0.639E-05   0.260E+01 0.451E+01 0.000E+00   0.596E-03 0.103E-02 0.466E-12
 -----------------------------------------------------------------------------------------------
   0.260E-04 -.752E-05 -.305E-06   0.178E-14 -.178E-14 -.173E-17   0.888E-15 0.888E-15 0.000E+00   -.203E-08 -.347E-08 0.770E-11
 
 
 POSITION                                       TOTAL-FORCE (eV/Angst)
 -----------------------------------------------------------------------------------
      1.21267     -0.00000      1.98077         0.014846     -0.000000      0.000000
     -0.60633      1.05020      3.96154        -0.007423      0.012857     -0.000000
      1.65950      2.87434     -0.00000        -0.007423     -0.012857      0.000000
 -----------------------------------------------------------------------------------
    total drift:                                0.000026     -0.000008     -0.000000


--------------------------------------------------------------------------------------------------------



  FREE ENERGIE OF THE ION-ELECTRON SYSTEM (eV)
  ---------------------------------------------------
  free  energy   TOTEN  =        -9.42576043 eV

  energy  without entropy=       -9.42575814  energy(sigma->0) =       -9.42575929
 
 d Force =-0.6425520E-05[-0.652E-05,-0.633E-05]  d Energy = 0.1009775E-05-0.744E-05
 d Force =-0.7782232E-02[-0.778E-02,-0.778E-02]  d Ewald  =-0.1186078E-01 0.408E-02


--------------------------------------------------------------------------------------------------------


    POTLOK:  cpu time    0.1036: real time    0.2100


--------------------------------------------------------------------------------------------------------




--------------------------------------------------------------------------------------------------------


    WAVPRE:  cpu time    0.0201: real time    0.0462
    FEWALD:  cpu time    0.0002: real time    0.0002
    GENKIN:  cpu time    0.0308: real time    0.0513
    ORTHCH:  cpu time    0.0919: real time    0.1920
     LOOP+:  cpu time    7.6987: real time   12.5655


--------------------------------------- Iteration     10(   1)  ---------------------------------------


    POTLOK:  cpu time    0.0764: real time    0.1542
    SETDIJ:  cpu time    0.0099: real time    0.0099
     EDDAV:  cpu time    1.5772: real time    2.1957
       DOS:  cpu time    0.0022: real time    0.0022
    CHARGE:  cpu time    0.1256: real time    0.2553
    MIXING:  cpu time    0.0167: real time    0.0330
    --------------------------------------------
      LOOP:  cpu time    1.8080: real time    2.6503

 eigenvalue-minimisations  :   638
 total energy-change (2. order) : 0.6627101E-07  (-0.7562487E-06)
 number of electron      17.9999996 magnetization 
 augmentation part       -3.6076755 magnetization 

 Broyden mixing:
  rms(total) = 0.26921E-03    rms(broyden)= 0.26921E-03
  rms(prec ) = 0.40897E-03
  weight for this iteration     100.00

 Free energy of the ion-electron system (eV)
  ---------------------------------------------------
  alpha Z        PSCENC =         2.21181100
  Ewald energy   TEWEN  =      -665.93234223
  -Hartree energ DENC   =       -46.13069465
  -exchange      EXHF   =         0.00000000
  -V(xc)+E(xc)   XCENC  =       -84.16341035
  PAW double counting   =      1468.14771259    -1352.77162983
  entropy T*S    EENTRO =        -0.00000233
  eigenvalues    EBANDS =        -0.60151073
  atomic energy  EATOM  =       669.81430600
  Solvation  Ediel_sol  =         0.00000000
  ---------------------------------------------------
  free energy    TOTEN  =        -9.42576053 eV

  energy without entropy =       -9.42575820  energy(sigma->0) =       -9.42575937


--------------------------------------------------------------------------------------------------------




--------------------------------------- Iteration     10(   2)  ---------------------------------------


    POTLOK:  cpu time    0.0988: real time    0.1980
    SETDIJ:  cpu time    0.0144: real time    0.0314
     EDDAV:  cpu time    1.2870: real time    2.5889
       DOS:  cpu time    0.0025: real time    0.0025
    --------------------------------------------
      LOOP:  cpu time    1.4027: real time    2.8208

 eigenvalue-minimisations  :   602
 total energy-change (2. order) :-0.1533999E-07  (-0.6927776E-07)
 number of electron      17.9999996 magnetization 
 augmentation part       -3.6076755 magnetization 

 Free energy of the ion-electron system (eV)
  ---------------------------------------------------
  alpha Z        PSCENC =         2.21181100
  Ewald energy   TEWEN  =      -665.93234223
  -Hartree energ DENC   =       -46.13076843
  -exchange      EXHF   =         0.00000000
  -V(xc)+E(xc)   XCENC  =       -84.16348035
  PAW double counting   =      1468.12849282    -1352.75240912
  entropy T*S    EENTRO =        -0.00000234
  eigenvalues    EBANDS =        -0.60136789
  atomic energy  EATOM  =       669.81430600
  Solvation  Ediel_sol  =         0.00000000
  ---------------------------------------------------
  free energy    TOTEN  =        -9.42576055 eV

  energy without entropy =       -9.42575821  energy(sigma->0) =       -9.42575938


--------------------------------------------------------------------------------------------------------




 average (electrostatic) potential at core
  the test charge radii are     1.1897
  (the norm of the test charge is              1.0000)
       1 -89.4256       2 -89.4256       3 -89.4256
 
 
 
 E-fermi :   5.5989     XC(G=0):  -8.9028     alpha+bet :-10.1754


 k-point     1 :       0.0000    0.0000    0.0000
  band No.  band energies     occupation 
      1      -7.8797      2.00000
      2      -4.7118      2.00000
      3      -4.7118      2.00000
      4       2.4912      2.00000
      5       2.7540      2.00000
      6       2.7540      2.00000
      7       3.8715      2.00000
      8       3.8715      2.00000
      9       4.6963      2.00000
     10       6.4801      0.00000
     11       6.4801      0.00000
     12       7.0177      0.00000
     13      10.5361      0.00000
     14      10.5361      0.00000

 k-point     2 :       0.1111    0.0000    0.0000
  band No.  band energies     occupation 
      1      -7.8022      2.00000
      2      -4.7413      2.00000
      3      -4.6950      2.00000
      4       1.9243      2.00000
      5       2.3763      2.00000
      6       2.6141      2.00000
      7       4.1012      2.00000
      8       4.3887      2.00000
      9       4.8471      2.00000
     10       6.2306      0.00000
     11       6.4265      0.00000
     12       6.9217      0.00000
     13      10.2986      0.00000
     14      10.4860      0.00000

 k-point     3 :       0.2222    0.0000    0.0000
  band No.  band energies     occupation 
      1      -7.5808      2.00000
      2      -4.8613      2.00000
      3      -4.6484      2.00000
      4       1.2147      2.00000
      5       1.8614      2.00000
      6       2.2894      2.00000
      7       4.2273      2.00000
      8       4.5122      2.00000
      9       4.6822      2.00000
     10       6.3461      0.00000
     11       6.5044      0.00000
     12       7.0859      0.00000
     13       9.5845      0.00000
     14      10.6774      0.00000

 k-point     4 :       0.3333   -0.0000    0.0000
  band No.  band energies     occupation 
      1      -7.2608      2.00000
      2      -5.1070      2.00000
      3      -4.5896      2.00000
      4       0.8797      2.00000
      5       1.4596      2.00000
      6       2.0197      2.00000
      7       3.2568      2.00000
      8       4.5436      2.00000
      9       4.7073      2.00000
     10       6.3470      0.00000
     11       6.4920      0.00000
     12       8.1285      0.00000
     13       8.9665      0.00000
     14      11.3866      0.00000

 k-point     5 :       0.4444    0.0000    0.0000
  band No.  band energies     occupation 
      1      -6.9714      2.00000
      2      -5.3733      2.00000
      3      -4.5480      2.00000
      4       0.8614      2.00000
      5       1.2736      2.00000
      6       1.9673      2.00000
      7       2.4006      2.00000
      8       4.5047      2.00000
      9       4.7012      2.00000
     10       6.3551      0.00000
     11       6.4281      0.00000
     12       8.6357      0.00000
     13       8.9445      0.00000
     14      12.4281      0.00000

 k-point     6 :       0.1111    0.1111    0.0000
  band No.  band energies     occupation 
      1      -7.6524      2.00000
      2      -4.8019      2.00000
      3      -4.6787      2.00000
      4       1.4473      2.00000
      5       1.7543      2.00000
      6       2.6642      2.00000
      7       3.9538      2.00000
      8       4.7080      2.00000
      9       4.7580      2.00000
     10       6.2255      0.00000
     11       6.5465      0.00000
     12       6.9972      0.00000
     13      10.0635      0.00000
     14      10.1582      0.00000

 k-point     7 :       0.2222    0.1111    0.0000
  band No.  band energies     occupation 
      1      -7.3787      2.00000
      2      -4.9620      2.00000
      3      -4.6598      2.00000
      4       1.0199      2.00000
      5       1.3621      2.00000
      6       2.4072      2.00000
      7       3.7448      2.00000
      8       4.0594      2.00000
      9       4.4833      2.00000
     10       6.6592      0.00000
     11       6.9634      0.00000
     12       7.4994      0.00000
     13       9.4980      0.00000
     14      10.4089      0.00000

 k-point     8 :       0.3333    0.1111    0.0000
  band No.  band energies     occupation 
      1      -7.0581      2.00000
      2      -5.2220      2.00000
      3      -4.6376      2.00000
      4       0.8986      2.00000
      5       1.2307      2.00000
      6       2.1033      2.00000
      7       2.8368      2.00000
      8       4.0198      2.00000
      9       4.2488      2.00000
     10       6.7996      0.00000
     11       7.0233      0.00000
     12       8.5114      0.00000
     13       9.0849      0.00000
     14      11.2634      0.00000

 k-point     9 :       0.4444    0.1111    0.0000
  band No.  band energies     occupation 
      1      -6.8890      2.00000
      2      -5.3778      2.00000
      3      -4.6275      2.00000
      4       0.9307      2.00000
      5       1.2326      2.00000
      6       2.1203      2.00000
      7       2.2435      2.00000
      8       4.0446      2.00000
      9       4.1413      2.00000
     10       6.8172      0.00000
     11       7.0372      0.00000
     12       8.9400      0.00000
     13       8.9744      0.00000
     14      12.1747      0.00000

 k-point    10 :       0.2222    0.2222    0.0000
  band No.  band energies     occupation 
      1      -7.0943      2.00000
      2      -5.0866      2.00000
      3      -4.7529      2.00000
      4       1.0061      2.00000
      5       1.0865      2.00000
      6       2.3933      2.00000
      7       3.2724      2.00000
      8       3.5886      2.00000
      9       3.6443      2.00000
     10       7.4034      0.00000
     11       7.6709      0.00000
     12       7.8519      0.00000
     13       9.8273      0.00000
     14      10.2034      0.00000

 k-point    11 :       0.3333    0.2222    0.0000
  band No.  band energies     occupation 
      1      -6.8507      2.00000
      2      -5.2282      2.00000
      3      -4.8347      2.00000
      4       1.0607      2.00000
      5       1.1721      2.00000
      6       2.2696      2.00000
      7       2.6114      2.00000
      8       3.2845      2.00000
      9       3.3869      2.00000
     10       7.6326      0.00000
     11       7.9124      0.00000
     12       8.5921      0.00000
     13       9.7698      0.00000
     14      11.0305      0.00000

 k-point    12 :       0.3333    0.3333    0.0000
  band No.  band energies     occupation 
      1      -6.7591      2.00000
      2      -5.0807      2.00000
      3      -5.0807      2.00000
      4       1.1938      2.00000
      5       1.1938      2.00000
      6       2.5731      2.00000
      7       2.5731      2.00000
      8       2.6854      2.00000
      9       2.9870      2.00000
     10       8.2388      0.00000
     11       8.2388      0.00000
     12       8.5165      0.00000
     13      10.3434      0.00000
     14      11.3017      0.00000

 k-point    13 :       0.0000    0.0000    0.2500
  band No.  band energies     occupation 
      1      -7.6609      2.00000
      2      -5.9979      2.00000
      3      -3.4257      2.00000
      4       2.1261      2.00000
      5       2.6154      2.00000
      6       3.0156      2.00000
      7       4.0422      2.00000
      8       4.0621      2.00000
      9       4.6602      2.00000
     10       6.1456      0.00000
     11       6.2188      0.00000
     12       6.5136      0.00000
     13      10.0115      0.00000
     14      10.9857      0.00000

 k-point    14 :       0.1111    0.0000    0.2500
  band No.  band energies     occupation 
      1      -7.5869      2.00000
      2      -5.9529      2.00000
      3      -3.5285      2.00000
      4       1.8751      2.00000
      5       2.4638      2.00000
      6       2.8864      2.00000
      7       3.7989      2.00000
      8       4.1886      2.00000
      9       4.3301      2.00000
     10       6.3946      0.00000
     11       6.5330      0.00000
     12       6.8754      0.00000
     13      10.0637      0.00000
     14      10.9865      0.00000

 k-point    15 :       0.2222    0.0000    0.2500
  band No.  band energies     occupation 
      1      -7.3796      2.00000
      2      -5.8242      2.00000
      3      -3.8433      2.00000
      4       1.5466      2.00000
      5       2.0882      2.00000
      6       2.6491      2.00000
      7       3.1994      2.00000
      8       3.7610      2.00000
      9       4.2538      2.00000
     10       6.7974      0.00000
     11       7.2581      0.00000
     12       7.6314      0.00000
     13      10.2984      0.00000
     14      10.7409      0.00000

 k-point    16 :       0.3333   -0.0000    0.2500
  band No.  band energies     occupation 
      1      -7.0873      2.00000
      2      -5.6667      2.00000
      3      -4.2663      2.00000
      4       1.2290      2.00000
      5       1.5807      2.00000
      6       2.3366      2.00000
      7       2.7982      2.00000
      8       3.7565      2.00000
      9       4.1753      2.00000
     10       6.8622      0.00000
     11       7.4385      0.00000
     12       8.4838      0.00000
     13       9.9119      0.00000
     14      11.1875      0.00000

 k-point    17 :       0.4444    0.0000    0.2500
  band No.  band energies     occupation 
      1      -6.8221      2.00000
      2      -5.6413      2.00000
      3      -4.5004      2.00000
      4       0.6910      2.00000
      5       1.3032      2.00000
      6       2.0643      2.00000
      7       3.2220      2.00000
      8       3.7870      2.00000
      9       4.1191      2.00000
     10       6.7681      0.00000
     11       7.4106      0.00000
     12       8.3917      0.00000
     13       9.4776      0.00000
     14      11.6576      0.00000

 k-point    18 :      -0.4444   -0.0000    0.2500
  band No.  band energies     occupation 
      1      -6.7948      2.00000
      2      -5.7573      2.00000
      3      -4.3533      2.00000
      4       0.3853      2.00000
      5       1.2269      2.00000
      6       2.0260      2.00000
      7       3.8584      2.00000
      8       3.9033      2.00000
      9       4.2665      2.00000
     10       6.6318      0.00000
     11       7.2280      0.00000
     12       7.6776      0.00000
     13       9.1887      0.00000
     14      12.1645      0.00000

 k-point    19 :      -0.3333    0.0000    0.2500
  band No.  band energies     occupation 
      1      -7.0578      2.00000
      2      -5.8095      2.00000
      3      -4.0398      2.00000
      4       0.5614      2.00000
      5       1.3247      2.00000
      6       2.1653      2.00000
      7       4.1038      2.00000
      8       4.1295      2.00000
      9       5.0006      2.00000
     10       6.3219      0.00000
     11       6.8663      0.00000
     12       7.0089      0.00000
     13       9.0933      0.00000
     14      12.1225      0.00000

 k-point    20 :      -0.2222   -0.0000    0.2500
  band No.  band energies     occupation 
      1      -7.3693      2.00000
      2      -5.8771      2.00000
      3      -3.7316      2.00000
      4       1.2074      2.00000
      5       1.5973      2.00000
      6       2.4392      2.00000
      7       4.2952      2.00000
      8       4.4073      2.00000
      9       5.0332      2.00000
     10       6.1156      0.00000
     11       6.4838      0.00000
     12       6.7869      0.00000
     13       9.2935      0.00000
     14      11.6299      0.00000

 k-point    21 :      -0.1111   -0.0000    0.2500
  band No.  band energies     occupation 
      1      -7.5856      2.00000
      2      -5.9598      2.00000
      3      -3.5105      2.00000
      4       1.8939      2.00000
      5       2.1812      2.00000
      6       2.7852      2.00000
      7       4.2233      2.00000
      8       4.3368      2.00000
      9       4.6286      2.00000
     10       6.0921      0.00000
     11       6.1438      0.00000
     12       6.9034      0.00000
     13       9.7768      0.00000
     14      11.0708      0.00000

 k-point    22 :       0.1111    0.1111    0.2500
  band No.  band energies     occupation 
      1      -7.4427      2.00000
      2      -5.8825      2.00000
      3      -3.7013      2.00000
      4       1.5512      2.00000
      5       1.8549      2.00000
      6       2.6595      2.00000
      7       3.7025      2.00000
      8       4.2205      2.00000
      9       4.6253      2.00000
     10       6.3859      0.00000
     11       6.8721      0.00000
     12       7.0510      0.00000
     13       9.7800      0.00000
     14      11.0582      0.00000

 k-point    23 :       0.2222    0.1111    0.2500
  band No.  band energies     occupation 
      1      -7.1887      2.00000
      2      -5.7411      2.00000
      3      -4.0764      2.00000
      4       1.2102      2.00000
      5       1.6105      2.00000
      6       2.5178      2.00000
      7       2.8283      2.00000
      8       3.8340      2.00000
      9       4.7583      2.00000
     10       6.5822      0.00000
     11       7.2123      0.00000
     12       8.0897      0.00000
     13      10.1229      0.00000
     14      10.5871      0.00000

 k-point    24 :       0.3333    0.1111    0.2500
  band No.  band energies     occupation 
      1      -6.8982      2.00000
      2      -5.6280      2.00000
      3      -4.4467      2.00000
      4       0.9300      2.00000
      5       1.1874      2.00000
      6       2.2140      2.00000
      7       2.8774      2.00000
      8       3.5363      2.00000
      9       4.7939      2.00000
     10       6.5036      0.00000
     11       7.5566      0.00000
     12       8.5075      0.00000
     13       9.7826      0.00000
     14      11.2390      0.00000

 k-point    25 :       0.4444    0.1111    0.2500
  band No.  band energies     occupation 
      1      -6.7321      2.00000
      2      -5.6829      2.00000
      3      -4.5063      2.00000
      4       0.5237      2.00000
      5       1.0825      2.00000
      6       2.0991      2.00000
      7       3.0839      2.00000
      8       3.7371      2.00000
      9       4.8068      2.00000
     10       6.4072      0.00000
     11       7.6399      0.00000
     12       8.0491      0.00000
     13       9.5223      0.00000
     14      11.9682      0.00000

 k-point    26 :      -0.4444    0.1111    0.2500
  band No.  band energies     occupation 
      1      -6.8703      2.00000
      2      -5.7546      2.00000
      3      -4.2760      2.00000
      4       0.4436      2.00000
      5       1.2246      2.00000
      6       2.1200      2.00000
      7       3.1286      2.00000
      8       4.4481      2.00000
      9       4.8827      2.00000
     10       6.2853      0.00000
     11       7.1533      0.00000
     12       7.6473      0.00000
     13       9.4047      0.00000
     14      11.8371      0.00000

 k-point    27 :      -0.3333    0.1111    0.2500
  band No.  band energies     occupation 
      1      -7.1767      2.00000
      2      -5.8011      2.00000
      3      -3.9709      2.00000
      4       0.8545      2.00000
      5       1.4710      2.00000
      6       2.3211      2.00000
      7       3.3321      2.00000
      8       4.5634      2.00000
      9       5.2044      2.00000
     10       6.0904      0.00000
     11       6.7305      0.00000
     12       7.4287      0.00000
     13       9.4532      0.00000
     14      11.2530      0.00000

 k-point    28 :       0.2222    0.2222    0.2500
  band No.  band energies     occupation 
      1      -6.9157      2.00000
      2      -5.6871      2.00000
      3      -4.3328      2.00000
      4       0.6773      2.00000
      5       1.3116      2.00000
      6       2.1257      2.00000
      7       2.7131      2.00000
      8       4.1749      2.00000
      9       5.0816      2.00000
     10       6.4092      0.00000
     11       7.1385      0.00000
     12       8.2258      0.00000
     13      10.0579      0.00000
     14      10.6482      0.00000

 k-point    29 :       0.3333    0.2222    0.2500
  band No.  band energies     occupation 
      1      -6.6950      2.00000
      2      -5.6287      2.00000
      3      -4.5903      2.00000
      4       0.6566      2.00000
      5       0.9606      2.00000
      6       1.8141      2.00000
      7       2.9518      2.00000
      8       3.8280      2.00000
      9       4.8804      2.00000
     10       6.6362      0.00000
     11       7.6871      0.00000
     12       8.2427      0.00000
     13      10.1172      0.00000
     14      11.1470      0.00000

 k-point    30 :       0.4444    0.2222    0.2500
  band No.  band energies     occupation 
      1      -6.6868      2.00000
      2      -5.6637      2.00000
      3      -4.5500      2.00000
      4       0.5195      2.00000
      5       1.0321      2.00000
      6       1.8261      2.00000
      7       2.8939      2.00000
      8       4.1415      2.00000
      9       4.7393      2.00000
     10       6.7525      0.00000
     11       7.4787      0.00000
     12       8.1112      0.00000
     13      10.0309      0.00000
     14      11.3735      0.00000

 k-point    31 :       0.3333    0.3333    0.2500
  band No.  band energies     occupation 
      1      -6.6043      2.00000
      2      -5.6230      2.00000
      3      -4.6673      2.00000
      4       0.6102      2.00000
      5       0.9361      2.00000
      6       1.4993      2.00000
      7       3.1216      2.00000
      8       4.0400      2.00000
      9       4.4675      2.00000
     10       7.2310      0.00000
     11       7.7737      0.00000
     12       7.8567      0.00000
     13      10.8116      0.00000
     14      11.0723      0.00000

 k-point    32 :       0.0000    0.0000    0.5000
  band No.  band energies     occupation 
      1      -7.0178      2.00000
      2      -7.0178      2.00000
      3      -2.7911      2.00000
      4       1.7172      2.00000
      5       2.8797      2.00000
      6       2.8797      2.00000
      7       4.2236      2.00000
      8       4.4609      2.00000
      9       4.4609      2.00000
     10       5.9546      0.00000
     11       5.9546      0.00000
     12       5.9906      0.00000
     13       9.6701      0.00000
     14      10.7810      0.00000

 k-point    33 :       0.1111    0.0000    0.5000
  band No.  band energies     occupation 
      1      -6.9613      2.00000
      2      -6.9453      2.00000
      3      -2.9562      2.00000
      4       1.6642      2.00000
      5       2.7119      2.00000
      6       2.7947      2.00000
      7       3.7698      2.00000
      8       4.0939      2.00000
      9       4.3190      2.00000
     10       6.1956      0.00000
     11       6.3566      0.00000
     12       6.7681      0.00000
     13       9.8782      0.00000
     14      10.5124      0.00000

 k-point    34 :       0.2222    0.0000    0.5000
  band No.  band energies     occupation 
      1      -6.8096      2.00000
      2      -6.7376      2.00000
      3      -3.3833      2.00000
      4       1.3161      2.00000
      5       2.1952      2.00000
      6       2.5186      2.00000
      7       3.5805      2.00000
      8       3.7444      2.00000
      9       4.1572      2.00000
     10       6.6492      0.00000
     11       7.0555      0.00000
     12       7.5571      0.00000
     13      10.0531      0.00000
     14      10.7157      0.00000

 k-point    35 :       0.3333   -0.0000    0.5000
  band No.  band energies     occupation 
      1      -6.6193      2.00000
      2      -6.4345      2.00000
      3      -3.9147      2.00000
      4       0.6138      2.00000
      5       1.9574      2.00000
      6       2.2252      2.00000
      7       3.3373      2.00000
      8       3.6225      2.00000
      9       4.5139      2.00000
     10       6.9286      0.00000
     11       7.4462      0.00000
     12       7.6492      0.00000
     13      10.0719      0.00000
     14      11.0655      0.00000

 k-point    36 :       0.4444    0.0000    0.5000
  band No.  band energies     occupation 
      1      -6.4821      2.00000
      2      -6.1577      2.00000
      3      -4.3306      2.00000
      4       0.1330      2.00000
      5       1.9175      2.00000
      6       2.0143      2.00000
      7       3.1819      2.00000
      8       3.5227      2.00000
      9       5.1677      2.00000
     10       6.4822      0.00000
     11       7.3980      0.00000
     12       7.9244      0.00000
     13      10.1291      0.00000
     14      10.8917      0.00000

 k-point    37 :       0.1111    0.1111    0.5000
  band No.  band energies     occupation 
      1      -6.8533      2.00000
      2      -6.8086      2.00000
      3      -3.2499      2.00000
      4       1.4869      2.00000
      5       2.3797      2.00000
      6       2.4414      2.00000
      7       3.5619      2.00000
      8       3.7175      2.00000
      9       4.5527      2.00000
     10       6.1070      0.00000
     11       7.2096      0.00000
     12       7.3384      0.00000
     13      10.2589      0.00000
     14      10.2802      0.00000

 k-point    38 :       0.2222    0.1111    0.5000
  band No.  band energies     occupation 
      1      -6.6714      2.00000
      2      -6.5602      2.00000
      3      -3.7199      2.00000
      4       0.9811      2.00000
      5       1.8260      2.00000
      6       2.0097      2.00000
      7       3.5701      2.00000
      8       3.9306      2.00000
      9       4.5535      2.00000
     10       6.4454      0.00000
     11       7.5177      0.00000
     12       7.6669      0.00000
     13      10.1302      0.00000
     14      10.9163      0.00000

 k-point    39 :       0.3333    0.1111    0.5000
  band No.  band energies     occupation 
      1      -6.4938      2.00000
      2      -6.2670      2.00000
      3      -4.1913      2.00000
      4       0.3774      2.00000
      5       1.5664      2.00000
      6       1.7075      2.00000
      7       3.6480      2.00000
      8       4.0070      2.00000
      9       4.8852      2.00000
     10       6.6846      0.00000
     11       7.2126      0.00000
     12       7.7290      0.00000
     13      10.1830      0.00000
     14      11.1435      0.00000

 k-point    40 :       0.4444    0.1111    0.5000
  band No.  band energies     occupation 
      1      -6.4182      2.00000
      2      -6.1117      2.00000
      3      -4.4135      2.00000
      4       0.1321      2.00000
      5       1.5128      2.00000
      6       1.5776      2.00000
      7       3.7529      2.00000
      8       3.8692      2.00000
      9       5.3718      2.00000
     10       6.2951      0.00000
     11       7.2439      0.00000
     12       7.7283      0.00000
     13      10.2753      0.00000
     14      10.9397      0.00000

 k-point    41 :       0.2222    0.2222    0.5000
  band No.  band energies     occupation 
      1      -6.4766      2.00000
      2      -6.3358      2.00000
      3      -4.1209      2.00000
      4       0.6704      2.00000
      5       1.1695      2.00000
      6       1.4783      2.00000
      7       4.0137      2.00000
      8       4.3333      2.00000
      9       4.9627      2.00000
     10       6.3154      0.00000
     11       7.3926      0.00000
     12       7.4743      0.00000
     13      10.3821      0.00000
     14      11.2378      0.00000

 k-point    42 :       0.3333    0.2222    0.5000
  band No.  band energies     occupation 
      1      -6.3258      2.00000
      2      -6.1562      2.00000
      3      -4.4161      2.00000
      4       0.3702      2.00000
      5       0.9426      2.00000
      6       1.1068      2.00000
      7       4.3329      2.00000
      8       4.7008      2.00000
      9       5.2907      2.00000
     10       6.2584      0.00000
     11       6.9551      0.00000
     12       7.2446      0.00000
     13      10.7255      0.00000
     14      11.4445      0.00000

 k-point    43 :       0.3333    0.3333    0.5000
  band No.  band energies     occupation 
      1      -6.1836      2.00000
      2      -6.1836      2.00000
      3      -4.4991      2.00000
      4       0.5358      2.00000
      5       0.7061      2.00000
      6       0.7061      2.00000
      7       4.6032      2.00000
      8       5.4798      1.99924
      9       5.4798      1.99924
     10       5.7110      0.00151
     11       6.8486      0.00000
     12       6.8486      0.00000
     13      11.3733      0.00000
     14      12.0118      0.00000


--------------------------------------------------------------------------------------------------------


 soft charge-density along one line, spin component           1
         0         1         2         3         4         5         6         7         8         9
 total charge-density along one line
 
 pseudopotential strength for first ion, spin component:           1
 51.814  56.374  -0.000  -0.000  -0.051  -0.000  -0.000  -0.073
 56.374  61.340  -0.000  -0.000  -0.055  -0.000  -0.000  -0.080
 -0.000  -0.000  12.749   0.010   0.000  18.377   0.014   0.000
 -0.000  -0.000   0.010  12.765   0.000   0.014  18.400   0.000
 -0.051  -0.055   0.000   0.000  12.765   0.000   0.000  18.401
 -0.000  -0.000  18.377   0.014   0.000  26.500   0.021   0.000
 -0.000  -0.000   0.014  18.400   0.000   0.021  26.533   0.000
 -0.073  -0.080   0.000   0.000  18.401   0.000   0.000  26.534
  0.000   0.000  -0.010   0.000  -0.000  -0.014   0.001  -0.000
  0.016   0.017   0.000  -0.000   0.000   0.000  -0.000   0.001
  0.007   0.008   0.000  -0.000   0.006   0.000  -0.000   0.009
  0.000   0.000   0.000  -0.009  -0.000   0.001  -0.013  -0.000
  0.013   0.014   0.000  -0.000  -0.010   0.000  -0.000  -0.014
 total augmentation occupancy for first ion, spin component:           1
 12.800  -9.279   0.000   0.000   2.211   0.000   0.000  -0.579   0.000  -0.163  -0.091   0.000  -0.117
 -9.279   7.973   0.000   0.000  -1.854   0.000   0.000   0.494   0.000   0.148   0.082   0.000   0.105
  0.000   0.000   2.490   0.224   0.000  -0.462  -0.198   0.000  -0.056   0.000   0.000  -0.050   0.000
  0.000  -0.000   0.224   2.839   0.000  -0.198  -0.772  -0.000  -0.049   0.000   0.000  -0.123   0.000
  2.211  -1.854   0.000   0.000   2.734   0.000  -0.000  -0.716   0.000  -0.055  -0.015   0.000  -0.055
  0.000   0.000  -0.462  -0.198   0.000   0.164   0.074   0.000   0.013   0.000  -0.000   0.018   0.000
  0.000   0.000  -0.198  -0.772  -0.000   0.074   0.277   0.000   0.018   0.000   0.000   0.037   0.000
 -0.579   0.494   0.000  -0.000  -0.716   0.000   0.000   0.248   0.000   0.016   0.003   0.000   0.014
  0.000   0.000  -0.056  -0.049   0.000   0.013   0.018   0.000   0.009   0.000  -0.000   0.010   0.000
 -0.163   0.148   0.000   0.000  -0.055   0.000   0.000   0.016   0.000   0.013   0.004   0.000   0.003
 -0.091   0.082   0.000   0.000  -0.015   0.000   0.000   0.003   0.000   0.004   0.007   0.000  -0.001
  0.000   0.000  -0.050  -0.123   0.000   0.018   0.037  -0.000   0.010   0.000   0.000   0.025   0.000
 -0.117   0.105   0.000   0.000  -0.055   0.000   0.000   0.014   0.000   0.003  -0.001   0.000   0.009


------------------------ aborting loop because EDIFF is reached ----------------------------------------


    CHARGE:  cpu time    0.2537: real time    0.2544
    FORLOC:  cpu time    0.0185: real time    0.0185
    FORNL :  cpu time    0.5977: real time    1.0430
    STRESS:  cpu time    1.0172: real time    1.8848
    FORCOR:  cpu time    0.0808: real time    0.0809
    FORHAR:  cpu time    0.0180: real time    0.0181
    MIXING:  cpu time    0.0031: real time    0.0031
    OFIELD:  cpu time    0.0010: real time    0.0000

  FORCE on cell =-STRESS in cart. coord.  units (eV):
  Direction    XX          YY          ZZ          XY          YZ          ZX
  --------------------------------------------------------------------------------------
  Alpha Z     2.21181     2.21181     2.21181
  Ewald    -234.67793  -234.67792  -196.57722    -0.00000    -0.00001     0.00000
  Hartree    11.99774    11.99774    22.13541     0.00000     0.00000    -0.00000
  E(xc)     -70.21569   -70.21569   -69.76224    -0.00000     0.00000    -0.00000
  Local    -115.20368  -115.20373  -154.57008    -0.00004     0.00000    -0.00000
  n-local   331.49691   332.35927   327.85554    -1.12631    -0.70425    -1.18786
  augment   -81.03030   -81.03025   -78.88687     0.00004    -0.00000     0.00000
  Kinetic   151.78610   158.13695   147.62983    -7.11718     0.19681     1.58771
  Fock        0.00000     0.00000     0.00000     0.00000     0.00000     0.00000
  -------------------------------------------------------------------------------------
  Total      -0.02843    -0.02843     0.03618     0.00000     0.00000     0.00000
  in kB      -0.43096    -0.43096     0.54843     0.00000     0.00000     0.00000
  external pressure =       -0.10 kB  Pullay stress =        0.00 kB


 VOLUME and BASIS-vectors are now :
 -----------------------------------------------------------------------------
  energy-cutoff  :      520.00
  volume of cell :      105.68
      direct lattice vectors                 reciprocal lattice vectors
     4.531583679 -0.000000000  0.000000000     0.220673405  0.127405850  0.000000000
    -2.265791840  3.924466586 -0.000000000    -0.000000000  0.254811699  0.000000000
     0.000000000 -0.000000000  5.942618530    -0.000000000  0.000000000  0.168275987

  length of vectors
     4.531583679  4.531583679  5.942618530     0.254811699  0.254811699  0.168275987


 FORCES acting on ions
    electron-ion (+dipol)            ewald-force                    non-local-force                 convergence-correction
 -----------------------------------------------------------------------------------------------
   -.125E+02 0.121E-04 -.114E-05   0.177E+02 0.155E-05 0.169E-05   -.520E+01 -.277E-16 0.278E-16   -.571E-03 -.372E-08 0.176E-09
   0.625E+01 -.108E+02 -.183E-04   -.886E+01 0.153E+02 -.809E-05   0.260E+01 -.451E+01 0.000E+00   0.285E-03 -.494E-03 -.171E-09
   0.625E+01 0.108E+02 0.191E-04   -.886E+01 -.153E+02 0.640E-05   0.260E+01 0.451E+01 0.000E+00   0.285E-03 0.494E-03 0.160E-11
 -----------------------------------------------------------------------------------------------
   0.260E-04 -.752E-05 -.305E-06   0.000E+00 0.355E-14 -.173E-17   0.444E-15 -.888E-15 0.278E-16   -.113E-08 -.202E-08 0.645E-11
 
 
 POSITION                                       TOTAL-FORCE (eV/Angst)
 -----------------------------------------------------------------------------------
      1.21259     -0.00000      1.98087         0.015379     -0.000000      0.000000
     -0.60629      1.05013      3.96175        -0.007690      0.013319     -0.000000
      1.65950      2.87434     -0.00000        -0.007690     -0.013319      0.000000
 -----------------------------------------------------------------------------------
    total drift:                                0.000026     -0.000008     -0.000000


--------------------------------------------------------------------------------------------------------



  FREE ENERGIE OF THE ION-ELECTRON SYSTEM (eV)
  ---------------------------------------------------
  free  energy   TOTEN  =        -9.42576055 eV

  energy  without entropy=       -9.42575821  energy(sigma->0) =       -9.42575938
 
 d Force =-0.2663306E-05[-0.271E-05,-0.262E-05]  d Energy = 0.1138542E-06-0.278E-05
 d Force =-0.3122021E-02[-0.312E-02,-0.312E-02]  d Ewald  =-0.4755056E-02 0.163E-02


--------------------------------------------------------------------------------------------------------


    POTLOK:  cpu time    0.0847: real time    0.0858


--------------------------------------------------------------------------------------------------------




--------------------------------------------------------------------------------------------------------


    WAVPRE:  cpu time    0.0190: real time    0.0360
    FEWALD:  cpu time    0.0003: real time    0.0132
    GENKIN:  cpu time    0.0314: real time    0.0630
    ORTHCH:  cpu time    0.1453: real time    0.1459
     LOOP+:  cpu time    5.5319: real time    9.2180


--------------------------------------- Iteration     11(   1)  ---------------------------------------


    POTLOK:  cpu time    0.1246: real time    0.2495
    SETDIJ:  cpu time    0.0155: real time    0.0325
     EDDAV:  cpu time    2.7734: real time    3.8468
       DOS:  cpu time    0.0025: real time    0.0024
    CHARGE:  cpu time    0.2617: real time    0.2844
    MIXING:  cpu time    0.0030: real time    0.0030
    --------------------------------------------
      LOOP:  cpu time    3.1807: real time    4.4187

 eigenvalue-minimisations  :  1204
 total energy-change (2. order) :-0.1201886E-03  (-0.6129087E-03)
 number of electron      17.9999995 magnetization 
 augmentation part       -3.6067962 magnetization 

 Broyden mixing:
  rms(total) = 0.58771E-02    rms(broyden)= 0.58770E-02
  rms(prec ) = 0.74781E-02
  weight for this iteration     100.00

 Free energy of the ion-electron system (eV)
  ---------------------------------------------------
  alpha Z        PSCENC =         2.21316382
  Ewald energy   TEWEN  =      -666.17885640
  -Hartree energ DENC   =       -46.07608923
  -exchange      EXHF   =         0.00000000
  -V(xc)+E(xc)   XCENC  =       -84.16480592
  PAW double counting   =      1468.12698975    -1352.75090390
  entropy T*S    EENTRO =        -0.00000293
  eigenvalues    EBANDS =        -0.40968191
  atomic energy  EATOM  =       669.81430600
  Solvation  Ediel_sol  =         0.00000000
  ---------------------------------------------------
  free energy    TOTEN  =        -9.42588072 eV

  energy without entropy =       -9.42587779  energy(sigma->0) =       -9.42587926


--------------------------------------------------------------------------------------------------------




--------------------------------------- Iteration     11(   2)  ---------------------------------------


    POTLOK:  cpu time    0.1541: real time    0.1716
    SETDIJ:  cpu time    0.0172: real time    0.0175
     EDDAV:  cpu time    3.9948: real time    5.7676
       DOS:  cpu time    0.0025: real time    0.0025
    CHARGE:  cpu time    0.1552: real time    0.3139
    MIXING:  cpu time    0.0094: real time    0.0180
    --------------------------------------------
      LOOP:  cpu time    4.3333: real time    6.2910

 eigenvalue-minimisations  :  1408
 total energy-change (2. order) : 0.9166024E-07  (-0.2565334E-04)
 number of electron      17.9999995 magnetization 
 augmentation part       -3.6069715 magnetization 

 Broyden mixing:
  rms(total) = 0.16443E-02    rms(broyden)= 0.16442E-02
  rms(prec ) = 0.32689E-02
  weight for this iteration     100.00

 eigenvalues of (default mixing * dielectric matrix)
  average eigenvalue GAMMA=   1.0707
  1.0707

 Free energy of the ion-electron system (eV)
  ---------------------------------------------------
  alpha Z        PSCENC =         2.21316382
  Ewald energy   TEWEN  =      -666.17885640
  -Hartree energ DENC   =       -46.04550345
  -exchange      EXHF   =         0.00000000
  -V(xc)+E(xc)   XCENC  =       -84.16475532
  PAW double counting   =      1466.67172109    -1351.29486792
  entropy T*S    EENTRO =        -0.00000296
  eigenvalues    EBANDS =        -0.44108548
  atomic energy  EATOM  =       669.81430600
  Solvation  Ediel_sol  =         0.00000000
  ---------------------------------------------------
  free energy    TOTEN  =        -9.42588063 eV

  energy without entropy =       -9.42587766  energy(sigma->0) =       -9.42587915


--------------------------------------------------------------------------------------------------------




--------------------------------------- Iteration     11(   3)  ---------------------------------------


    POTLOK:  cpu time    0.1436: real time    0.2041
    SETDIJ:  cpu time    0.0342: real time    0.0343
     EDDAV:  cpu time    2.5845: real time    3.2678
       DOS:  cpu time    0.0025: real time    0.0025
    --------------------------------------------
      LOOP:  cpu time    2.7648: real time    3.5087

 eigenvalue-minimisations  :   908
 total energy-change (2. order) : 0.9962065E-05  (-0.1260224E-05)
 number of electron      17.9999995 magnetization 
 augmentation part       -3.6069715 magnetization 

 Free energy of the ion-electron system (eV)
  ---------------------------------------------------
  alpha Z        PSCENC =         2.21316382
  Ewald energy   TEWEN  =      -666.17885640
  -Hartree energ DENC   =       -46.02404140
  -exchange      EXHF   =         0.00000000
  -V(xc)+E(xc)   XCENC  =       -84.16440246
  PAW double counting   =      1466.76183302    -1351.38453413
  entropy T*S    EENTRO =        -0.00000302
  eigenvalues    EBANDS =        -0.46333610
  atomic energy  EATOM  =       669.81430600
  Solvation  Ediel_sol  =         0.00000000
  ---------------------------------------------------
  free energy    TOTEN  =        -9.42587066 eV

  energy without entropy =       -9.42586765  energy(sigma->0) =       -9.42586916


--------------------------------------------------------------------------------------------------------




 average (electrostatic) potential at core
  the test charge radii are     1.1897
  (the norm of the test charge is              1.0000)
       1 -89.4169       2 -89.4169       3 -89.4169
 
 
 
 E-fermi :   5.6045     XC(G=0):  -8.9060     alpha+bet :-10.1816


 k-point     1 :       0.0000    0.0000    0.0000
  band No.  band energies     occupation 
      1      -7.8708      2.00000
      2      -4.7054      2.00000
      3      -4.7054      2.00000
      4       2.5048      2.00000
      5       2.7675      2.00000
      6       2.7675      2.00000
      7       3.8802      2.00000
      8       3.8802      2.00000
      9       4.7002      2.00000
     10       6.4860      0.00000
     11       6.4860      0.00000
     12       7.0273      0.00000
     13      10.5434      0.00000
     14      10.5434      0.00000

 k-point     2 :       0.1111    0.0000    0.0000
  band No.  band energies     occupation 
      1      -7.7930      2.00000
      2      -4.7347      2.00000
      3      -4.6884      2.00000
      4       1.9345      2.00000
      5       2.3875      2.00000
      6       2.6256      2.00000
      7       4.1123      2.00000
      8       4.3993      2.00000
      9       4.8557      2.00000
     10       6.2339      0.00000
     11       6.4316      0.00000
     12       6.9289      0.00000
     13      10.3039      0.00000
     14      10.4941      0.00000

 k-point     3 :       0.2222    0.0000    0.0000
  band No.  band energies     occupation 
      1      -7.5708      2.00000
      2      -4.8543      2.00000
      3      -4.6415      2.00000
      4       1.2218      2.00000
      5       1.8699      2.00000
      6       2.2986      2.00000
      7       4.2382      2.00000
      8       4.5233      2.00000
      9       4.6915      2.00000
     10       6.3497      0.00000
     11       6.5093      0.00000
     12       7.0902      0.00000
     13       9.5872      0.00000
     14      10.6880      0.00000

 k-point     4 :       0.3333   -0.0000    0.0000
  band No.  band energies     occupation 
      1      -7.2490      2.00000
      2      -5.1005      2.00000
      3      -4.5821      2.00000
      4       0.8858      2.00000
      5       1.4663      2.00000
      6       2.0270      2.00000
      7       3.2619      2.00000
      8       4.5571      2.00000
      9       4.7173      2.00000
     10       6.3488      0.00000
     11       6.4947      0.00000
     12       8.1344      0.00000
     13       8.9678      0.00000
     14      11.4006      0.00000

 k-point     5 :       0.4444    0.0000    0.0000
  band No.  band energies     occupation 
      1      -6.9574      2.00000
      2      -5.3685      2.00000
      3      -4.5401      2.00000
      4       0.8682      2.00000
      5       1.2804      2.00000
      6       1.9723      2.00000
      7       2.4028      2.00000
      8       4.5181      2.00000
      9       4.7118      2.00000
     10       6.3568      0.00000
     11       6.4288      0.00000
     12       8.6364      0.00000
     13       8.9501      0.00000
     14      12.4452      0.00000

 k-point     6 :       0.1111    0.1111    0.0000
  band No.  band energies     occupation 
      1      -7.6427      2.00000
      2      -4.7948      2.00000
      3      -4.6720      2.00000
      4       1.4555      2.00000
      5       1.7622      2.00000
      6       2.6762      2.00000
      7       3.9615      2.00000
      8       4.7207      2.00000
      9       4.7687      2.00000
     10       6.2282      0.00000
     11       6.5499      0.00000
     12       7.0039      0.00000
     13      10.0701      0.00000
     14      10.1629      0.00000

 k-point     7 :       0.2222    0.1111    0.0000
  band No.  band energies     occupation 
      1      -7.3677      2.00000
      2      -4.9549      2.00000
      3      -4.6528      2.00000
      4       1.0263      2.00000
      5       1.3688      2.00000
      6       2.4166      2.00000
      7       3.7523      2.00000
      8       4.0662      2.00000
      9       4.4932      2.00000
     10       6.6628      0.00000
     11       6.9708      0.00000
     12       7.5045      0.00000
     13       9.5015      0.00000
     14      10.4169      0.00000

 k-point     8 :       0.3333    0.1111    0.0000
  band No.  band energies     occupation 
      1      -7.0450      2.00000
      2      -5.2161      2.00000
      3      -4.6302      2.00000
      4       0.9052      2.00000
      5       1.2374      2.00000
      6       2.1094      2.00000
      7       2.8406      2.00000
      8       4.0277      2.00000
      9       4.2571      2.00000
     10       6.8045      0.00000
     11       7.0284      0.00000
     12       8.5176      0.00000
     13       9.0870      0.00000
     14      11.2753      0.00000

 k-point     9 :       0.4444    0.1111    0.0000
  band No.  band energies     occupation 
      1      -6.8743      2.00000
      2      -5.3733      2.00000
      3      -4.6199      2.00000
      4       0.9380      2.00000
      5       1.2404      2.00000
      6       2.1250      2.00000
      7       2.2445      2.00000
      8       4.0540      2.00000
      9       4.1480      2.00000
     10       6.8228      0.00000
     11       7.0411      0.00000
     12       8.9417      0.00000
     13       8.9804      0.00000
     14      12.1910      0.00000

 k-point    10 :       0.2222    0.2222    0.0000
  band No.  band energies     occupation 
      1      -7.0815      2.00000
      2      -5.0798      2.00000
      3      -4.7462      2.00000
      4       1.0127      2.00000
      5       1.0930      2.00000
      6       2.4014      2.00000
      7       3.2782      2.00000
      8       3.5941      2.00000
      9       3.6482      2.00000
     10       7.4125      0.00000
     11       7.6776      0.00000
     12       7.8570      0.00000
     13       9.8348      0.00000
     14      10.2076      0.00000

 k-point    11 :       0.3333    0.2222    0.0000
  band No.  band energies     occupation 
      1      -6.8358      2.00000
      2      -5.2228      2.00000
      3      -4.8281      2.00000
      4       1.0687      2.00000
      5       1.1803      2.00000
      6       2.2739      2.00000
      7       2.6145      2.00000
      8       3.2895      2.00000
      9       3.3897      2.00000
     10       7.6415      0.00000
     11       7.9190      0.00000
     12       8.5989      0.00000
     13       9.7754      0.00000
     14      11.0399      0.00000

 k-point    12 :       0.3333    0.3333    0.0000
  band No.  band energies     occupation 
      1      -6.7433      2.00000
      2      -5.0751      2.00000
      3      -5.0751      2.00000
      4       1.2033      2.00000
      5       1.2033      2.00000
      6       2.5766      2.00000
      7       2.5766      2.00000
      8       2.6890      2.00000
      9       2.9864      2.00000
     10       8.2478      0.00000
     11       8.2478      0.00000
     12       8.5229      0.00000
     13      10.3560      0.00000
     14      11.3084      0.00000

 k-point    13 :       0.0000    0.0000    0.2500
  band No.  band energies     occupation 
      1      -7.6523      2.00000
      2      -5.9907      2.00000
      3      -3.4194      2.00000
      4       2.1371      2.00000
      5       2.6284      2.00000
      6       3.0275      2.00000
      7       4.0551      2.00000
      8       4.0706      2.00000
      9       4.6671      2.00000
     10       6.1510      0.00000
     11       6.2241      0.00000
     12       6.5222      0.00000
     13      10.0134      0.00000
     14      10.9939      0.00000

 k-point    14 :       0.1111    0.0000    0.2500
  band No.  band energies     occupation 
      1      -7.5780      2.00000
      2      -5.9455      2.00000
      3      -3.5223      2.00000
      4       1.8850      2.00000
      5       2.4769      2.00000
      6       2.8984      2.00000
      7       3.8053      2.00000
      8       4.2003      2.00000
      9       4.3351      2.00000
     10       6.4000      0.00000
     11       6.5400      0.00000
     12       6.8853      0.00000
     13      10.0676      0.00000
     14      10.9945      0.00000

 k-point    15 :       0.2222    0.0000    0.2500
  band No.  band energies     occupation 
      1      -7.3698      2.00000
      2      -5.8159      2.00000
      3      -3.8376      2.00000
      4       1.5564      2.00000
      5       2.1005      2.00000
      6       2.6582      2.00000
      7       3.2048      2.00000
      8       3.7672      2.00000
      9       4.2578      2.00000
     10       6.8052      0.00000
     11       7.2677      0.00000
     12       7.6401      0.00000
     13      10.3055      0.00000
     14      10.7470      0.00000

 k-point    16 :       0.3333   -0.0000    0.2500
  band No.  band energies     occupation 
      1      -7.0761      2.00000
      2      -5.6570      2.00000
      3      -4.2621      2.00000
      4       1.2385      2.00000
      5       1.5906      2.00000
      6       2.3442      2.00000
      7       2.8005      2.00000
      8       3.7632      2.00000
      9       4.1790      2.00000
     10       6.8696      0.00000
     11       7.4461      0.00000
     12       8.4913      0.00000
     13       9.9136      0.00000
     14      11.1950      0.00000

 k-point    17 :       0.4444    0.0000    0.2500
  band No.  band energies     occupation 
      1      -6.8090      2.00000
      2      -5.6316      2.00000
      3      -4.4971      2.00000
      4       0.6969      2.00000
      5       1.3121      2.00000
      6       2.0719      2.00000
      7       3.2251      2.00000
      8       3.7945      2.00000
      9       4.1230      2.00000
     10       6.7749      0.00000
     11       7.4167      0.00000
     12       8.3955      0.00000
     13       9.4768      0.00000
     14      11.6639      0.00000

 k-point    18 :      -0.4444   -0.0000    0.2500
  band No.  band energies     occupation 
      1      -6.7812      2.00000
      2      -5.7493      2.00000
      3      -4.3484      2.00000
      4       0.3897      2.00000
      5       1.2346      2.00000
      6       2.0338      2.00000
      7       3.8659      2.00000
      8       3.9121      2.00000
      9       4.2689      2.00000
     10       6.6382      0.00000
     11       7.2336      0.00000
     12       7.6794      0.00000
     13       9.1879      0.00000
     14      12.1733      0.00000

 k-point    19 :      -0.3333    0.0000    0.2500
  band No.  band energies     occupation 
      1      -7.0462      2.00000
      2      -5.8015      2.00000
      3      -4.0337      2.00000
      4       0.5664      2.00000
      5       1.3319      2.00000
      6       2.1735      2.00000
      7       4.1127      2.00000
      8       4.1404      2.00000
      9       5.0066      2.00000
     10       6.3271      0.00000
     11       6.8692      0.00000
     12       7.0127      0.00000
     13       9.0941      0.00000
     14      12.1349      0.00000

 k-point    20 :      -0.2222   -0.0000    0.2500
  band No.  band energies     occupation 
      1      -7.3594      2.00000
      2      -5.8692      2.00000
      3      -3.7252      2.00000
      4       1.2153      2.00000
      5       1.6049      2.00000
      6       2.4481      2.00000
      7       4.3072      2.00000
      8       4.4189      2.00000
      9       5.0420      2.00000
     10       6.1194      0.00000
     11       6.4891      0.00000
     12       6.7900      0.00000
     13       9.2964      0.00000
     14      11.6388      0.00000

 k-point    21 :      -0.1111   -0.0000    0.2500
  band No.  band energies     occupation 
      1      -7.5766      2.00000
      2      -5.9524      2.00000
      3      -3.5042      2.00000
      4       1.9039      2.00000
      5       2.1921      2.00000
      6       2.7956      2.00000
      7       4.2305      2.00000
      8       4.3508      2.00000
      9       4.6395      2.00000
     10       6.0959      0.00000
     11       6.1475      0.00000
     12       6.9121      0.00000
     13       9.7804      0.00000
     14      11.0770      0.00000

 k-point    22 :       0.1111    0.1111    0.2500
  band No.  band energies     occupation 
      1      -7.4332      2.00000
      2      -5.8747      2.00000
      3      -3.6951      2.00000
      4       1.5609      2.00000
      5       1.8638      2.00000
      6       2.6693      2.00000
      7       3.7109      2.00000
      8       4.2298      2.00000
      9       4.6321      2.00000
     10       6.3919      0.00000
     11       6.8796      0.00000
     12       7.0581      0.00000
     13       9.7849      0.00000
     14      11.0663      0.00000

 k-point    23 :       0.2222    0.1111    0.2500
  band No.  band energies     occupation 
      1      -7.1780      2.00000
      2      -5.7322      2.00000
      3      -4.0712      2.00000
      4       1.2193      2.00000
      5       1.6199      2.00000
      6       2.5259      2.00000
      7       2.8323      2.00000
      8       3.8397      2.00000
      9       4.7655      2.00000
     10       6.5870      0.00000
     11       7.2203      0.00000
     12       8.0985      0.00000
     13      10.1294      0.00000
     14      10.5919      0.00000

 k-point    24 :       0.3333    0.1111    0.2500
  band No.  band energies     occupation 
      1      -6.8857      2.00000
      2      -5.6179      2.00000
      3      -4.4433      2.00000
      4       0.9380      2.00000
      5       1.1949      2.00000
      6       2.2219      2.00000
      7       2.8812      2.00000
      8       3.5392      2.00000
      9       4.8024      2.00000
     10       6.5066      0.00000
     11       7.5649      0.00000
     12       8.5135      0.00000
     13       9.7849      0.00000
     14      11.2475      0.00000

 k-point    25 :       0.4444    0.1111    0.2500
  band No.  band energies     occupation 
      1      -6.7182      2.00000
      2      -5.6741      2.00000
      3      -4.5025      2.00000
      4       0.5289      2.00000
      5       1.0900      2.00000
      6       2.1076      2.00000
      7       3.0883      2.00000
      8       3.7398      2.00000
      9       4.8165      2.00000
     10       6.4095      0.00000
     11       7.6477      0.00000
     12       8.0523      0.00000
     13       9.5231      0.00000
     14      11.9771      0.00000

 k-point    26 :      -0.4444    0.1111    0.2500
  band No.  band energies     occupation 
      1      -6.8575      2.00000
      2      -5.7463      2.00000
      3      -4.2707      2.00000
      4       0.4484      2.00000
      5       1.2323      2.00000
      6       2.1279      2.00000
      7       3.1333      2.00000
      8       4.4565      2.00000
      9       4.8909      2.00000
     10       6.2882      0.00000
     11       7.1550      0.00000
     12       7.6550      0.00000
     13       9.4060      0.00000
     14      11.8486      0.00000

 k-point    27 :      -0.3333    0.1111    0.2500
  band No.  band energies     occupation 
      1      -7.1658      2.00000
      2      -5.7928      2.00000
      3      -3.9649      2.00000
      4       0.8611      2.00000
      5       1.4790      2.00000
      6       2.3292      2.00000
      7       3.3384      2.00000
      8       4.5754      2.00000
      9       5.2136      2.00000
     10       6.0927      0.00000
     11       6.7326      0.00000
     12       7.4368      0.00000
     13       9.4564      0.00000
     14      11.2611      0.00000

 k-point    28 :       0.2222    0.2222    0.2500
  band No.  band energies     occupation 
      1      -6.9034      2.00000
      2      -5.6779      2.00000
      3      -4.3283      2.00000
      4       0.6836      2.00000
      5       1.3208      2.00000
      6       2.1322      2.00000
      7       2.7159      2.00000
      8       4.1823      2.00000
      9       5.0898      2.00000
     10       6.4111      0.00000
     11       7.1440      0.00000
     12       8.2342      0.00000
     13      10.0641      0.00000
     14      10.6538      0.00000

 k-point    29 :       0.3333    0.2222    0.2500
  band No.  band energies     occupation 
      1      -6.6808      2.00000
      2      -5.6191      2.00000
      3      -4.5874      2.00000
      4       0.6634      2.00000
      5       0.9675      2.00000
      6       1.8194      2.00000
      7       2.9569      2.00000
      8       3.8314      2.00000
      9       4.8876      2.00000
     10       6.6388      0.00000
     11       7.6946      0.00000
     12       8.2481      0.00000
     13      10.1233      0.00000
     14      11.1562      0.00000

 k-point    30 :       0.4444    0.2222    0.2500
  band No.  band energies     occupation 
      1      -6.6725      2.00000
      2      -5.6547      2.00000
      3      -4.5465      2.00000
      4       0.5252      2.00000
      5       1.0398      2.00000
      6       1.8316      2.00000
      7       2.8983      2.00000
      8       4.1470      2.00000
      9       4.7449      2.00000
     10       6.7572      0.00000
     11       7.4819      0.00000
     12       8.1190      0.00000
     13      10.0359      0.00000
     14      11.3842      0.00000

 k-point    31 :       0.3333    0.3333    0.2500
  band No.  band energies     occupation 
      1      -6.5892      2.00000
      2      -5.6135      2.00000
      3      -4.6648      2.00000
      4       0.6172      2.00000
      5       0.9438      2.00000
      6       1.5020      2.00000
      7       3.1286      2.00000
      8       4.0447      2.00000
      9       4.4699      2.00000
     10       7.2373      0.00000
     11       7.7785      0.00000
     12       7.8622      0.00000
     13      10.8222      0.00000
     14      11.0839      0.00000

 k-point    32 :       0.0000    0.0000    0.5000
  band No.  band energies     occupation 
      1      -7.0098      2.00000
      2      -7.0098      2.00000
      3      -2.7846      2.00000
      4       1.7264      2.00000
      5       2.8911      2.00000
      6       2.8911      2.00000
      7       4.2329      2.00000
      8       4.4744      2.00000
      9       4.4744      2.00000
     10       5.9597      0.00000
     11       5.9597      0.00000
     12       5.9945      0.00000
     13       9.6723      0.00000
     14      10.7878      0.00000

 k-point    33 :       0.1111    0.0000    0.5000
  band No.  band energies     occupation 
      1      -6.9530      2.00000
      2      -6.9370      2.00000
      3      -2.9498      2.00000
      4       1.6745      2.00000
      5       2.7231      2.00000
      6       2.8065      2.00000
      7       3.7749      2.00000
      8       4.1035      2.00000
      9       4.3285      2.00000
     10       6.2015      0.00000
     11       6.3643      0.00000
     12       6.7775      0.00000
     13       9.8814      0.00000
     14      10.5184      0.00000

 k-point    34 :       0.2222    0.0000    0.5000
  band No.  band energies     occupation 
      1      -6.8005      2.00000
      2      -6.7284      2.00000
      3      -3.3777      2.00000
      4       1.3272      2.00000
      5       2.2034      2.00000
      6       2.5305      2.00000
      7       3.5851      2.00000
      8       3.7496      2.00000
      9       4.1623      2.00000
     10       6.6573      0.00000
     11       7.0652      0.00000
     12       7.5660      0.00000
     13      10.0552      0.00000
     14      10.7245      0.00000

 k-point    35 :       0.3333   -0.0000    0.5000
  band No.  band energies     occupation 
      1      -6.6092      2.00000
      2      -6.4237      2.00000
      3      -3.9105      2.00000
      4       0.6213      2.00000
      5       1.9668      2.00000
      6       2.2369      2.00000
      7       3.3421      2.00000
      8       3.6255      2.00000
      9       4.5167      2.00000
     10       6.9371      0.00000
     11       7.4500      0.00000
     12       7.6591      0.00000
     13      10.0732      0.00000
     14      11.0718      0.00000

 k-point    36 :       0.4444    0.0000    0.5000
  band No.  band energies     occupation 
      1      -6.4712      2.00000
      2      -6.1447      2.00000
      3      -4.3287      2.00000
      4       0.1383      2.00000
      5       1.9282      2.00000
      6       2.0253      2.00000
      7       3.1859      2.00000
      8       3.5249      2.00000
      9       5.1718      2.00000
     10       6.4839      0.00000
     11       7.4038      0.00000
     12       7.9336      0.00000
     13      10.1320      0.00000
     14      10.8902      0.00000

 k-point    37 :       0.1111    0.1111    0.5000
  band No.  band energies     occupation 
      1      -6.8445      2.00000
      2      -6.7998      2.00000
      3      -3.2439      2.00000
      4       1.4984      2.00000
      5       2.3894      2.00000
      6       2.4521      2.00000
      7       3.5649      2.00000
      8       3.7215      2.00000
      9       4.5648      2.00000
     10       6.1113      0.00000
     11       7.2204      0.00000
     12       7.3479      0.00000
     13      10.2635      0.00000
     14      10.2853      0.00000

 k-point    38 :       0.2222    0.1111    0.5000
  band No.  band energies     occupation 
      1      -6.6616      2.00000
      2      -6.5502      2.00000
      3      -3.7150      2.00000
      4       0.9908      2.00000
      5       1.8340      2.00000
      6       2.0189      2.00000
      7       3.5732      2.00000
      8       3.9348      2.00000
      9       4.5623      2.00000
     10       6.4513      0.00000
     11       7.5264      0.00000
     12       7.6741      0.00000
     13      10.1340      0.00000
     14      10.9236      0.00000

 k-point    39 :       0.3333    0.1111    0.5000
  band No.  band energies     occupation 
      1      -6.4830      2.00000
      2      -6.2550      2.00000
      3      -4.1883      2.00000
      4       0.3838      2.00000
      5       1.5744      2.00000
      6       1.7163      2.00000
      7       3.6522      2.00000
      8       4.0137      2.00000
      9       4.8891      2.00000
     10       6.6909      0.00000
     11       7.2154      0.00000
     12       7.7367      0.00000
     13      10.1866      0.00000
     14      11.1464      0.00000

 k-point    40 :       0.4444    0.1111    0.5000
  band No.  band energies     occupation 
      1      -6.4069      2.00000
      2      -6.0982      2.00000
      3      -4.4120      2.00000
      4       0.1373      2.00000
      5       1.5204      2.00000
      6       1.5867      2.00000
      7       3.7589      2.00000
      8       3.8741      2.00000
      9       5.3772      2.00000
     10       6.2960      0.00000
     11       7.2484      0.00000
     12       7.7355      0.00000
     13      10.2800      0.00000
     14      10.9383      0.00000

 k-point    41 :       0.2222    0.2222    0.5000
  band No.  band energies     occupation 
      1      -6.4656      2.00000
      2      -6.3245      2.00000
      3      -4.1175      2.00000
      4       0.6790      2.00000
      5       1.1750      2.00000
      6       1.4856      2.00000
      7       4.0185      2.00000
      8       4.3369      2.00000
      9       4.9739      2.00000
     10       6.3189      0.00000
     11       7.3987      0.00000
     12       7.4776      0.00000
     13      10.3893      0.00000
     14      11.2444      0.00000

 k-point    42 :       0.3333    0.2222    0.5000
  band No.  band energies     occupation 
      1      -6.3138      2.00000
      2      -6.1432      2.00000
      3      -4.4144      2.00000
      4       0.3764      2.00000
      5       0.9483      2.00000
      6       1.1134      2.00000
      7       4.3402      2.00000
      8       4.7077      2.00000
      9       5.2970      2.00000
     10       6.2634      0.00000
     11       6.9553      0.00000
     12       7.2478      0.00000
     13      10.7334      0.00000
     14      11.4480      0.00000

 k-point    43 :       0.3333    0.3333    0.5000
  band No.  band energies     occupation 
      1      -6.1706      2.00000
      2      -6.1706      2.00000
      3      -4.4979      2.00000
      4       0.5435      2.00000
      5       0.7106      2.00000
      6       0.7106      2.00000
      7       4.6129      2.00000
      8       5.4882      1.99900
      9       5.4882      1.99900
     10       5.7138      0.00200
     11       6.8478      0.00000
     12       6.8478      0.00000
     13      11.3862      0.00000
     14      12.0171      0.00000


--------------------------------------------------------------------------------------------------------


 soft charge-density along one line, spin component           1
         0         1         2         3         4         5         6         7         8         9
 total charge-density along one line
 
 pseudopotential strength for first ion, spin component:           1
 51.810  56.370  -0.000  -0.000  -0.050  -0.000  -0.000  -0.073
 56.370  61.335  -0.000  -0.000  -0.055  -0.000  -0.000  -0.079
 -0.000  -0.000  12.748   0.010   0.000  18.376   0.014   0.000
 -0.000  -0.000   0.010  12.764   0.000   0.014  18.399   0.000
 -0.050  -0.055   0.000   0.000  12.765   0.000   0.000  18.399
 -0.000  -0.000  18.376   0.014   0.000  26.498   0.021   0.000
 -0.000  -0.000   0.014  18.399   0.000   0.021  26.531   0.000
 -0.073  -0.079   0.000   0.000  18.399   0.000   0.000  26.532
  0.000   0.000  -0.010   0.000  -0.000  -0.014   0.001  -0.000
  0.015   0.017   0.000  -0.000   0.000   0.000  -0.000   0.001
  0.007   0.008   0.000  -0.000   0.006   0.000  -0.000   0.009
  0.000   0.000   0.000  -0.009  -0.000   0.001  -0.013  -0.000
  0.013   0.014   0.000  -0.000  -0.010   0.000  -0.000  -0.014
 total augmentation occupancy for first ion, spin component:           1
 12.782  -9.267   0.000   0.000   2.199   0.000   0.000  -0.575   0.000  -0.163  -0.091   0.000  -0.116
 -9.267   7.967   0.000  -0.000  -1.842   0.000   0.000   0.490   0.000   0.148   0.082   0.000   0.105
  0.000   0.000   2.492   0.221   0.000  -0.463  -0.196   0.000  -0.055   0.000   0.000  -0.050   0.000
  0.000   0.000   0.221   2.838   0.000  -0.196  -0.771  -0.000  -0.049   0.000   0.000  -0.122   0.000
  2.199  -1.842   0.000   0.000   2.733   0.000  -0.000  -0.715   0.000  -0.055  -0.015   0.000  -0.055
  0.000   0.000  -0.463  -0.196   0.000   0.165   0.073   0.000   0.013   0.000   0.000   0.018   0.000
 -0.000  -0.000  -0.196  -0.771  -0.000   0.073   0.276   0.000   0.018   0.000   0.000   0.037  -0.000
 -0.575   0.490   0.000  -0.000  -0.715   0.000  -0.000   0.247   0.000   0.016   0.003   0.000   0.014
  0.000   0.000  -0.055  -0.049   0.000   0.013   0.018   0.000   0.009   0.000   0.000   0.010   0.000
 -0.163   0.148   0.000   0.000  -0.055   0.000   0.000   0.016   0.000   0.013   0.004   0.000   0.003
 -0.091   0.082   0.000   0.000  -0.015   0.000   0.000   0.003   0.000   0.004   0.007   0.000  -0.001
  0.000   0.000  -0.050  -0.122   0.000   0.018   0.037   0.000   0.010   0.000  -0.000   0.025   0.000
 -0.116   0.105   0.000   0.000  -0.055   0.000   0.000   0.014   0.000   0.003  -0.001   0.000   0.009


------------------------ aborting loop because EDIFF is reached ----------------------------------------


    CHARGE:  cpu time    0.1325: real time    0.2757
    FORLOC:  cpu time    0.0078: real time    0.0163
    FORNL :  cpu time    0.8047: real time    1.0063
    STRESS:  cpu time    1.5295: real time    2.0819
    FORCOR:  cpu time    0.1152: real time    0.2310
    FORHAR:  cpu time    0.0254: real time    0.0510
    MIXING:  cpu time    0.0033: real time    0.0033
    OFIELD:  cpu time    0.0000: real time    0.0000

  FORCE on cell =-STRESS in cart. coord.  units (eV):
  Direction    XX          YY          ZZ          XY          YZ          ZX
  --------------------------------------------------------------------------------------
  Alpha Z     2.21316     2.21316     2.21316
  Ewald    -234.70584  -234.70584  -196.76791    -0.00000    -0.00001     0.00000
  Hartree    11.97370    11.97370    22.05192     0.00000     0.00000    -0.00000
  E(xc)     -70.21560   -70.21560   -69.75885    -0.00000     0.00000     0.00000
  Local    -115.12844  -115.12849  -154.27620    -0.00004     0.00000    -0.00000
  n-local   331.45196   332.31248   327.78934    -1.13231    -0.70500    -1.19085
  augment   -81.01957   -81.01952   -78.87815     0.00005    -0.00000     0.00000
  Kinetic   151.75262   158.11588   147.61568    -7.12448     0.19178     1.58402
  Fock        0.00000     0.00000     0.00000     0.00000     0.00000     0.00000
  -------------------------------------------------------------------------------------
  Total      -0.06611    -0.06611    -0.01100     0.00000     0.00000     0.00000
  in kB      -1.00292    -1.00292    -0.16689     0.00000     0.00000     0.00000
  external pressure =       -0.72 kB  Pullay stress =        0.00 kB


 VOLUME and BASIS-vectors are now :
 -----------------------------------------------------------------------------
  energy-cutoff  :      520.00
  volume of cell :      105.62
      direct lattice vectors                 reciprocal lattice vectors
     4.528886499 -0.000000000  0.000000000     0.220804827  0.127481726 -0.000000000
    -2.264443250  3.922130759 -0.000000000    -0.000000000  0.254963453  0.000000000
     0.000000000 -0.000000000  5.946062075    -0.000000000  0.000000000  0.168178534

  length of vectors
     4.528886499  4.528886499  5.946062075     0.254963453  0.254963453  0.168178534


 FORCES acting on ions
    electron-ion (+dipol)            ewald-force                    non-local-force                 convergence-correction
 -----------------------------------------------------------------------------------------------
   -.124E+02 0.121E-04 -.113E-05   0.176E+02 0.155E-05 0.168E-05   -.519E+01 0.473E-19 -.555E-16   -.399E-02 0.370E-07 -.169E-08
   0.619E+01 -.107E+02 -.183E-04   -.878E+01 0.152E+02 -.809E-05   0.259E+01 -.449E+01 0.555E-16   0.199E-02 -.345E-02 0.147E-08
   0.619E+01 0.107E+02 0.192E-04   -.878E+01 -.152E+02 0.641E-05   0.259E+01 0.449E+01 0.000E+00   0.199E-02 0.345E-02 0.234E-09
 -----------------------------------------------------------------------------------------------
   0.260E-04 -.755E-05 -.306E-06   0.000E+00 0.000E+00 -.173E-17   0.000E+00 0.888E-15 0.000E+00   0.895E-08 0.178E-07 0.125E-10
 
 
 POSITION                                       TOTAL-FORCE (eV/Angst)
 -----------------------------------------------------------------------------------
      1.21339     -0.00000      1.98202         0.009174     -0.000000      0.000000
     -0.60670      1.05083      3.96404        -0.004587      0.007945     -0.000000
      1.65775      2.87130     -0.00000        -0.004587     -0.007945      0.000000
 -----------------------------------------------------------------------------------
    total drift:                                0.000026     -0.000008     -0.000000


--------------------------------------------------------------------------------------------------------



  FREE ENERGIE OF THE ION-ELECTRON SYSTEM (eV)
  ---------------------------------------------------
  free  energy   TOTEN  =        -9.42587066 eV

  energy  without entropy=       -9.42586765  energy(sigma->0) =       -9.42586916
 
 d Force = 0.5633852E-04[ 0.421E-04, 0.706E-04]  d Energy = 0.1101196E-03-0.538E-04
 d Force = 0.8096416E-01[ 0.806E-01, 0.813E-01]  d Ewald  = 0.2465142E+00-0.166E+00


--------------------------------------------------------------------------------------------------------


    POTLOK:  cpu time    0.1076: real time    0.2187


--------------------------------------------------------------------------------------------------------


 Conjugate gradient step on ions:
 trial-energy change:   -0.000110  1 .order   -0.000120   -0.000125   -0.000114
  (g-gl).g = 0.103E-03      g.g   = 0.813E-04  gl.gl    = 0.154E-02
 g(Force)  = 0.342E-04   g(Stress)= 0.470E-04 ortho     =-0.115E-04
 gamma     =   0.06724
 trial     =   1.55818
 opt step  =   6.23272  (harmonic =  17.81900) maximal distance =0.00612237
 next E    =    -9.426478   (d E  =  -0.00072)


--------------------------------------------------------------------------------------------------------


    WAVPRE:  cpu time    0.9200: real time    1.5778
    FEWALD:  cpu time    0.0316: real time    0.0572
    GENKIN:  cpu time    0.0576: real time    0.0577
    ORTHCH:  cpu time    0.2276: real time    0.2282
     LOOP+:  cpu time   14.3010: real time   20.1090


--------------------------------------- Iteration     12(   1)  ---------------------------------------


    POTLOK:  cpu time    0.1417: real time    0.2312
    SETDIJ:  cpu time    0.0176: real time    0.0176
     EDDAV:  cpu time    2.4232: real time    3.7319
       DOS:  cpu time    0.0026: real time    0.0026
    CHARGE:  cpu time    0.2579: real time    0.2585
    MIXING:  cpu time    0.0069: real time    0.0069
    --------------------------------------------
      LOOP:  cpu time    2.8499: real time    4.2488

 eigenvalue-minimisations  :  1204
 total energy-change (2. order) :-0.2291395E-03  (-0.5458615E-02)
 number of electron      17.9999993 magnetization 
 augmentation part       -3.6049417 magnetization 

 Broyden mixing:
  rms(total) = 0.17104E-01    rms(broyden)= 0.17104E-01
  rms(prec ) = 0.22129E-01
  weight for this iteration     100.00

 Free energy of the ion-electron system (eV)
  ---------------------------------------------------
  alpha Z        PSCENC =         2.21724115
  Ewald energy   TEWEN  =      -666.91517774
  -Hartree energ DENC   =       -45.84989141
  -exchange      EXHF   =         0.00000000
  -V(xc)+E(xc)   XCENC  =       -84.16771654
  PAW double counting   =      1467.04209878    -1351.66476726
  entropy T*S    EENTRO =        -0.00000571
  eigenvalues    EBANDS =         0.09780296
  atomic energy  EATOM  =       669.81430600
  Solvation  Ediel_sol  =         0.00000000
  ---------------------------------------------------
  free energy    TOTEN  =        -9.42610977 eV

  energy without entropy =       -9.42610406  energy(sigma->0) =       -9.42610691


--------------------------------------------------------------------------------------------------------




--------------------------------------- Iteration     12(   2)  ---------------------------------------


    POTLOK:  cpu time    0.1721: real time    0.1726
    SETDIJ:  cpu time    0.0337: real time    0.0338
     EDDAV:  cpu time    3.1346: real time    4.6289
       DOS:  cpu time    0.0027: real time    0.0027
    CHARGE:  cpu time    0.1355: real time    0.2771
    MIXING:  cpu time    0.0082: real time    0.0169
    --------------------------------------------
      LOOP:  cpu time    3.4869: real time    5.1320

 eigenvalue-minimisations  :  1408
 total energy-change (2. order) : 0.2235417E-05  (-0.2287490E-03)
 number of electron      17.9999993 magnetization 
 augmentation part       -3.6056096 magnetization 

 Broyden mixing:
  rms(total) = 0.49054E-02    rms(broyden)= 0.49054E-02
  rms(prec ) = 0.98558E-02
  weight for this iteration     100.00

 eigenvalues of (default mixing * dielectric matrix)
  average eigenvalue GAMMA=   1.0625
  1.0625

 Free energy of the ion-electron system (eV)
  ---------------------------------------------------
  alpha Z        PSCENC =         2.21724115
  Ewald energy   TEWEN  =      -666.91517774
  -Hartree energ DENC   =       -45.75653162
  -exchange      EXHF   =         0.00000000
  -V(xc)+E(xc)   XCENC  =       -84.16743845
  PAW double counting   =      1462.87714381    -1347.49765834
  entropy T*S    EENTRO =        -0.00000590
  eigenvalues    EBANDS =         0.00201357
  atomic energy  EATOM  =       669.81430600
  Solvation  Ediel_sol  =         0.00000000
  ---------------------------------------------------
  free energy    TOTEN  =        -9.42610753 eV

  energy without entropy =       -9.42610163  energy(sigma->0) =       -9.42610458


--------------------------------------------------------------------------------------------------------




--------------------------------------- Iteration     12(   3)  ---------------------------------------


    POTLOK:  cpu time    0.0928: real time    0.1933
    SETDIJ:  cpu time    0.0140: real time    0.0341
     EDDAV:  cpu time    3.4181: real time    5.6675
       DOS:  cpu time    0.0111: real time    0.0111
    CHARGE:  cpu time    0.2448: real time    0.2459
    MIXING:  cpu time    0.0128: real time    0.0128
    --------------------------------------------
      LOOP:  cpu time    3.7936: real time    6.1648

 eigenvalue-minimisations  :  1414
 total energy-change (2. order) : 0.8904235E-04  (-0.1243023E-04)
 number of electron      17.9999993 magnetization 
 augmentation part       -3.6068447 magnetization 

 Broyden mixing:
  rms(total) = 0.36866E-02    rms(broyden)= 0.36866E-02
  rms(prec ) = 0.53179E-02
  weight for this iteration     100.00

 eigenvalues of (default mixing * dielectric matrix)
  average eigenvalue GAMMA=   1.0469
  1.0469  1.0469

 Free energy of the ion-electron system (eV)
  ---------------------------------------------------
  alpha Z        PSCENC =         2.21724115
  Ewald energy   TEWEN  =      -666.91517774
  -Hartree energ DENC   =       -45.69118815
  -exchange      EXHF   =         0.00000000
  -V(xc)+E(xc)   XCENC  =       -84.16634348
  PAW double counting   =      1463.14278481    -1347.76211894
  entropy T*S    EENTRO =        -0.00000620
  eigenvalues    EBANDS =        -0.06551595
  atomic energy  EATOM  =       669.81430600
  Solvation  Ediel_sol  =         0.00000000
  ---------------------------------------------------
  free energy    TOTEN  =        -9.42601849 eV

  energy without entropy =       -9.42601229  energy(sigma->0) =       -9.42601539


--------------------------------------------------------------------------------------------------------




--------------------------------------- Iteration     12(   4)  ---------------------------------------


    POTLOK:  cpu time    0.1340: real time    0.1348
    SETDIJ:  cpu time    0.0224: real time    0.0225
     EDDAV:  cpu time    3.0596: real time    4.3979
       DOS:  cpu time    0.0027: real time    0.0027
    CHARGE:  cpu time    0.1549: real time    0.2805
    MIXING:  cpu time    0.0091: real time    0.0174
    --------------------------------------------
      LOOP:  cpu time    3.3828: real time    4.8557

 eigenvalue-minimisations  :  1288
 total energy-change (2. order) : 0.1658867E-04  (-0.3625786E-05)
 number of electron      17.9999993 magnetization 
 augmentation part       -3.6076830 magnetization 

 Broyden mixing:
  rms(total) = 0.36256E-02    rms(broyden)= 0.36256E-02
  rms(prec ) = 0.38264E-02
  weight for this iteration     100.00

 eigenvalues of (default mixing * dielectric matrix)
  average eigenvalue GAMMA=   2.0219
  1.0502  2.5077  2.5077

 Free energy of the ion-electron system (eV)
  ---------------------------------------------------
  alpha Z        PSCENC =         2.21724115
  Ewald energy   TEWEN  =      -666.91517774
  -Hartree energ DENC   =       -45.65527053
  -exchange      EXHF   =         0.00000000
  -V(xc)+E(xc)   XCENC  =       -84.16563886
  PAW double counting   =      1463.85462200    -1348.47407193
  entropy T*S    EENTRO =        -0.00000628
  eigenvalues    EBANDS =        -0.10200571
  atomic energy  EATOM  =       669.81430600
  Solvation  Ediel_sol  =         0.00000000
  ---------------------------------------------------
  free energy    TOTEN  =        -9.42600190 eV

  energy without entropy =       -9.42599562  energy(sigma->0) =       -9.42599876


--------------------------------------------------------------------------------------------------------




--------------------------------------- Iteration     12(   5)  ---------------------------------------


    POTLOK:  cpu time    0.1347: real time    0.2711
    SETDIJ:  cpu time    0.0155: real time    0.0236
     EDDAV:  cpu time    1.4093: real time    2.8465
       DOS:  cpu time    0.0026: real time    0.0026
    --------------------------------------------
      LOOP:  cpu time    1.5620: real time    3.1438

 eigenvalue-minimisations  :   620
 total energy-change (2. order) : 0.1133318E-05  (-0.3610434E-06)
 number of electron      17.9999993 magnetization 
 augmentation part       -3.6076830 magnetization 

 Free energy of the ion-electron system (eV)
  ---------------------------------------------------
  alpha Z        PSCENC =         2.21724115
  Ewald energy   TEWEN  =      -666.91517774
  -Hartree energ DENC   =       -45.64452596
  -exchange      EXHF   =         0.00000000
  -V(xc)+E(xc)   XCENC  =       -84.16576249
  PAW double counting   =      1464.42522434    -1349.04618992
  entropy T*S    EENTRO =        -0.00000621
  eigenvalues    EBANDS =        -0.11110992
  atomic energy  EATOM  =       669.81430600
  Solvation  Ediel_sol  =         0.00000000
  ---------------------------------------------------
  free energy    TOTEN  =        -9.42600077 eV

  energy without entropy =       -9.42599455  energy(sigma->0) =       -9.42599766


--------------------------------------------------------------------------------------------------------




 average (electrostatic) potential at core
  the test charge radii are     1.1897
  (the norm of the test charge is              1.0000)
       1 -89.4018       2 -89.4018       3 -89.4018
 
 
 
 E-fermi :   5.6186     XC(G=0):  -8.9170     alpha+bet :-10.2004


 k-point     1 :       0.0000    0.0000    0.0000
  band No.  band energies     occupation 
      1      -7.8487      2.00000
      2      -4.6912      2.00000
      3      -4.6912      2.00000
      4       2.5430      2.00000
      5       2.8045      2.00000
      6       2.8045      2.00000
      7       3.9035      2.00000
      8       3.9035      2.00000
      9       4.7097      2.00000
     10       6.5011      0.00000
     11       6.5011      0.00000
     12       7.0526      0.00000
     13      10.5639      0.00000
     14      10.5639      0.00000

 k-point     2 :       0.1111    0.0000    0.0000
  band No.  band energies     occupation 
      1      -7.7700      2.00000
      2      -4.7197      2.00000
      3      -4.6738      2.00000
      4       1.9624      2.00000
      5       2.4175      2.00000
      6       2.6572      2.00000
      7       4.1425      2.00000
      8       4.4279      2.00000
      9       4.8790      2.00000
     10       6.2410      0.00000
     11       6.4443      0.00000
     12       6.9474      0.00000
     13      10.3188      0.00000
     14      10.5171      0.00000

 k-point     3 :       0.2222    0.0000    0.0000
  band No.  band energies     occupation 
      1      -7.5451      2.00000
      2      -4.8382      2.00000
      3      -4.6257      2.00000
      4       1.2407      2.00000
      5       1.8923      2.00000
      6       2.3240      2.00000
      7       4.2676      2.00000
      8       4.5534      2.00000
      9       4.7169      2.00000
     10       6.3579      0.00000
     11       6.5209      0.00000
     12       7.0999      0.00000
     13       9.5947      0.00000
     14      10.7186      0.00000

 k-point     4 :       0.3333   -0.0000    0.0000
  band No.  band energies     occupation 
      1      -7.2185      2.00000
      2      -5.0857      2.00000
      3      -4.5647      2.00000
      4       0.9016      2.00000
      5       1.4832      2.00000
      6       2.0468      2.00000
      7       3.2745      2.00000
      8       4.5947      2.00000
      9       4.7445      2.00000
     10       6.3514      0.00000
     11       6.4998      0.00000
     12       8.1484      0.00000
     13       8.9713      0.00000
     14      11.4413      0.00000

 k-point     5 :       0.4444    0.0000    0.0000
  band No.  band energies     occupation 
      1      -6.9203      2.00000
      2      -5.3586      2.00000
      3      -4.5215      2.00000
      4       0.8857      2.00000
      5       1.2979      2.00000
      6       1.9850      2.00000
      7       2.4075      2.00000
      8       4.5556      2.00000
      9       4.7407      2.00000
     10       6.3589      0.00000
     11       6.4284      0.00000
     12       8.6379      0.00000
     13       8.9632      0.00000
     14      12.4949      0.00000

 k-point     6 :       0.1111    0.1111    0.0000
  band No.  band energies     occupation 
      1      -7.6179      2.00000
      2      -4.7786      2.00000
      3      -4.6569      2.00000
      4       1.4776      2.00000
      5       1.7829      2.00000
      6       2.7091      2.00000
      7       3.9815      2.00000
      8       4.7561      2.00000
      9       4.7982      2.00000
     10       6.2333      0.00000
     11       6.5571      0.00000
     12       7.0210      0.00000
     13      10.0890      0.00000
     14      10.1758      0.00000

 k-point     7 :       0.2222    0.1111    0.0000
  band No.  band energies     occupation 
      1      -7.3392      2.00000
      2      -4.9384      2.00000
      3      -4.6366      2.00000
      4       1.0429      2.00000
      5       1.3862      2.00000
      6       2.4421      2.00000
      7       3.7720      2.00000
      8       4.0838      2.00000
      9       4.5203      2.00000
     10       6.6708      0.00000
     11       6.9901      0.00000
     12       7.5167      0.00000
     13       9.5111      0.00000
     14      10.4402      0.00000

 k-point     8 :       0.3333    0.1111    0.0000
  band No.  band energies     occupation 
      1      -7.0104      2.00000
      2      -5.2031      2.00000
      3      -4.6129      2.00000
      4       0.9221      2.00000
      5       1.2544      2.00000
      6       2.1253      2.00000
      7       2.8494      2.00000
      8       4.0486      2.00000
      9       4.2794      2.00000
     10       6.8163      0.00000
     11       7.0409      0.00000
     12       8.5322      0.00000
     13       9.0926      0.00000
     14      11.3099      0.00000

 k-point     9 :       0.4444    0.1111    0.0000
  band No.  band energies     occupation 
      1      -6.8350      2.00000
      2      -5.3643      2.00000
      3      -4.6021      2.00000
      4       0.9569      2.00000
      5       1.2610      2.00000
      6       2.1370      2.00000
      7       2.2453      2.00000
      8       4.0794      2.00000
      9       4.1650      2.00000
     10       6.8371      0.00000
     11       7.0500      0.00000
     12       8.9459      0.00000
     13       8.9943      0.00000
     14      12.2388      0.00000

 k-point    10 :       0.2222    0.2222    0.0000
  band No.  band energies     occupation 
      1      -7.0480      2.00000
      2      -5.0643      2.00000
      3      -4.7309      2.00000
      4       1.0296      2.00000
      5       1.1098      2.00000
      6       2.4231      2.00000
      7       3.2931      2.00000
      8       3.6079      2.00000
      9       3.6574      2.00000
     10       7.4366      0.00000
     11       7.6942      0.00000
     12       7.8695      0.00000
     13       9.8564      0.00000
     14      10.2191      0.00000

 k-point    11 :       0.3333    0.2222    0.0000
  band No.  band energies     occupation 
      1      -6.7960      2.00000
      2      -5.2115      2.00000
      3      -4.8131      2.00000
      4       1.0898      2.00000
      5       1.2020      2.00000
      6       2.2843      2.00000
      7       2.6215      2.00000
      8       3.3019      2.00000
      9       3.3958      2.00000
     10       7.6652      0.00000
     11       7.9353      0.00000
     12       8.6157      0.00000
     13       9.7910      0.00000
     14      11.0675      0.00000

 k-point    12 :       0.3333    0.3333    0.0000
  band No.  band energies     occupation 
      1      -6.7008      2.00000
      2      -5.0631      2.00000
      3      -5.0631      2.00000
      4       1.2286      2.00000
      5       1.2286      2.00000
      6       2.5850      2.00000
      7       2.5850      2.00000
      8       2.6971      2.00000
      9       2.9821      2.00000
     10       8.2710      0.00000
     11       8.2710      0.00000
     12       8.5386      0.00000
     13      10.3933      0.00000
     14      11.3274      0.00000

 k-point    13 :       0.0000    0.0000    0.2500
  band No.  band energies     occupation 
      1      -7.6308      2.00000
      2      -5.9740      2.00000
      3      -3.4061      2.00000
      4       2.1658      2.00000
      5       2.6645      2.00000
      6       3.0601      2.00000
      7       4.0909      2.00000
      8       4.0940      2.00000
      9       4.6851      2.00000
     10       6.1648      0.00000
     11       6.2377      0.00000
     12       6.5447      0.00000
     13      10.0179      0.00000
     14      11.0180      0.00000

 k-point    14 :       0.1111    0.0000    0.2500
  band No.  band energies     occupation 
      1      -7.5557      2.00000
      2      -5.9280      2.00000
      3      -3.5089      2.00000
      4       1.9108      2.00000
      5       2.5136      2.00000
      6       2.9314      2.00000
      7       3.8218      2.00000
      8       4.2326      2.00000
      9       4.3479      2.00000
     10       6.4138      0.00000
     11       6.5584      0.00000
     12       6.9120      0.00000
     13      10.0785      0.00000
     14      11.0179      0.00000

 k-point    15 :       0.2222    0.0000    0.2500
  band No.  band energies     occupation 
      1      -7.3451      2.00000
      2      -5.7959      2.00000
      3      -3.8254      2.00000
      4       1.5824      2.00000
      5       2.1345      2.00000
      6       2.6826      2.00000
      7       3.2187      2.00000
      8       3.7828      2.00000
      9       4.2675      2.00000
     10       6.8259      0.00000
     11       7.2930      0.00000
     12       7.6631      0.00000
     13      10.3259      0.00000
     14      10.7643      0.00000

 k-point    16 :       0.3333   -0.0000    0.2500
  band No.  band energies     occupation 
      1      -7.0472      2.00000
      2      -5.6328      2.00000
      3      -4.2543      2.00000
      4       1.2643      2.00000
      5       1.6171      2.00000
      6       2.3646      2.00000
      7       2.8049      2.00000
      8       3.7805      2.00000
      9       4.1878      2.00000
     10       6.8891      0.00000
     11       7.4654      0.00000
     12       8.5099      0.00000
     13       9.9176      0.00000
     14      11.2163      0.00000

 k-point    17 :       0.4444    0.0000    0.2500
  band No.  band energies     occupation 
      1      -6.7747      2.00000
      2      -5.6071      2.00000
      3      -4.4920      2.00000
      4       0.7123      2.00000
      5       1.3356      2.00000
      6       2.0924      2.00000
      7       3.2316      2.00000
      8       3.8141      2.00000
      9       4.1325      2.00000
     10       6.7930      0.00000
     11       7.4316      0.00000
     12       8.4031      0.00000
     13       9.4736      0.00000
     14      11.6811      0.00000

 k-point    18 :      -0.4444   -0.0000    0.2500
  band No.  band energies     occupation 
      1      -6.7452      2.00000
      2      -5.7302      2.00000
      3      -4.3383      2.00000
      4       0.4004      2.00000
      5       1.2546      2.00000
      6       2.0550      2.00000
      7       3.8857      2.00000
      8       3.9356      2.00000
      9       4.2739      2.00000
     10       6.6551      0.00000
     11       7.2469      0.00000
     12       7.6813      0.00000
     13       9.1845      0.00000
     14      12.1979      0.00000

 k-point    19 :      -0.3333    0.0000    0.2500
  band No.  band energies     occupation 
      1      -7.0162      2.00000
      2      -5.7822      2.00000
      3      -4.0201      2.00000
      4       0.5794      2.00000
      5       1.3501      2.00000
      6       2.1956      2.00000
      7       4.1371      2.00000
      8       4.1703      2.00000
      9       5.0218      2.00000
     10       6.3398      0.00000
     11       6.8746      0.00000
     12       7.0214      0.00000
     13       9.0958      0.00000
     14      12.1707      0.00000

 k-point    20 :      -0.2222   -0.0000    0.2500
  band No.  band energies     occupation 
      1      -7.3344      2.00000
      2      -5.8505      2.00000
      3      -3.7109      2.00000
      4       1.2364      2.00000
      5       1.6243      2.00000
      6       2.4721      2.00000
      7       4.3406      2.00000
      8       4.4506      2.00000
      9       5.0650      2.00000
     10       6.1280      0.00000
     11       6.5021      0.00000
     12       6.7962      0.00000
     13       9.3046      0.00000
     14      11.6635      0.00000

 k-point    21 :      -0.1111   -0.0000    0.2500
  band No.  band energies     occupation 
      1      -7.5543      2.00000
      2      -5.9351      2.00000
      3      -3.4906      2.00000
      4       1.9302      2.00000
      5       2.2222      2.00000
      6       2.8238      2.00000
      7       4.2488      2.00000
      8       4.3901      2.00000
      9       4.6696      2.00000
     10       6.1046      0.00000
     11       6.1561      0.00000
     12       6.9350      0.00000
     13       9.7903      0.00000
     14      11.0944      0.00000

 k-point    22 :       0.1111    0.1111    0.2500
  band No.  band energies     occupation 
      1      -7.4092      2.00000
      2      -5.8559      2.00000
      3      -3.6816      2.00000
      4       1.5867      2.00000
      5       1.8873      2.00000
      6       2.6959      2.00000
      7       3.7336      2.00000
      8       4.2548      2.00000
      9       4.6498      2.00000
     10       6.4075      0.00000
     11       6.8992      0.00000
     12       7.0762      0.00000
     13       9.7988      0.00000
     14      11.0893      0.00000

 k-point    23 :       0.2222    0.1111    0.2500
  band No.  band energies     occupation 
      1      -7.1506      2.00000
      2      -5.7103      2.00000
      3      -4.0605      2.00000
      4       1.2437      2.00000
      5       1.6449      2.00000
      6       2.5474      2.00000
      7       2.8422      2.00000
      8       3.8541      2.00000
      9       4.7844      2.00000
     10       6.5989      0.00000
     11       7.2409      0.00000
     12       8.1216      0.00000
     13      10.1479      0.00000
     14      10.6053      0.00000

 k-point    24 :       0.3333    0.1111    0.2500
  band No.  band energies     occupation 
      1      -6.8533      2.00000
      2      -5.5927      2.00000
      3      -4.4377      2.00000
      4       0.9596      2.00000
      5       1.2148      2.00000
      6       2.2426      2.00000
      7       2.8901      2.00000
      8       3.5454      2.00000
      9       4.8251      2.00000
     10       6.5129      0.00000
     11       7.5866      0.00000
     12       8.5277      0.00000
     13       9.7909      0.00000
     14      11.2720      0.00000

 k-point    25 :       0.4444    0.1111    0.2500
  band No.  band energies     occupation 
      1      -6.6811      2.00000
      2      -5.6524      2.00000
      3      -4.4959      2.00000
      4       0.5422      2.00000
      5       1.1097      2.00000
      6       2.1306      2.00000
      7       3.0990      2.00000
      8       3.7449      2.00000
      9       4.8428      2.00000
     10       6.4137      0.00000
     11       7.6680      0.00000
     12       8.0585      0.00000
     13       9.5245      0.00000
     14      12.0023      0.00000

 k-point    26 :      -0.4444    0.1111    0.2500
  band No.  band energies     occupation 
      1      -6.8236      2.00000
      2      -5.7265      2.00000
      3      -4.2597      2.00000
      4       0.4604      2.00000
      5       1.2524      2.00000
      6       2.1494      2.00000
      7       3.1452      2.00000
      8       4.4783      2.00000
      9       4.9133      2.00000
     10       6.2939      0.00000
     11       7.1566      0.00000
     12       7.6753      0.00000
     13       9.4089      0.00000
     14      11.8820      0.00000

 k-point    27 :      -0.3333    0.1111    0.2500
  band No.  band energies     occupation 
      1      -7.1380      2.00000
      2      -5.7728      2.00000
      3      -3.9518      2.00000
      4       0.8785      2.00000
      5       1.4995      2.00000
      6       2.3509      2.00000
      7       3.3550      2.00000
      8       4.6083      2.00000
      9       5.2379      2.00000
     10       6.0969      0.00000
     11       6.7359      0.00000
     12       7.4582      0.00000
     13       9.4652      0.00000
     14      11.2843      0.00000

 k-point    28 :       0.2222    0.2222    0.2500
  band No.  band energies     occupation 
      1      -6.8711      2.00000
      2      -5.6553      2.00000
      3      -4.3194      2.00000
      4       0.7001      2.00000
      5       1.3451      2.00000
      6       2.1491      2.00000
      7       2.7222      2.00000
      8       4.2015      2.00000
      9       5.1115      2.00000
     10       6.4134      0.00000
     11       7.1575      0.00000
     12       8.2562      0.00000
     13      10.0815      0.00000
     14      10.6699      0.00000

 k-point    29 :       0.3333    0.2222    0.2500
  band No.  band energies     occupation 
      1      -6.6433      2.00000
      2      -5.5951      2.00000
      3      -4.5832      2.00000
      4       0.6815      2.00000
      5       0.9856      2.00000
      6       1.8328      2.00000
      7       2.9698      2.00000
      8       3.8389      2.00000
      9       4.9062      2.00000
     10       6.6435      0.00000
     11       7.7136      0.00000
     12       8.2609      0.00000
     13      10.1407      0.00000
     14      11.1829      0.00000

 k-point    30 :       0.4444    0.2222    0.2500
  band No.  band energies     occupation 
      1      -6.6344      2.00000
      2      -5.6326      2.00000
      3      -4.5406      2.00000
      4       0.5400      2.00000
      5       1.0602      2.00000
      6       1.8458      2.00000
      7       2.9090      2.00000
      8       4.1605      2.00000
      9       4.7592      2.00000
     10       6.7680      0.00000
     11       7.4884      0.00000
     12       8.1391      0.00000
     13      10.0500      0.00000
     14      11.4155      0.00000

 k-point    31 :       0.3333    0.3333    0.2500
  band No.  band energies     occupation 
      1      -6.5489      2.00000
      2      -5.5900      2.00000
      3      -4.6620      2.00000
      4       0.6357      2.00000
      5       0.9640      2.00000
      6       1.5076      2.00000
      7       3.1466      2.00000
      8       4.0560      2.00000
      9       4.4745      2.00000
     10       7.2524      0.00000
     11       7.7894      0.00000
     12       7.8755      0.00000
     13      10.8532      0.00000
     14      11.1174      0.00000

 k-point    32 :       0.0000    0.0000    0.5000
  band No.  band energies     occupation 
      1      -6.9903      2.00000
      2      -6.9903      2.00000
      3      -2.7708      2.00000
      4       1.7497      2.00000
      5       2.9225      2.00000
      6       2.9225      2.00000
      7       4.2588      2.00000
      8       4.5123      2.00000
      9       4.5123      2.00000
     10       5.9723      0.00000
     11       5.9723      0.00000
     12       6.0038      0.00000
     13       9.6779      0.00000
     14      10.8075      0.00000

 k-point    33 :       0.1111    0.0000    0.5000
  band No.  band energies     occupation 
      1      -6.9327      2.00000
      2      -6.9168      2.00000
      3      -2.9364      2.00000
      4       1.7013      2.00000
      5       2.7538      2.00000
      6       2.8388      2.00000
      7       3.7879      2.00000
      8       4.1298      2.00000
      9       4.3545      2.00000
     10       6.2167      0.00000
     11       6.3847      0.00000
     12       6.8028      0.00000
     13       9.8901      0.00000
     14      10.5360      0.00000

 k-point    34 :       0.2222    0.0000    0.5000
  band No.  band energies     occupation 
      1      -6.7780      2.00000
      2      -6.7057      2.00000
      3      -3.3657      2.00000
      4       1.3572      2.00000
      5       2.2248      2.00000
      6       2.5634      2.00000
      7       3.5965      2.00000
      8       3.7631      2.00000
      9       4.1750      2.00000
     10       6.6788      0.00000
     11       7.0912      0.00000
     12       7.5893      0.00000
     13      10.0607      0.00000
     14      10.7499      0.00000

 k-point    35 :       0.3333   -0.0000    0.5000
  band No.  band energies     occupation 
      1      -6.5837      2.00000
      2      -6.3962      2.00000
      3      -3.9027      2.00000
      4       0.6414      2.00000
      5       1.9914      2.00000
      6       2.2690      2.00000
      7       3.3541      2.00000
      8       3.6323      2.00000
      9       4.5220      2.00000
     10       6.9599      0.00000
     11       7.4581      0.00000
     12       7.6849      0.00000
     13      10.0761      0.00000
     14      11.0890      0.00000

 k-point    36 :       0.4444    0.0000    0.5000
  band No.  band energies     occupation 
      1      -6.4433      2.00000
      2      -6.1106      2.00000
      3      -4.3273      2.00000
      4       0.1518      2.00000
      5       1.9569      2.00000
      6       2.0553      2.00000
      7       3.1958      2.00000
      8       3.5292      2.00000
      9       5.1808      2.00000
     10       6.4858      0.00000
     11       7.4187      0.00000
     12       7.9573      0.00000
     13      10.1393      0.00000
     14      10.8844      0.00000

 k-point    37 :       0.1111    0.1111    0.5000
  band No.  band energies     occupation 
      1      -6.8227      2.00000
      2      -6.7780      2.00000
      3      -3.2314      2.00000
      4       1.5293      2.00000
      5       2.4158      2.00000
      6       2.4813      2.00000
      7       3.5714      2.00000
      8       3.7312      2.00000
      9       4.5985      2.00000
     10       6.1214      0.00000
     11       7.2496      0.00000
     12       7.3731      0.00000
     13      10.2761      0.00000
     14      10.2999      0.00000

 k-point    38 :       0.2222    0.1111    0.5000
  band No.  band energies     occupation 
      1      -6.6369      2.00000
      2      -6.5250      2.00000
      3      -3.7052      2.00000
      4       1.0173      2.00000
      5       1.8549      2.00000
      6       2.0436      2.00000
      7       3.5799      2.00000
      8       3.9446      2.00000
      9       4.5861      2.00000
     10       6.4662      0.00000
     11       7.5487      0.00000
     12       7.6924      0.00000
     13      10.1447      0.00000
     14      10.9445      0.00000

 k-point    39 :       0.3333    0.1111    0.5000
  band No.  band energies     occupation 
      1      -6.4554      2.00000
      2      -6.2240      2.00000
      3      -4.1841      2.00000
      4       0.4005      2.00000
      5       1.5956      2.00000
      6       1.7399      2.00000
      7       3.6621      2.00000
      8       4.0309      2.00000
      9       4.8976      2.00000
     10       6.7067      0.00000
     11       7.2206      0.00000
     12       7.7561      0.00000
     13      10.1962      0.00000
     14      11.1538      0.00000

 k-point    40 :       0.4444    0.1111    0.5000
  band No.  band energies     occupation 
      1      -6.3779      2.00000
      2      -6.0627      2.00000
      3      -4.4122      2.00000
      4       0.1505      2.00000
      5       1.5405      2.00000
      6       1.6109      2.00000
      7       3.7742      2.00000
      8       3.8861      2.00000
      9       5.3904      2.00000
     10       6.2954      0.00000
     11       7.2595      0.00000
     12       7.7536      0.00000
     13      10.2930      0.00000
     14      10.9328      0.00000

 k-point    41 :       0.2222    0.2222    0.5000
  band No.  band energies     occupation 
      1      -6.4376      2.00000
      2      -6.2952      2.00000
      3      -4.1118      2.00000
      4       0.7021      2.00000
      5       1.1892      2.00000
      6       1.5048      2.00000
      7       4.0299      2.00000
      8       4.3452      2.00000
      9       5.0046      2.00000
     10       6.3268      0.00000
     11       7.4134      0.00000
     12       7.4842      0.00000
     13      10.4101      0.00000
     14      11.2631      0.00000

 k-point    42 :       0.3333    0.2222    0.5000
  band No.  band energies     occupation 
      1      -6.2830      2.00000
      2      -6.1091      2.00000
      3      -4.4138      2.00000
      4       0.3924      2.00000
      5       0.9628      2.00000
      6       1.1307      2.00000
      7       4.3589      2.00000
      8       4.7253      2.00000
      9       5.3132      2.00000
     10       6.2751      0.00000
     11       6.9530      0.00000
     12       7.2542      0.00000
     13      10.7561      0.00000
     14      11.4576      0.00000

 k-point    43 :       0.3333    0.3333    0.5000
  band No.  band energies     occupation 
      1      -6.1367      2.00000
      2      -6.1367      2.00000
      3      -4.4989      2.00000
      4       0.5641      2.00000
      5       0.7219      2.00000
      6       0.7219      2.00000
      7       4.6382      2.00000
      8       5.5103      1.99780
      9       5.5103      1.99780
     10       5.7193      0.00439
     11       6.8423      0.00000
     12       6.8423      0.00000
     13      11.4235      0.00000
     14      12.0319      0.00000


--------------------------------------------------------------------------------------------------------


 soft charge-density along one line, spin component           1
         0         1         2         3         4         5         6         7         8         9
 total charge-density along one line
 
 pseudopotential strength for first ion, spin component:           1
 51.803  56.362  -0.000  -0.000  -0.049  -0.000  -0.000  -0.071
 56.362  61.327  -0.000  -0.000  -0.054  -0.000  -0.000  -0.078
 -0.000  -0.000  12.747   0.010   0.000  18.374   0.014   0.000
 -0.000  -0.000   0.010  12.763   0.000   0.014  18.397   0.000
 -0.049  -0.054   0.000   0.000  12.763   0.000   0.000  18.397
 -0.000  -0.000  18.374   0.014   0.000  26.495   0.020   0.000
 -0.000  -0.000   0.014  18.397   0.000   0.020  26.528   0.000
 -0.071  -0.078   0.000   0.000  18.397   0.000   0.000  26.528
  0.000   0.000  -0.010   0.000  -0.000  -0.014   0.001  -0.000
  0.015   0.017   0.000  -0.000   0.000   0.000  -0.000   0.001
  0.007   0.008   0.000  -0.000   0.006   0.000  -0.000   0.009
  0.000   0.000   0.000  -0.009  -0.000   0.001  -0.013  -0.000
  0.012   0.013   0.000  -0.000  -0.009   0.000  -0.000  -0.014
 total augmentation occupancy for first ion, spin component:           1
 12.811  -9.284   0.000   0.000   2.156   0.000   0.000  -0.560   0.000  -0.161  -0.091   0.000  -0.115
 -9.284   7.974   0.000   0.000  -1.806   0.000  -0.000   0.477   0.000   0.146   0.082   0.000   0.104
  0.000   0.000   2.485   0.216   0.000  -0.461  -0.192   0.000  -0.054   0.000   0.000  -0.049   0.000
 -0.000  -0.000   0.216   2.825   0.000  -0.192  -0.765  -0.000  -0.048   0.000   0.000  -0.120  -0.000
  2.156  -1.806   0.000   0.000   2.721   0.000  -0.000  -0.709   0.000  -0.054  -0.015   0.000  -0.054
  0.000   0.000  -0.461  -0.192   0.000   0.164   0.071   0.000   0.013  -0.000   0.000   0.018   0.000
  0.000  -0.000  -0.192  -0.765  -0.000   0.071   0.274   0.000   0.018  -0.000   0.000   0.036  -0.000
 -0.560   0.477   0.000  -0.000  -0.709   0.000   0.000   0.245   0.000   0.015   0.003  -0.000   0.013
  0.000   0.000  -0.054  -0.048   0.000   0.013   0.018   0.000   0.009   0.000   0.000   0.010   0.000
 -0.161   0.146   0.000  -0.000  -0.054   0.000   0.000   0.015   0.000   0.013   0.004   0.000   0.003
 -0.091   0.082   0.000   0.000  -0.015   0.000   0.000   0.003   0.000   0.004   0.007  -0.000  -0.001
  0.000  -0.000  -0.049  -0.120   0.000   0.018   0.036   0.000   0.010   0.000   0.000   0.025   0.000
 -0.115   0.104   0.000   0.000  -0.054   0.000   0.000   0.013   0.000   0.003  -0.001   0.000   0.009


------------------------ aborting loop because EDIFF is reached ----------------------------------------


    CHARGE:  cpu time    0.1238: real time    0.2620
    FORLOC:  cpu time    0.0077: real time    0.0162
    FORNL :  cpu time    0.8109: real time    0.9950
    STRESS:  cpu time    1.4020: real time    1.8520
    FORCOR:  cpu time    0.1233: real time    0.2470
    FORHAR:  cpu time    0.0251: real time    0.0510
    MIXING:  cpu time    0.0045: real time    0.0046
    OFIELD:  cpu time    0.0000: real time    0.0000

  FORCE on cell =-STRESS in cart. coord.  units (eV):
  Direction    XX          YY          ZZ          XY          YZ          ZX
  --------------------------------------------------------------------------------------
  Alpha Z     2.21724     2.21724     2.21724
  Ewald    -234.79345  -234.79345  -197.32902    -0.00000    -0.00001     0.00000
  Hartree    11.90801    11.90801    21.81996     0.00000     0.00000    -0.00000
  E(xc)     -70.19924   -70.19924   -69.74217    -0.00000     0.00000    -0.00000
  Local    -114.90399  -114.90404  -153.49465    -0.00004     0.00000    -0.00000
  n-local   331.39868   332.25301   327.72886    -1.14932    -0.70694    -1.20021
  augment   -81.03142   -81.03137   -78.89602     0.00004    -0.00000     0.00000
  Kinetic   151.70247   158.09969   147.61688    -7.14282     0.17585     1.57100
  Fock        0.00000     0.00000     0.00000     0.00000     0.00000     0.00000
  -------------------------------------------------------------------------------------
  Total      -0.07591    -0.07591    -0.07891     0.00000     0.00000     0.00000
  in kB      -1.15370    -1.15370    -1.19929     0.00000     0.00000     0.00000
  external pressure =       -1.17 kB  Pullay stress =        0.00 kB


 VOLUME and BASIS-vectors are now :
 -----------------------------------------------------------------------------
  energy-cutoff  :      520.00
  volume of cell :      105.42
      direct lattice vectors                 reciprocal lattice vectors
     4.520794959 -0.000000000  0.000000000     0.221200034  0.127709899 -0.000000000
    -2.260397479  3.915123279 -0.000000000    -0.000000000  0.255419799  0.000000000
     0.000000000 -0.000000000  5.956392713    -0.000000000  0.000000000  0.167886848

  length of vectors
     4.520794959  4.520794959  5.956392713     0.255419799  0.255419799  0.167886848


 FORCES acting on ions
    electron-ion (+dipol)            ewald-force                    non-local-force                 convergence-correction
 -----------------------------------------------------------------------------------------------
   -.120E+02 0.120E-04 -.110E-05   0.171E+02 0.155E-05 0.165E-05   -.513E+01 -.277E-16 0.000E+00   -.389E-02 0.212E-08 -.212E-09
   0.601E+01 -.104E+02 -.184E-04   -.857E+01 0.148E+02 -.808E-05   0.256E+01 -.444E+01 0.000E+00   0.195E-02 -.337E-02 0.357E-09
   0.601E+01 0.104E+02 0.192E-04   -.857E+01 -.148E+02 0.644E-05   0.256E+01 0.444E+01 0.000E+00   0.195E-02 0.337E-02 -.147E-09
 -----------------------------------------------------------------------------------------------
   0.260E-04 -.764E-05 -.308E-06   -.178E-14 -.178E-14 0.339E-20   0.000E+00 0.888E-15 0.000E+00   -.396E-09 -.183E-09 -.205E-11
 
 
 POSITION                                       TOTAL-FORCE (eV/Angst)
 -----------------------------------------------------------------------------------
      1.21581     -0.00000      1.98546        -0.008552      0.000000     -0.000000
     -0.60791      1.05292      3.97093         0.004276     -0.007406      0.000000
      1.65249      2.86220      0.00000         0.004276      0.007406      0.000000
 -----------------------------------------------------------------------------------
    total drift:                                0.000026     -0.000008     -0.000000


--------------------------------------------------------------------------------------------------------



  FREE ENERGIE OF THE ION-ELECTRON SYSTEM (eV)
  ---------------------------------------------------
  free  energy   TOTEN  =        -9.42600077 eV

  energy  without entropy=       -9.42599455  energy(sigma->0) =       -9.42599766
 
 d Force = 0.4278644E-05[-0.118E-03, 0.126E-03]  d Energy = 0.1301018E-03-0.126E-03
 d Force = 0.2385895E+00[ 0.236E+00, 0.242E+00]  d Ewald  = 0.7363213E+00-0.498E+00


--------------------------------------------------------------------------------------------------------


    POTLOK:  cpu time    0.1086: real time    0.2224


--------------------------------------------------------------------------------------------------------




--------------------------------------------------------------------------------------------------------


    WAVPRE:  cpu time    0.0195: real time    0.0487
    FEWALD:  cpu time    0.0068: real time    0.0153
    GENKIN:  cpu time    0.0329: real time    0.0672
    ORTHCH:  cpu time    0.0862: real time    0.1757
     LOOP+:  cpu time   17.8795: real time   27.5840


--------------------------------------- Iteration     13(   1)  ---------------------------------------


    POTLOK:  cpu time    0.1227: real time    0.2543
    SETDIJ:  cpu time    0.0140: real time    0.0323
     EDDAV:  cpu time    2.9502: real time    3.9905
       DOS:  cpu time    0.0026: real time    0.0026
    CHARGE:  cpu time    0.1758: real time    0.3315
    MIXING:  cpu time    0.0094: real time    0.0178
    --------------------------------------------
      LOOP:  cpu time    3.2747: real time    4.6291

 eigenvalue-minimisations  :  1216
 total energy-change (2. order) :-0.6078008E-04  (-0.1139946E-03)
 number of electron      17.9999993 magnetization 
 augmentation part       -3.6071669 magnetization 

 Broyden mixing:
  rms(total) = 0.23401E-02    rms(broyden)= 0.23401E-02
  rms(prec ) = 0.44507E-02
  weight for this iteration     100.00

 Free energy of the ion-electron system (eV)
  ---------------------------------------------------
  alpha Z        PSCENC =         2.21894888
  Ewald energy   TEWEN  =      -667.12036709
  -Hartree energ DENC   =       -45.63195928
  -exchange      EXHF   =         0.00000000
  -V(xc)+E(xc)   XCENC  =       -84.16387911
  PAW double counting   =      1464.43286741    -1349.05349930
  entropy T*S    EENTRO =        -0.00000672
  eigenvalues    EBANDS =         0.07752654
  atomic energy  EATOM  =       669.81430600
  Solvation  Ediel_sol  =         0.00000000
  ---------------------------------------------------
  free energy    TOTEN  =        -9.42606268 eV

  energy without entropy =       -9.42605596  energy(sigma->0) =       -9.42605932


--------------------------------------------------------------------------------------------------------




--------------------------------------- Iteration     13(   2)  ---------------------------------------


    POTLOK:  cpu time    0.1421: real time    0.2533
    SETDIJ:  cpu time    0.0342: real time    0.0343
     EDDAV:  cpu time    3.5256: real time    4.3598
       DOS:  cpu time    0.0026: real time    0.0025
    CHARGE:  cpu time    0.1986: real time    0.2543
    MIXING:  cpu time    0.0071: real time    0.0071
    --------------------------------------------
      LOOP:  cpu time    3.9101: real time    4.9114

 eigenvalue-minimisations  :  1270
 total energy-change (2. order) : 0.1743259E-04  (-0.4369259E-05)
 number of electron      17.9999993 magnetization 
 augmentation part       -3.6073030 magnetization 

 Broyden mixing:
  rms(total) = 0.13234E-02    rms(broyden)= 0.13234E-02
  rms(prec ) = 0.25382E-02
  weight for this iteration     100.00

 eigenvalues of (default mixing * dielectric matrix)
  average eigenvalue GAMMA=   1.1931
  1.1931

 Free energy of the ion-electron system (eV)
  ---------------------------------------------------
  alpha Z        PSCENC =         2.21894888
  Ewald energy   TEWEN  =      -667.12036709
  -Hartree energ DENC   =       -45.60303414
  -exchange      EXHF   =         0.00000000
  -V(xc)+E(xc)   XCENC  =       -84.16345999
  PAW double counting   =      1464.71574242    -1349.33595420
  entropy T*S    EENTRO =        -0.00000677
  eigenvalues    EBANDS =         0.04777965
  atomic energy  EATOM  =       669.81430600
  Solvation  Ediel_sol  =         0.00000000
  ---------------------------------------------------
  free energy    TOTEN  =        -9.42604525 eV

  energy without entropy =       -9.42603848  energy(sigma->0) =       -9.42604186


--------------------------------------------------------------------------------------------------------




--------------------------------------- Iteration     13(   3)  ---------------------------------------


    POTLOK:  cpu time    0.0813: real time    0.1641
    SETDIJ:  cpu time    0.0100: real time    0.0248
     EDDAV:  cpu time    1.8858: real time    3.0266
       DOS:  cpu time    0.0027: real time    0.0026
    --------------------------------------------
      LOOP:  cpu time    1.9797: real time    3.2182

 eigenvalue-minimisations  :   674
 total energy-change (2. order) : 0.8592096E-05  (-0.1612583E-05)
 number of electron      17.9999993 magnetization 
 augmentation part       -3.6073030 magnetization 

 Free energy of the ion-electron system (eV)
  ---------------------------------------------------
  alpha Z        PSCENC =         2.21894888
  Ewald energy   TEWEN  =      -667.12036709
  -Hartree energ DENC   =       -45.57455279
  -exchange      EXHF   =         0.00000000
  -V(xc)+E(xc)   XCENC  =       -84.16260926
  PAW double counting   =      1465.21679469    -1349.83688741
  entropy T*S    EENTRO =        -0.00000680
  eigenvalues    EBANDS =         0.01833711
  atomic energy  EATOM  =       669.81430600
  Solvation  Ediel_sol  =         0.00000000
  ---------------------------------------------------
  free energy    TOTEN  =        -9.42603666 eV

  energy without entropy =       -9.42602986  energy(sigma->0) =       -9.42603326


--------------------------------------------------------------------------------------------------------




 average (electrostatic) potential at core
  the test charge radii are     1.1897
  (the norm of the test charge is              1.0000)
       1 -89.3936       2 -89.3936       3 -89.3936
 
 
 
 E-fermi :   5.6274     XC(G=0):  -8.9206     alpha+bet :-10.2082


 k-point     1 :       0.0000    0.0000    0.0000
  band No.  band energies     occupation 
      1      -7.8434      2.00000
      2      -4.6839      2.00000
      3      -4.6839      2.00000
      4       2.5521      2.00000
      5       2.8146      2.00000
      6       2.8146      2.00000
      7       3.9118      2.00000
      8       3.9118      2.00000
      9       4.7171      2.00000
     10       6.5103      0.00000
     11       6.5103      0.00000
     12       7.0631      0.00000
     13      10.5719      0.00000
     14      10.5719      0.00000

 k-point     2 :       0.1111    0.0000    0.0000
  band No.  band energies     occupation 
      1      -7.7646      2.00000
      2      -4.7123      2.00000
      3      -4.6664      2.00000
      4       1.9700      2.00000
      5       2.4263      2.00000
      6       2.6660      2.00000
      7       4.1519      2.00000
      8       4.4373      2.00000
      9       4.8881      2.00000
     10       6.2493      0.00000
     11       6.4531      0.00000
     12       6.9571      0.00000
     13      10.3261      0.00000
     14      10.5254      0.00000

 k-point     3 :       0.2222    0.0000    0.0000
  band No.  band energies     occupation 
      1      -7.5392      2.00000
      2      -4.8307      2.00000
      3      -4.6180      2.00000
      4       1.2466      2.00000
      5       1.8996      2.00000
      6       2.3316      2.00000
      7       4.2768      2.00000
      8       4.5630      2.00000
      9       4.7260      2.00000
     10       6.3662      0.00000
     11       6.5299      0.00000
     12       7.1092      0.00000
     13       9.6009      0.00000
     14      10.7278      0.00000

 k-point     4 :       0.3333   -0.0000    0.0000
  band No.  band energies     occupation 
      1      -7.2118      2.00000
      2      -5.0785      2.00000
      3      -4.5566      2.00000
      4       0.9067      2.00000
      5       1.4894      2.00000
      6       2.0536      2.00000
      7       3.2811      2.00000
      8       4.6051      2.00000
      9       4.7538      2.00000
     10       6.3591      0.00000
     11       6.5079      0.00000
     12       8.1593      0.00000
     13       8.9768      0.00000
     14      11.4522      0.00000

 k-point     5 :       0.4444    0.0000    0.0000
  band No.  band energies     occupation 
      1      -6.9126      2.00000
      2      -5.3522      2.00000
      3      -4.5131      2.00000
      4       0.8911      2.00000
      5       1.3040      2.00000
      6       1.9909      2.00000
      7       2.4126      2.00000
      8       4.5656      2.00000
      9       4.7502      2.00000
     10       6.3665      0.00000
     11       6.4358      0.00000
     12       8.6431      0.00000
     13       8.9746      0.00000
     14      12.5078      0.00000

 k-point     6 :       0.1111    0.1111    0.0000
  band No.  band energies     occupation 
      1      -7.6122      2.00000
      2      -4.7711      2.00000
      3      -4.6493      2.00000
      4       1.4841      2.00000
      5       1.7899      2.00000
      6       2.7183      2.00000
      7       3.9896      2.00000
      8       4.7664      2.00000
      9       4.8076      2.00000
     10       6.2415      0.00000
     11       6.5657      0.00000
     12       7.0307      0.00000
     13      10.0966      0.00000
     14      10.1829      0.00000

 k-point     7 :       0.2222    0.1111    0.0000
  band No.  band energies     occupation 
      1      -7.3328      2.00000
      2      -4.9309      2.00000
      3      -4.6288      2.00000
      4       1.0483      2.00000
      5       1.3922      2.00000
      6       2.4501      2.00000
      7       3.7797      2.00000
      8       4.0917      2.00000
      9       4.5294      2.00000
     10       6.6796      0.00000
     11       7.0000      0.00000
     12       7.5267      0.00000
     13       9.5176      0.00000
     14      10.4485      0.00000

 k-point     8 :       0.3333    0.1111    0.0000
  band No.  band energies     occupation 
      1      -7.0031      2.00000
      2      -5.1963      2.00000
      3      -4.6048      2.00000
      4       0.9274      2.00000
      5       1.2602      2.00000
      6       2.1318      2.00000
      7       2.8553      2.00000
      8       4.0568      2.00000
      9       4.2878      2.00000
     10       6.8253      0.00000
     11       7.0501      0.00000
     12       8.5433      0.00000
     13       9.0986      0.00000
     14      11.3201      0.00000

 k-point     9 :       0.4444    0.1111    0.0000
  band No.  band energies     occupation 
      1      -6.8270      2.00000
      2      -5.3581      2.00000
      3      -4.5939      2.00000
      4       0.9624      2.00000
      5       1.2672      2.00000
      6       2.1430      2.00000
      7       2.2499      2.00000
      8       4.0880      2.00000
      9       4.1728      2.00000
     10       6.8461      0.00000
     11       7.0590      0.00000
     12       8.9518      0.00000
     13       9.0058      0.00000
     14      12.2511      0.00000

 k-point    10 :       0.2222    0.2222    0.0000
  band No.  band energies     occupation 
      1      -7.0408      2.00000
      2      -5.0570      2.00000
      3      -4.7232      2.00000
      4       1.0350      2.00000
      5       1.1154      2.00000
      6       2.4306      2.00000
      7       3.2998      2.00000
      8       3.6153      2.00000
      9       3.6637      2.00000
     10       7.4473      0.00000
     11       7.7047      0.00000
     12       7.8797      0.00000
     13       9.8644      0.00000
     14      10.2265      0.00000

 k-point    11 :       0.3333    0.2222    0.0000
  band No.  band energies     occupation 
      1      -6.7879      2.00000
      2      -5.2048      2.00000
      3      -4.8055      2.00000
      4       1.0956      2.00000
      5       1.2082      2.00000
      6       2.2904      2.00000
      7       2.6271      2.00000
      8       3.3087      2.00000
      9       3.4017      2.00000
     10       7.6759      0.00000
     11       7.9459      0.00000
     12       8.6271      0.00000
     13       9.7987      0.00000
     14      11.0769      0.00000

 k-point    12 :       0.3333    0.3333    0.0000
  band No.  band energies     occupation 
      1      -6.6923      2.00000
      2      -5.0562      2.00000
      3      -5.0562      2.00000
      4       1.2351      2.00000
      5       1.2351      2.00000
      6       2.5908      2.00000
      7       2.5908      2.00000
      8       2.7036      2.00000
      9       2.9864      2.00000
     10       8.2825      0.00000
     11       8.2825      0.00000
     12       8.5498      0.00000
     13      10.4031      0.00000
     14      11.3362      0.00000

 k-point    13 :       0.0000    0.0000    0.2500
  band No.  band energies     occupation 
      1      -7.6255      2.00000
      2      -5.9677      2.00000
      3      -3.3972      2.00000
      4       2.1742      2.00000
      5       2.6735      2.00000
      6       3.0694      2.00000
      7       4.1009      2.00000
      8       4.1022      2.00000
      9       4.6933      2.00000
     10       6.1735      0.00000
     11       6.2462      0.00000
     12       6.5547      0.00000
     13      10.0237      0.00000
     14      11.0264      0.00000

 k-point    14 :       0.1111    0.0000    0.2500
  band No.  band energies     occupation 
      1      -7.5502      2.00000
      2      -5.9216      2.00000
      3      -3.5000      2.00000
      4       1.9183      2.00000
      5       2.5226      2.00000
      6       2.9407      2.00000
      7       3.8292      2.00000
      8       4.2421      2.00000
      9       4.3554      2.00000
     10       6.4229      0.00000
     11       6.5679      0.00000
     12       6.9226      0.00000
     13      10.0851      0.00000
     14      11.0262      0.00000

 k-point    15 :       0.2222    0.0000    0.2500
  band No.  band energies     occupation 
      1      -7.3391      2.00000
      2      -5.7891      2.00000
      3      -3.8170      2.00000
      4       1.5894      2.00000
      5       2.1430      2.00000
      6       2.6907      2.00000
      7       3.2254      2.00000
      8       3.7903      2.00000
      9       4.2748      2.00000
     10       6.8358      0.00000
     11       7.3037      0.00000
     12       7.6743      0.00000
     13      10.3340      0.00000
     14      10.7721      0.00000

 k-point    16 :       0.3333   -0.0000    0.2500
  band No.  band energies     occupation 
      1      -7.0405      2.00000
      2      -5.6253      2.00000
      3      -4.2470      2.00000
      4       1.2710      2.00000
      5       1.6244      2.00000
      6       2.3717      2.00000
      7       2.8104      2.00000
      8       3.7882      2.00000
      9       4.1948      2.00000
     10       6.8986      0.00000
     11       7.4757      0.00000
     12       8.5213      0.00000
     13       9.9240      0.00000
     14      11.2248      0.00000

 k-point    17 :       0.4444    0.0000    0.2500
  band No.  band energies     occupation 
      1      -6.7671      2.00000
      2      -5.5995      2.00000
      3      -4.4852      2.00000
      4       0.7175      2.00000
      5       1.3423      2.00000
      6       2.0993      2.00000
      7       3.2375      2.00000
      8       3.8221      2.00000
      9       4.1396      2.00000
     10       6.8021      0.00000
     11       7.4415      0.00000
     12       8.4131      0.00000
     13       9.4792      0.00000
     14      11.6893      0.00000

 k-point    18 :      -0.4444   -0.0000    0.2500
  band No.  band energies     occupation 
      1      -6.7375      2.00000
      2      -5.7233      2.00000
      3      -4.3307      2.00000
      4       0.4049      2.00000
      5       1.2607      2.00000
      6       2.0620      2.00000
      7       3.8934      2.00000
      8       3.9440      2.00000
      9       4.2805      2.00000
     10       6.6640      0.00000
     11       7.2565      0.00000
     12       7.6902      0.00000
     13       9.1900      0.00000
     14      12.2072      0.00000

 k-point    19 :      -0.3333    0.0000    0.2500
  band No.  band energies     occupation 
      1      -7.0094      2.00000
      2      -5.7753      2.00000
      3      -4.0118      2.00000
      4       0.5843      2.00000
      5       1.3560      2.00000
      6       2.2028      2.00000
      7       4.1455      2.00000
      8       4.1794      2.00000
      9       5.0301      2.00000
     10       6.3486      0.00000
     11       6.8829      0.00000
     12       7.0307      0.00000
     13       9.1013      0.00000
     14      12.1812      0.00000

 k-point    20 :      -0.2222   -0.0000    0.2500
  band No.  band energies     occupation 
      1      -7.3284      2.00000
      2      -5.8438      2.00000
      3      -3.7021      2.00000
      4       1.2428      2.00000
      5       1.6306      2.00000
      6       2.4798      2.00000
      7       4.3500      2.00000
      8       4.4602      2.00000
      9       5.0745      2.00000
     10       6.1363      0.00000
     11       6.5113      0.00000
     12       6.8044      0.00000
     13       9.3106      0.00000
     14      11.6724      0.00000

 k-point    21 :      -0.1111   -0.0000    0.2500
  band No.  band energies     occupation 
      1      -7.5488      2.00000
      2      -5.9287      2.00000
      3      -3.4816      2.00000
      4       1.9379      2.00000
      5       2.2302      2.00000
      6       2.8324      2.00000
      7       4.2569      2.00000
      8       4.4005      2.00000
      9       4.6791      2.00000
     10       6.1129      0.00000
     11       6.1643      0.00000
     12       6.9452      0.00000
     13       9.7966      0.00000
     14      11.1020      0.00000

 k-point    22 :       0.1111    0.1111    0.2500
  band No.  band energies     occupation 
      1      -7.4034      2.00000
      2      -5.8493      2.00000
      3      -3.6729      2.00000
      4       1.5938      2.00000
      5       1.8944      2.00000
      6       2.7041      2.00000
      7       3.7415      2.00000
      8       4.2637      2.00000
      9       4.6584      2.00000
     10       6.4165      0.00000
     11       6.9092      0.00000
     12       7.0861      0.00000
     13       9.8057      0.00000
     14      11.0978      0.00000

 k-point    23 :       0.2222    0.1111    0.2500
  band No.  band energies     occupation 
      1      -7.1442      2.00000
      2      -5.7031      2.00000
      3      -4.0526      2.00000
      4       1.2503      2.00000
      5       1.6519      2.00000
      6       2.5547      2.00000
      7       2.8483      2.00000
      8       3.8615      2.00000
      9       4.7931      2.00000
     10       6.6076      0.00000
     11       7.2511      0.00000
     12       8.1331      0.00000
     13      10.1556      0.00000
     14      10.6127      0.00000

 k-point    24 :       0.3333    0.1111    0.2500
  band No.  band energies     occupation 
      1      -6.8460      2.00000
      2      -5.5849      2.00000
      3      -4.4308      2.00000
      4       0.9656      2.00000
      5       1.2208      2.00000
      6       2.2497      2.00000
      7       2.8961      2.00000
      8       3.5517      2.00000
      9       4.8342      2.00000
     10       6.5209      0.00000
     11       7.5971      0.00000
     12       8.5386      0.00000
     13       9.7973      0.00000
     14      11.2810      0.00000

 k-point    25 :       0.4444    0.1111    0.2500
  band No.  band energies     occupation 
      1      -6.6732      2.00000
      2      -5.6451      2.00000
      3      -4.4889      2.00000
      4       0.5470      2.00000
      5       1.1156      2.00000
      6       2.1379      2.00000
      7       3.1053      2.00000
      8       3.7511      2.00000
      9       4.8522      2.00000
     10       6.4215      0.00000
     11       7.6782      0.00000
     12       8.0680      0.00000
     13       9.5307      0.00000
     14      12.0116      0.00000

 k-point    26 :      -0.4444    0.1111    0.2500
  band No.  band energies     occupation 
      1      -6.8162      2.00000
      2      -5.7194      2.00000
      3      -4.2519      2.00000
      4       0.4650      2.00000
      5       1.2584      2.00000
      6       2.1565      2.00000
      7       3.1515      2.00000
      8       4.4867      2.00000
      9       4.9224      2.00000
     10       6.3019      0.00000
     11       7.1649      0.00000
     12       7.6855      0.00000
     13       9.4152      0.00000
     14      11.8919      0.00000

 k-point    27 :      -0.3333    0.1111    0.2500
  band No.  band energies     occupation 
      1      -7.1316      2.00000
      2      -5.7658      2.00000
      3      -3.9434      2.00000
      4       0.8841      2.00000
      5       1.5058      2.00000
      6       2.3582      2.00000
      7       3.3620      2.00000
      8       4.6183      2.00000
      9       5.2475      2.00000
     10       6.1046      0.00000
     11       6.7439      0.00000
     12       7.4688      0.00000
     13       9.4717      0.00000
     14      11.2928      0.00000

 k-point    28 :       0.2222    0.2222    0.2500
  band No.  band energies     occupation 
      1      -6.8638      2.00000
      2      -5.6478      2.00000
      3      -4.3120      2.00000
      4       0.7053      2.00000
      5       1.3517      2.00000
      6       2.1557      2.00000
      7       2.7276      2.00000
      8       4.2098      2.00000
      9       5.1206      2.00000
     10       6.4213      0.00000
     11       7.1669      0.00000
     12       8.2674      0.00000
     13      10.0894      0.00000
     14      10.6775      0.00000

 k-point    29 :       0.3333    0.2222    0.2500
  band No.  band energies     occupation 
      1      -6.6352      2.00000
      2      -5.5874      2.00000
      3      -4.5765      2.00000
      4       0.6868      2.00000
      5       0.9913      2.00000
      6       1.8387      2.00000
      7       2.9761      2.00000
      8       3.8457      2.00000
      9       4.9148      2.00000
     10       6.6517      0.00000
     11       7.7241      0.00000
     12       8.2713      0.00000
     13      10.1483      0.00000
     14      11.1922      0.00000

 k-point    30 :       0.4444    0.2222    0.2500
  band No.  band energies     occupation 
      1      -6.6263      2.00000
      2      -5.6252      2.00000
      3      -4.5337      2.00000
      4       0.5449      2.00000
      5       1.0661      2.00000
      6       1.8518      2.00000
      7       2.9150      2.00000
      8       4.1680      2.00000
      9       4.7673      2.00000
     10       6.7770      0.00000
     11       7.4976      0.00000
     12       8.1499      0.00000
     13      10.0575      0.00000
     14      11.4251      0.00000

 k-point    31 :       0.3333    0.3333    0.2500
  band No.  band energies     occupation 
      1      -6.5405      2.00000
      2      -5.5823      2.00000
      3      -4.6556      2.00000
      4       0.6410      2.00000
      5       0.9699      2.00000
      6       1.5124      2.00000
      7       3.1535      2.00000
      8       4.0634      2.00000
      9       4.4813      2.00000
     10       7.2623      0.00000
     11       7.7994      0.00000
     12       7.8856      0.00000
     13      10.8626      0.00000
     14      11.1274      0.00000

 k-point    32 :       0.0000    0.0000    0.5000
  band No.  band energies     occupation 
      1      -6.9847      2.00000
      2      -6.9847      2.00000
      3      -2.7606      2.00000
      4       1.7565      2.00000
      5       2.9313      2.00000
      6       2.9313      2.00000
      7       4.2674      2.00000
      8       4.5226      2.00000
      9       4.5226      2.00000
     10       5.9809      0.00000
     11       5.9809      0.00000
     12       6.0116      0.00000
     13       9.6834      0.00000
     14      10.8154      0.00000

 k-point    33 :       0.1111    0.0000    0.5000
  band No.  band energies     occupation 
      1      -6.9269      2.00000
      2      -6.9110      2.00000
      3      -2.9264      2.00000
      4       1.7084      2.00000
      5       2.7623      2.00000
      6       2.8478      2.00000
      7       3.7949      2.00000
      8       4.1385      2.00000
      9       4.3635      2.00000
     10       6.2256      0.00000
     11       6.3944      0.00000
     12       6.8133      0.00000
     13       9.8961      0.00000
     14      10.5434      0.00000

 k-point    34 :       0.2222    0.0000    0.5000
  band No.  band energies     occupation 
      1      -6.7718      2.00000
      2      -6.6994      2.00000
      3      -3.3567      2.00000
      4       1.3645      2.00000
      5       2.2319      2.00000
      6       2.5721      2.00000
      7       3.6032      2.00000
      8       3.7700      2.00000
      9       4.1827      2.00000
     10       6.6886      0.00000
     11       7.1022      0.00000
     12       7.6001      0.00000
     13      10.0668      0.00000
     14      10.7584      0.00000

 k-point    35 :       0.3333   -0.0000    0.5000
  band No.  band energies     occupation 
      1      -6.5769      2.00000
      2      -6.3891      2.00000
      3      -3.8949      2.00000
      4       0.6471      2.00000
      5       1.9988      2.00000
      6       2.2776      2.00000
      7       3.3607      2.00000
      8       3.6385      2.00000
      9       4.5292      2.00000
     10       6.9699      0.00000
     11       7.4671      0.00000
     12       7.6962      0.00000
     13      10.0823      0.00000
     14      11.0969      0.00000

 k-point    36 :       0.4444    0.0000    0.5000
  band No.  band energies     occupation 
      1      -6.4361      2.00000
      2      -6.1025      2.00000
      3      -4.3208      2.00000
      4       0.1564      2.00000
      5       1.9648      2.00000
      6       2.0635      2.00000
      7       3.2021      2.00000
      8       3.5350      2.00000
      9       5.1887      2.00000
     10       6.4932      0.00000
     11       7.4283      0.00000
     12       7.9684      0.00000
     13      10.1460      0.00000
     14      10.8901      0.00000

 k-point    37 :       0.1111    0.1111    0.5000
  band No.  band energies     occupation 
      1      -6.8166      2.00000
      2      -6.7719      2.00000
      3      -3.2220      2.00000
      4       1.5368      2.00000
      5       2.4235      2.00000
      6       2.4895      2.00000
      7       3.5775      2.00000
      8       3.7381      2.00000
      9       4.6084      2.00000
     10       6.1298      0.00000
     11       7.2607      0.00000
     12       7.3841      0.00000
     13      10.2828      0.00000
     14      10.3070      0.00000

 k-point    38 :       0.2222    0.1111    0.5000
  band No.  band energies     occupation 
      1      -6.6303      2.00000
      2      -6.5183      2.00000
      3      -3.6969      2.00000
      4       1.0239      2.00000
      5       1.8617      2.00000
      6       2.0509      2.00000
      7       3.5861      2.00000
      8       3.9516      2.00000
      9       4.5952      2.00000
     10       6.4753      0.00000
     11       7.5593      0.00000
     12       7.7028      0.00000
     13      10.1514      0.00000
     14      10.9526      0.00000

 k-point    39 :       0.3333    0.1111    0.5000
  band No.  band energies     occupation 
      1      -6.4482      2.00000
      2      -6.2164      2.00000
      3      -4.1770      2.00000
      4       0.4056      2.00000
      5       1.6022      2.00000
      6       1.7469      2.00000
      7       3.6688      2.00000
      8       4.0386      2.00000
      9       4.9053      2.00000
     10       6.7159      0.00000
     11       7.2292      0.00000
     12       7.7666      0.00000
     13      10.2029      0.00000
     14      11.1607      0.00000

 k-point    40 :       0.4444    0.1111    0.5000
  band No.  band energies     occupation 
      1      -6.3704      2.00000
      2      -6.0543      2.00000
      3      -4.4058      2.00000
      4       0.1549      2.00000
      5       1.5470      2.00000
      6       1.6179      2.00000
      7       3.7817      2.00000
      8       3.8930      2.00000
      9       5.3990      2.00000
     10       6.3024      0.00000
     11       7.2687      0.00000
     12       7.7639      0.00000
     13      10.3001      0.00000
     14      10.9384      0.00000

 k-point    41 :       0.2222    0.2222    0.5000
  band No.  band energies     occupation 
      1      -6.4303      2.00000
      2      -6.2878      2.00000
      3      -4.1045      2.00000
      4       0.7081      2.00000
      5       1.1947      2.00000
      6       1.5110      2.00000
      7       4.0367      2.00000
      8       4.3526      2.00000
      9       5.0148      2.00000
     10       6.3352      0.00000
     11       7.4230      0.00000
     12       7.4930      0.00000
     13      10.4180      0.00000
     14      11.2710      0.00000

 k-point    42 :       0.3333    0.2222    0.5000
  band No.  band energies     occupation 
      1      -6.2753      2.00000
      2      -6.1009      2.00000
      3      -4.4073      2.00000
      4       0.3974      2.00000
      5       0.9681      2.00000
      6       1.1364      2.00000
      7       4.3667      2.00000
      8       4.7338      2.00000
      9       5.3221      2.00000
     10       6.2838      0.00000
     11       6.9606      0.00000
     12       7.2629      0.00000
     13      10.7644      0.00000
     14      11.4648      0.00000

 k-point    43 :       0.3333    0.3333    0.5000
  band No.  band energies     occupation 
      1      -6.1286      2.00000
      2      -6.1286      2.00000
      3      -4.4926      2.00000
      4       0.5696      2.00000
      5       0.7266      2.00000
      6       0.7266      2.00000
      7       4.6469      2.00000
      8       5.5201      1.99758
      9       5.5201      1.99758
     10       5.7270      0.00485
     11       6.8493      0.00000
     12       6.8493      0.00000
     13      11.4339      0.00000
     14      12.0400      0.00000


--------------------------------------------------------------------------------------------------------


 soft charge-density along one line, spin component           1
         0         1         2         3         4         5         6         7         8         9
 total charge-density along one line
 
 pseudopotential strength for first ion, spin component:           1
 51.799  56.358  -0.000  -0.000  -0.049  -0.000  -0.000  -0.071
 56.358  61.322  -0.000  -0.000  -0.054  -0.000  -0.000  -0.078
 -0.000  -0.000  12.746   0.010   0.000  18.373   0.014   0.000
 -0.000  -0.000   0.010  12.762   0.000   0.014  18.396   0.000
 -0.049  -0.054   0.000   0.000  12.762   0.000   0.000  18.396
 -0.000  -0.000  18.373   0.014   0.000  26.494   0.020   0.000
 -0.000  -0.000   0.014  18.396   0.000   0.020  26.526   0.000
 -0.071  -0.078   0.000   0.000  18.396   0.000   0.000  26.527
  0.000   0.000  -0.010   0.000  -0.000  -0.014   0.001  -0.000
  0.015   0.017   0.000  -0.000   0.000   0.000  -0.000   0.001
  0.007   0.008   0.000  -0.000   0.006   0.000  -0.000   0.009
  0.000   0.000   0.000  -0.009  -0.000   0.001  -0.013  -0.000
  0.012   0.013   0.000  -0.000  -0.009   0.000  -0.000  -0.014
 total augmentation occupancy for first ion, spin component:           1
 12.815  -9.290   0.000   0.000   2.153   0.000   0.000  -0.560   0.000  -0.161  -0.091   0.000  -0.115
 -9.290   7.981   0.000  -0.000  -1.804   0.000  -0.000   0.477   0.000   0.146   0.082  -0.000   0.104
  0.000   0.000   2.489   0.215   0.000  -0.463  -0.191   0.000  -0.054   0.000   0.000  -0.049   0.000
  0.000   0.000   0.215   2.827   0.000  -0.192  -0.766  -0.000  -0.048  -0.000   0.000  -0.120  -0.000
  2.153  -1.804   0.000   0.000   2.723   0.000  -0.000  -0.710   0.000  -0.054  -0.015   0.000  -0.053
  0.000   0.000  -0.463  -0.192   0.000   0.165   0.071   0.000   0.013  -0.000   0.000   0.018   0.000
 -0.000  -0.000  -0.191  -0.766  -0.000   0.071   0.274   0.000   0.018  -0.000   0.000   0.036   0.000
 -0.560   0.477   0.000  -0.000  -0.710  -0.000   0.000   0.246   0.000   0.015   0.003  -0.000   0.013
  0.000   0.000  -0.054  -0.048   0.000   0.013   0.018   0.000   0.009   0.000   0.000   0.010   0.000
 -0.161   0.146   0.000  -0.000  -0.054   0.000   0.000   0.015   0.000   0.013   0.004   0.000   0.003
 -0.091   0.082   0.000   0.000  -0.015   0.000   0.000   0.003   0.000   0.004   0.007   0.000  -0.001
  0.000  -0.000  -0.049  -0.120   0.000   0.018   0.036  -0.000   0.010   0.000  -0.000   0.025   0.000
 -0.115   0.104   0.000  -0.000  -0.053   0.000   0.000   0.013   0.000   0.003  -0.001   0.000   0.009


------------------------ aborting loop because EDIFF is reached ----------------------------------------


    CHARGE:  cpu time    0.2418: real time    0.2689
    FORLOC:  cpu time    0.0056: real time    0.0168
    FORNL :  cpu time    0.7344: real time    1.0520
    STRESS:  cpu time    1.3788: real time    2.0182
    FORCOR:  cpu time    0.1853: real time    0.1857
    FORHAR:  cpu time    0.0429: real time    0.0430
    MIXING:  cpu time    0.1191: real time    0.1193
    OFIELD:  cpu time    0.0000: real time    0.0000

  FORCE on cell =-STRESS in cart. coord.  units (eV):
  Direction    XX          YY          ZZ          XY          YZ          ZX
  --------------------------------------------------------------------------------------
  Alpha Z     2.21895     2.21895     2.21895
  Ewald    -234.85015  -234.85015  -197.42080    -0.00000    -0.00001     0.00000
  Hartree    11.89054    11.89054    21.78411     0.00000     0.00000    -0.00000
  E(xc)     -70.20290   -70.20291   -69.74568    -0.00000     0.00000    -0.00000
  Local    -114.83329  -114.83334  -153.37700    -0.00004     0.00000    -0.00000
  n-local   331.40323   332.25670   327.73440    -1.15204    -0.70711    -1.20115
  augment   -81.02926   -81.02921   -78.89381     0.00004    -0.00000     0.00000
  Kinetic   151.70533   158.11208   147.62698    -7.15192     0.17517     1.57169
  Fock        0.00000     0.00000     0.00000     0.00000     0.00000     0.00000
  -------------------------------------------------------------------------------------
  Total      -0.06745    -0.06745    -0.07286     0.00000     0.00000     0.00000
  in kB      -1.02590    -1.02590    -1.10813     0.00000     0.00000     0.00000
  external pressure =       -1.05 kB  Pullay stress =        0.00 kB


 VOLUME and BASIS-vectors are now :
 -----------------------------------------------------------------------------
  energy-cutoff  :      520.00
  volume of cell :      105.34
      direct lattice vectors                 reciprocal lattice vectors
     4.519032746 -0.000000000  0.000000000     0.221286292  0.127759700 -0.000000000
    -2.259516373  3.913597159 -0.000000000    -0.000000000  0.255519401  0.000000000
     0.000000000 -0.000000000  5.956451347    -0.000000000  0.000000000  0.167885196

  length of vectors
     4.519032746  4.519032746  5.956451347     0.255519401  0.255519401  0.167885196


 FORCES acting on ions
    electron-ion (+dipol)            ewald-force                    non-local-force                 convergence-correction
 -----------------------------------------------------------------------------------------------
   -.120E+02 0.120E-04 -.110E-05   0.171E+02 0.155E-05 0.164E-05   -.511E+01 0.278E-16 -.278E-16   0.136E-03 0.612E-08 -.354E-09
   0.599E+01 -.104E+02 -.184E-04   -.855E+01 0.148E+02 -.809E-05   0.256E+01 -.443E+01 0.000E+00   -.679E-04 0.118E-03 0.475E-09
   0.599E+01 0.104E+02 0.192E-04   -.855E+01 -.148E+02 0.644E-05   0.256E+01 0.443E+01 0.000E+00   -.680E-04 -.118E-03 -.118E-09
 -----------------------------------------------------------------------------------------------
   0.260E-04 -.765E-05 -.309E-06   -.178E-14 0.178E-14 0.174E-17   -.444E-15 0.000E+00 -.278E-16   0.116E-08 0.256E-08 0.328E-11
 
 
 POSITION                                       TOTAL-FORCE (eV/Angst)
 -----------------------------------------------------------------------------------
      1.21580     -0.00000      1.98548        -0.007276     -0.000000     -0.000000
     -0.60790      1.05292      3.97097         0.003638     -0.006301      0.000000
      1.65161      2.86068      0.00000         0.003638      0.006301      0.000000
 -----------------------------------------------------------------------------------
    total drift:                                0.000026     -0.000008     -0.000000


--------------------------------------------------------------------------------------------------------



  FREE ENERGIE OF THE ION-ELECTRON SYSTEM (eV)
  ---------------------------------------------------
  free  energy   TOTEN  =        -9.42603666 eV

  energy  without entropy=       -9.42602986  energy(sigma->0) =       -9.42603326
 
 d Force =-0.1111013E-04[-0.102E-04,-0.120E-04]  d Energy = 0.3588871E-04-0.470E-04
 d Force = 0.2402434E-01[ 0.240E-01, 0.241E-01]  d Ewald  = 0.2051894E+00-0.181E+00


--------------------------------------------------------------------------------------------------------


    POTLOK:  cpu time    0.1580: real time    0.2516


--------------------------------------------------------------------------------------------------------


 Conjugate gradient step on ions:
 trial-energy change:   -0.000036  1 .order   -0.000044   -0.000046   -0.000042
  (g-gl).g = 0.292E-03      g.g   = 0.296E-03  gl.gl    = 0.813E-04
 g(Force)  = 0.106E-04   g(Stress)= 0.285E-03 ortho     = 0.345E-05
 gamma     =   3.58835
 trial     =   0.15042
 opt step  =   0.60167  (harmonic =   1.47068) maximal distance =0.00187255
 next E    =    -9.426228   (d E  =  -0.00023)


--------------------------------------------------------------------------------------------------------


    WAVPRE:  cpu time    0.0192: real time    0.0225
    FEWALD:  cpu time    0.0002: real time    0.0002
    GENKIN:  cpu time    0.0318: real time    0.0743
    ORTHCH:  cpu time    0.0748: real time    0.1621
     LOOP+:  cpu time   12.2298: real time   17.0807


--------------------------------------- Iteration     14(   1)  ---------------------------------------


    POTLOK:  cpu time    0.0903: real time    0.1825
    SETDIJ:  cpu time    0.0152: real time    0.0322
     EDDAV:  cpu time    2.5348: real time    3.9049
       DOS:  cpu time    0.0025: real time    0.0025
    CHARGE:  cpu time    0.1305: real time    0.2622
    MIXING:  cpu time    0.0092: real time    0.0092
    --------------------------------------------
      LOOP:  cpu time    2.7825: real time    4.3936

 eigenvalue-minimisations  :  1204
 total energy-change (2. order) :-0.2919216E-03  (-0.1067123E-02)
 number of electron      17.9999992 magnetization 
 augmentation part       -3.6056006 magnetization 

 Broyden mixing:
  rms(total) = 0.69616E-02    rms(broyden)= 0.69614E-02
  rms(prec ) = 0.13326E-01
  weight for this iteration     100.00

 Free energy of the ion-electron system (eV)
  ---------------------------------------------------
  alpha Z        PSCENC =         2.22408405
  Ewald energy   TEWEN  =      -667.73626666
  -Hartree energ DENC   =       -45.54645230
  -exchange      EXHF   =         0.00000000
  -V(xc)+E(xc)   XCENC  =       -84.15692417
  PAW double counting   =      1465.43645862    -1350.05671995
  entropy T*S    EENTRO =        -0.00000836
  eigenvalues    EBANDS =         0.59518560
  atomic energy  EATOM  =       669.81430600
  Solvation  Ediel_sol  =         0.00000000
  ---------------------------------------------------
  free energy    TOTEN  =        -9.42633717 eV

  energy without entropy =       -9.42632881  energy(sigma->0) =       -9.42633299


--------------------------------------------------------------------------------------------------------




--------------------------------------- Iteration     14(   2)  ---------------------------------------


    POTLOK:  cpu time    0.0867: real time    0.1807
    SETDIJ:  cpu time    0.0103: real time    0.0191
     EDDAV:  cpu time    3.4291: real time    4.4709
       DOS:  cpu time    0.0026: real time    0.0117
    CHARGE:  cpu time    0.1477: real time    0.2963
    MIXING:  cpu time    0.0081: real time    0.0169
    --------------------------------------------
      LOOP:  cpu time    3.6846: real time    4.9957

 eigenvalue-minimisations  :  1264
 total energy-change (2. order) : 0.1527671E-03  (-0.4170761E-04)
 number of electron      17.9999992 magnetization 
 augmentation part       -3.6059540 magnetization 

 Broyden mixing:
  rms(total) = 0.40092E-02    rms(broyden)= 0.40092E-02
  rms(prec ) = 0.76810E-02
  weight for this iteration     100.00

 eigenvalues of (default mixing * dielectric matrix)
  average eigenvalue GAMMA=   1.1403
  1.1403

 Free energy of the ion-electron system (eV)
  ---------------------------------------------------
  alpha Z        PSCENC =         2.22408405
  Ewald energy   TEWEN  =      -667.73626666
  -Hartree energ DENC   =       -45.46017254
  -exchange      EXHF   =         0.00000000
  -V(xc)+E(xc)   XCENC  =       -84.15544292
  PAW double counting   =      1466.06365613    -1350.68295958
  entropy T*S    EENTRO =        -0.00000850
  eigenvalues    EBANDS =         0.50661961
  atomic energy  EATOM  =       669.81430600
  Solvation  Ediel_sol  =         0.00000000
  ---------------------------------------------------
  free energy    TOTEN  =        -9.42618440 eV

  energy without entropy =       -9.42617590  energy(sigma->0) =       -9.42618015


--------------------------------------------------------------------------------------------------------




--------------------------------------- Iteration     14(   3)  ---------------------------------------


    POTLOK:  cpu time    0.1070: real time    0.2058
    SETDIJ:  cpu time    0.0116: real time    0.0326
     EDDAV:  cpu time    3.7619: real time    4.8580
       DOS:  cpu time    0.0105: real time    0.0106
    CHARGE:  cpu time    0.1443: real time    0.1445
    MIXING:  cpu time    0.0097: real time    0.0099
    --------------------------------------------
      LOOP:  cpu time    4.0451: real time    5.2614

 eigenvalue-minimisations  :  1372
 total energy-change (2. order) : 0.8090788E-04  (-0.1509860E-04)
 number of electron      17.9999992 magnetization 
 augmentation part       -3.6076368 magnetization 

 Broyden mixing:
  rms(total) = 0.36126E-02    rms(broyden)= 0.36126E-02
  rms(prec ) = 0.38716E-02
  weight for this iteration     100.00

 eigenvalues of (default mixing * dielectric matrix)
  average eigenvalue GAMMA=   1.1103
  1.6249  0.5957

 Free energy of the ion-electron system (eV)
  ---------------------------------------------------
  alpha Z        PSCENC =         2.22408405
  Ewald energy   TEWEN  =      -667.73626666
  -Hartree energ DENC   =       -45.37643557
  -exchange      EXHF   =         0.00000000
  -V(xc)+E(xc)   XCENC  =       -84.15263292
  PAW double counting   =      1467.38153282    -1352.00076867
  entropy T*S    EENTRO =        -0.00000860
  eigenvalues    EBANDS =         0.42008606
  atomic energy  EATOM  =       669.81430600
  Solvation  Ediel_sol  =         0.00000000
  ---------------------------------------------------
  free energy    TOTEN  =        -9.42610349 eV

  energy without entropy =       -9.42609490  energy(sigma->0) =       -9.42609920


--------------------------------------------------------------------------------------------------------




--------------------------------------- Iteration     14(   4)  ---------------------------------------


    POTLOK:  cpu time    0.1077: real time    0.1086
    SETDIJ:  cpu time    0.0164: real time    0.0164
     EDDAV:  cpu time    1.9775: real time    3.5612
       DOS:  cpu time    0.0026: real time    0.0026
    --------------------------------------------
      LOOP:  cpu time    2.1042: real time    3.6888

 eigenvalue-minimisations  :   638
 total energy-change (2. order) : 0.2798063E-05  (-0.8395778E-06)
 number of electron      17.9999992 magnetization 
 augmentation part       -3.6076368 magnetization 

 Free energy of the ion-electron system (eV)
  ---------------------------------------------------
  alpha Z        PSCENC =         2.22408405
  Ewald energy   TEWEN  =      -667.73626666
  -Hartree energ DENC   =       -45.35988911
  -exchange      EXHF   =         0.00000000
  -V(xc)+E(xc)   XCENC  =       -84.15193032
  PAW double counting   =      1467.85154851    -1352.47134812
  entropy T*S    EENTRO =        -0.00000858
  eigenvalues    EBANDS =         0.40340355
  atomic energy  EATOM  =       669.81430600
  Solvation  Ediel_sol  =         0.00000000
  ---------------------------------------------------
  free energy    TOTEN  =        -9.42610070 eV

  energy without entropy =       -9.42609211  energy(sigma->0) =       -9.42609640


--------------------------------------------------------------------------------------------------------




 average (electrostatic) potential at core
  the test charge radii are     1.1897
  (the norm of the test charge is              1.0000)
       1 -89.3702       2 -89.3702       3 -89.3702
 
 
 
 E-fermi :   5.6537     XC(G=0):  -8.9313     alpha+bet :-10.2318


 k-point     1 :       0.0000    0.0000    0.0000
  band No.  band energies     occupation 
      1      -7.8278      2.00000
      2      -4.6625      2.00000
      3      -4.6625      2.00000
      4       2.5794      2.00000
      5       2.8447      2.00000
      6       2.8447      2.00000
      7       3.9363      2.00000
      8       3.9363      2.00000
      9       4.7390      2.00000
     10       6.5379      0.00000
     11       6.5379      0.00000
     12       7.0945      0.00000
     13      10.5960      0.00000
     14      10.5960      0.00000

 k-point     2 :       0.1111    0.0000    0.0000
  band No.  band energies     occupation 
      1      -7.7485      2.00000
      2      -4.6906      2.00000
      3      -4.6446      2.00000
      4       1.9928      2.00000
      5       2.4525      2.00000
      6       2.6923      2.00000
      7       4.1801      2.00000
      8       4.4651      2.00000
      9       4.9151      2.00000
     10       6.2740      0.00000
     11       6.4796      0.00000
     12       6.9860      0.00000
     13      10.3481      0.00000
     14      10.5504      0.00000

 k-point     3 :       0.2222    0.0000    0.0000
  band No.  band energies     occupation 
      1      -7.5217      2.00000
      2      -4.8087      2.00000
      3      -4.5953      2.00000
      4       1.2642      2.00000
      5       1.9214      2.00000
      6       2.3544      2.00000
      7       4.3044      2.00000
      8       4.5918      2.00000
      9       4.7534      2.00000
     10       6.3909      0.00000
     11       6.5570      0.00000
     12       7.1367      0.00000
     13       9.6194      0.00000
     14      10.7557      0.00000

 k-point     4 :       0.3333   -0.0000    0.0000
  band No.  band energies     occupation 
      1      -7.1918      2.00000
      2      -5.0575      2.00000
      3      -4.5327      2.00000
      4       0.9223      2.00000
      5       1.5079      2.00000
      6       2.0737      2.00000
      7       3.3007      2.00000
      8       4.6362      2.00000
      9       4.7817      2.00000
     10       6.3821      0.00000
     11       6.5319      0.00000
     12       8.1917      0.00000
     13       8.9931      0.00000
     14      11.4852      0.00000

 k-point     5 :       0.4444    0.0000    0.0000
  band No.  band energies     occupation 
      1      -6.8894      2.00000
      2      -5.3338      2.00000
      3      -4.4883      2.00000
      4       0.9072      2.00000
      5       1.3219      2.00000
      6       2.0084      2.00000
      7       2.4279      2.00000
      8       4.5958      2.00000
      9       4.7789      2.00000
     10       6.3893      0.00000
     11       6.4577      0.00000
     12       8.6584      0.00000
     13       9.0088      0.00000
     14      12.5464      0.00000

 k-point     6 :       0.1111    0.1111    0.0000
  band No.  band energies     occupation 
      1      -7.5951      2.00000
      2      -4.7489      2.00000
      3      -4.6271      2.00000
      4       1.5034      2.00000
      5       1.8105      2.00000
      6       2.7456      2.00000
      7       4.0136      2.00000
      8       4.7972      2.00000
      9       4.8359      2.00000
     10       6.2664      0.00000
     11       6.5911      0.00000
     12       7.0594      0.00000
     13      10.1193      0.00000
     14      10.2042      0.00000

 k-point     7 :       0.2222    0.1111    0.0000
  band No.  band energies     occupation 
      1      -7.3138      2.00000
      2      -4.9089      2.00000
      3      -4.6058      2.00000
      4       1.0645      2.00000
      5       1.4103      2.00000
      6       2.4738      2.00000
      7       3.8028      2.00000
      8       4.1150      2.00000
      9       4.5563      2.00000
     10       6.7059      0.00000
     11       7.0298      0.00000
     12       7.5565      0.00000
     13       9.5369      0.00000
     14      10.4735      0.00000

 k-point     8 :       0.3333    0.1111    0.0000
  band No.  band energies     occupation 
      1      -6.9811      2.00000
      2      -5.1763      2.00000
      3      -4.5809      2.00000
      4       0.9434      2.00000
      5       1.2776      2.00000
      6       2.1511      2.00000
      7       2.8728      2.00000
      8       4.0812      2.00000
      9       4.3127      2.00000
     10       6.8521      0.00000
     11       7.0778      0.00000
     12       8.5766      0.00000
     13       9.1166      0.00000
     14      11.3507      0.00000

 k-point     9 :       0.4444    0.1111    0.0000
  band No.  band energies     occupation 
      1      -6.8028      2.00000
      2      -5.3400      2.00000
      3      -4.5697      2.00000
      4       0.9792      2.00000
      5       1.2859      2.00000
      6       2.1609      2.00000
      7       2.2634      2.00000
      8       4.1136      2.00000
      9       4.1960      2.00000
     10       6.8732      0.00000
     11       7.0857      0.00000
     12       8.9692      0.00000
     13       9.0403      0.00000
     14      12.2881      0.00000

 k-point    10 :       0.2222    0.2222    0.0000
  band No.  band energies     occupation 
      1      -7.0192      2.00000
      2      -5.0355      2.00000
      3      -4.7006      2.00000
      4       1.0512      2.00000
      5       1.1322      2.00000
      6       2.4531      2.00000
      7       3.3200      2.00000
      8       3.6370      2.00000
      9       3.6826      2.00000
     10       7.4795      0.00000
     11       7.7361      0.00000
     12       7.9100      0.00000
     13       9.8884      0.00000
     14      10.2484      0.00000

 k-point    11 :       0.3333    0.2222    0.0000
  band No.  band energies     occupation 
      1      -6.7635      2.00000
      2      -5.1853      2.00000
      3      -4.7831      2.00000
      4       1.1134      2.00000
      5       1.2267      2.00000
      6       2.3082      2.00000
      7       2.6436      2.00000
      8       3.3289      2.00000
      9       3.4194      2.00000
     10       7.7080      0.00000
     11       7.9776      0.00000
     12       8.6609      0.00000
     13       9.8217      0.00000
     14      11.1052      0.00000

 k-point    12 :       0.3333    0.3333    0.0000
  band No.  band energies     occupation 
      1      -6.6667      2.00000
      2      -5.0359      2.00000
      3      -5.0359      2.00000
      4       1.2548      2.00000
      5       1.2548      2.00000
      6       2.6078      2.00000
      7       2.6078      2.00000
      8       2.7223      2.00000
      9       2.9990      2.00000
     10       8.3170      0.00000
     11       8.3170      0.00000
     12       8.5832      0.00000
     13      10.4327      0.00000
     14      11.3627      0.00000

 k-point    13 :       0.0000    0.0000    0.2500
  band No.  band energies     occupation 
      1      -7.6096      2.00000
      2      -5.9494      2.00000
      3      -3.3709      2.00000
      4       2.1993      2.00000
      5       2.7004      2.00000
      6       3.0972      2.00000
      7       4.1268      2.00000
      8       4.1310      2.00000
      9       4.7178      2.00000
     10       6.1997      0.00000
     11       6.2719      0.00000
     12       6.5847      0.00000
     13      10.0413      0.00000
     14      11.0516      0.00000

 k-point    14 :       0.1111    0.0000    0.2500
  band No.  band energies     occupation 
      1      -7.5339      2.00000
      2      -5.9028      2.00000
      3      -3.4740      2.00000
      4       1.9407      2.00000
      5       2.5498      2.00000
      6       2.9686      2.00000
      7       3.8515      2.00000
      8       4.2704      2.00000
      9       4.3776      2.00000
     10       6.4500      0.00000
     11       6.5965      0.00000
     12       6.9544      0.00000
     13      10.1051      0.00000
     14      11.0511      0.00000

 k-point    15 :       0.2222    0.0000    0.2500
  band No.  band energies     occupation 
      1      -7.3214      2.00000
      2      -5.7688      2.00000
      3      -3.7926      2.00000
      4       1.6104      2.00000
      5       2.1686      2.00000
      6       2.7145      2.00000
      7       3.2454      2.00000
      8       3.8128      2.00000
      9       4.2962      2.00000
     10       6.8655      0.00000
     11       7.3360      0.00000
     12       7.7078      0.00000
     13      10.3583      0.00000
     14      10.7954      0.00000

 k-point    16 :       0.3333   -0.0000    0.2500
  band No.  band energies     occupation 
      1      -7.0205      2.00000
      2      -5.6029      2.00000
      3      -4.2257      2.00000
      4       1.2913      2.00000
      5       1.6461      2.00000
      6       2.3929      2.00000
      7       2.8266      2.00000
      8       3.8114      2.00000
      9       4.2157      2.00000
     10       6.9274      0.00000
     11       7.5064      0.00000
     12       8.5555      0.00000
     13       9.9429      0.00000
     14      11.2504      0.00000

 k-point    17 :       0.4444    0.0000    0.2500
  band No.  band energies     occupation 
      1      -6.7444      2.00000
      2      -5.5768      2.00000
      3      -4.4655      2.00000
      4       0.7330      2.00000
      5       1.3623      2.00000
      6       2.1199      2.00000
      7       3.2549      2.00000
      8       3.8460      2.00000
      9       4.1604      2.00000
     10       6.8293      0.00000
     11       7.4709      0.00000
     12       8.4431      0.00000
     13       9.4959      0.00000
     14      11.7141      0.00000

 k-point    18 :      -0.4444   -0.0000    0.2500
  band No.  band energies     occupation 
      1      -6.7142      2.00000
      2      -5.7027      2.00000
      3      -4.3085      2.00000
      4       0.4182      2.00000
      5       1.2790      2.00000
      6       2.0826      2.00000
      7       3.9163      2.00000
      8       3.9690      2.00000
      9       4.3002      2.00000
     10       6.6906      0.00000
     11       7.2853      0.00000
     12       7.7166      0.00000
     13       9.2061      0.00000
     14      12.2355      0.00000

 k-point    19 :      -0.3333    0.0000    0.2500
  band No.  band energies     occupation 
      1      -6.9890      2.00000
      2      -5.7548      2.00000
      3      -3.9872      2.00000
      4       0.5988      2.00000
      5       1.3738      2.00000
      6       2.2241      2.00000
      7       4.1707      2.00000
      8       4.2067      2.00000
      9       5.0546      2.00000
     10       6.3749      0.00000
     11       6.9073      0.00000
     12       7.0585      0.00000
     13       9.1179      0.00000
     14      12.2131      0.00000

 k-point    20 :      -0.2222   -0.0000    0.2500
  band No.  band energies     occupation 
      1      -7.3106      2.00000
      2      -5.8241      2.00000
      3      -3.6763      2.00000
      4       1.2618      2.00000
      5       1.6495      2.00000
      6       2.5025      2.00000
      7       4.3783      2.00000
      8       4.4891      2.00000
      9       5.1028      2.00000
     10       6.1609      0.00000
     11       6.5391      0.00000
     12       6.8288      0.00000
     13       9.3285      0.00000
     14      11.6993      0.00000

 k-point    21 :      -0.1111   -0.0000    0.2500
  band No.  band energies     occupation 
      1      -7.5325      2.00000
      2      -5.9099      2.00000
      3      -3.4554      2.00000
      4       1.9609      2.00000
      5       2.2542      2.00000
      6       2.8578      2.00000
      7       4.2813      2.00000
      8       4.4315      2.00000
      9       4.7077      2.00000
     10       6.1378      0.00000
     11       6.1886      0.00000
     12       6.9759      0.00000
     13       9.8156      0.00000
     14      11.1250      0.00000

 k-point    22 :       0.1111    0.1111    0.2500
  band No.  band energies     occupation 
      1      -7.3861      2.00000
      2      -5.8296      2.00000
      3      -3.6474      2.00000
      4       1.6151      2.00000
      5       1.9155      2.00000
      6       2.7287      2.00000
      7       3.7653      2.00000
      8       4.2901      2.00000
      9       4.6838      2.00000
     10       6.4438      0.00000
     11       6.9392      0.00000
     12       7.1157      0.00000
     13       9.8263      0.00000
     14      11.1236      0.00000

 k-point    23 :       0.2222    0.1111    0.2500
  band No.  band energies     occupation 
      1      -7.1250      2.00000
      2      -5.6817      2.00000
      3      -4.0294      2.00000
      4       1.2702      2.00000
      5       1.6729      2.00000
      6       2.5766      2.00000
      7       2.8664      2.00000
      8       3.8836      2.00000
      9       4.8192      2.00000
     10       6.6338      0.00000
     11       7.2817      0.00000
     12       8.1675      0.00000
     13      10.1789      0.00000
     14      10.6348      0.00000

 k-point    24 :       0.3333    0.1111    0.2500
  band No.  band energies     occupation 
      1      -6.8242      2.00000
      2      -5.5619      2.00000
      3      -4.4108      2.00000
      4       0.9838      2.00000
      5       1.2391      2.00000
      6       2.2706      2.00000
      7       2.9140      2.00000
      8       3.5703      2.00000
      9       4.8614      2.00000
     10       6.5449      0.00000
     11       7.6287      0.00000
     12       8.5710      0.00000
     13       9.8165      0.00000
     14      11.3081      0.00000

 k-point    25 :       0.4444    0.1111    0.2500
  band No.  band energies     occupation 
      1      -6.6493      2.00000
      2      -5.6234      2.00000
      3      -4.4686      2.00000
      4       0.5614      2.00000
      5       1.1333      2.00000
      6       2.1596      2.00000
      7       3.1238      2.00000
      8       3.7696      2.00000
      9       4.8804      2.00000
     10       6.4447      0.00000
     11       7.7090      0.00000
     12       8.0964      0.00000
     13       9.5493      0.00000
     14      12.0400      0.00000

 k-point    26 :      -0.4444    0.1111    0.2500
  band No.  band energies     occupation 
      1      -6.7939      2.00000
      2      -5.6986      2.00000
      3      -4.2292      2.00000
      4       0.4788      2.00000
      5       1.2766      2.00000
      6       2.1776      2.00000
      7       3.1705      2.00000
      8       4.5118      2.00000
      9       4.9495      2.00000
     10       6.3259      0.00000
     11       7.1898      0.00000
     12       7.7162      0.00000
     13       9.4341      0.00000
     14      11.9221      0.00000

 k-point    27 :      -0.3333    0.1111    0.2500
  band No.  band energies     occupation 
      1      -7.1123      2.00000
      2      -5.7452      2.00000
      3      -3.9189      2.00000
      4       0.9009      2.00000
      5       1.5247      2.00000
      6       2.3799      2.00000
      7       3.3830      2.00000
      8       4.6480      2.00000
      9       5.2761      2.00000
     10       6.1278      0.00000
     11       6.7676      0.00000
     12       7.5004      0.00000
     13       9.4911      0.00000
     14      11.3187      0.00000

 k-point    28 :       0.2222    0.2222    0.2500
  band No.  band energies     occupation 
      1      -6.8422      2.00000
      2      -5.6258      2.00000
      3      -4.2903      2.00000
      4       0.7211      2.00000
      5       1.3717      2.00000
      6       2.1753      2.00000
      7       2.7437      2.00000
      8       4.2344      2.00000
      9       5.1477      2.00000
     10       6.4449      0.00000
     11       7.1952      0.00000
     12       8.3009      0.00000
     13      10.1131      0.00000
     14      10.7004      0.00000

 k-point    29 :       0.3333    0.2222    0.2500
  band No.  band energies     occupation 
      1      -6.6111      2.00000
      2      -5.5646      2.00000
      3      -4.5574      2.00000
      4       0.7029      2.00000
      5       1.0083      2.00000
      6       1.8563      2.00000
      7       2.9949      2.00000
      8       3.8657      2.00000
      9       4.9404      2.00000
     10       6.6765      0.00000
     11       7.7556      0.00000
     12       8.3025      0.00000
     13      10.1711      0.00000
     14      11.2201      0.00000

 k-point    30 :       0.4444    0.2222    0.2500
  band No.  band energies     occupation 
      1      -6.6020      2.00000
      2      -5.6032      2.00000
      3      -4.5137      2.00000
      4       0.5595      2.00000
      5       1.0839      2.00000
      6       1.8697      2.00000
      7       2.9331      2.00000
      8       4.1902      2.00000
      9       4.7913      2.00000
     10       6.8041      0.00000
     11       7.5248      0.00000
     12       8.1823      0.00000
     13      10.0801      0.00000
     14      11.4541      0.00000

 k-point    31 :       0.3333    0.3333    0.2500
  band No.  band energies     occupation 
      1      -6.5151      2.00000
      2      -5.5596      2.00000
      3      -4.6372      2.00000
      4       0.6569      2.00000
      5       0.9877      2.00000
      6       1.5265      2.00000
      7       3.1742      2.00000
      8       4.0852      2.00000
      9       4.5014      2.00000
     10       7.2922      0.00000
     11       7.8289      0.00000
     12       7.9156      0.00000
     13      10.8907      0.00000
     14      11.1573      0.00000

 k-point    32 :       0.0000    0.0000    0.5000
  band No.  band energies     occupation 
      1      -6.9680      2.00000
      2      -6.9680      2.00000
      3      -2.7305      2.00000
      4       1.7770      2.00000
      5       2.9576      2.00000
      6       2.9576      2.00000
      7       4.2932      2.00000
      8       4.5536      2.00000
      9       4.5536      2.00000
     10       6.0067      0.00000
     11       6.0067      0.00000
     12       6.0351      0.00000
     13       9.7001      0.00000
     14      10.8390      0.00000

 k-point    33 :       0.1111    0.0000    0.5000
  band No.  band energies     occupation 
      1      -6.9098      2.00000
      2      -6.8938      2.00000
      3      -2.8973      2.00000
      4       1.7300      2.00000
      5       2.7879      2.00000
      6       2.8744      2.00000
      7       3.8158      2.00000
      8       4.1646      2.00000
      9       4.3902      2.00000
     10       6.2521      0.00000
     11       6.4235      0.00000
     12       6.8447      0.00000
     13       9.9143      0.00000
     14      10.5657      0.00000

 k-point    34 :       0.2222    0.0000    0.5000
  band No.  band energies     occupation 
      1      -6.7534      2.00000
      2      -6.6808      2.00000
      3      -3.3302      2.00000
      4       1.3864      2.00000
      5       2.2531      2.00000
      6       2.5985      2.00000
      7       3.6233      2.00000
      8       3.7907      2.00000
      9       4.2053      2.00000
     10       6.7180      0.00000
     11       7.1349      0.00000
     12       7.6327      0.00000
     13      10.0849      0.00000
     14      10.7842      0.00000

 k-point    35 :       0.3333   -0.0000    0.5000
  band No.  band energies     occupation 
      1      -6.5566      2.00000
      2      -6.3680      2.00000
      3      -3.8722      2.00000
      4       0.6639      2.00000
      5       2.0208      2.00000
      6       2.3031      2.00000
      7       3.3805      2.00000
      8       3.6566      2.00000
      9       4.5502      2.00000
     10       7.0002      0.00000
     11       7.4941      0.00000
     12       7.7299      0.00000
     13      10.1007      0.00000
     14      11.1209      0.00000

 k-point    36 :       0.4444    0.0000    0.5000
  band No.  band energies     occupation 
      1      -6.4144      2.00000
      2      -6.0782      2.00000
      3      -4.3019      2.00000
      4       0.1699      2.00000
      5       1.9883      2.00000
      6       2.0879      2.00000
      7       3.2207      2.00000
      8       3.5523      2.00000
      9       5.2120      2.00000
     10       6.5155      0.00000
     11       7.4572      0.00000
     12       8.0015      0.00000
     13      10.1662      0.00000
     14      10.9070      0.00000

 k-point    37 :       0.1111    0.1111    0.5000
  band No.  band energies     occupation 
      1      -6.7985      2.00000
      2      -6.7538      2.00000
      3      -3.1947      2.00000
      4       1.5593      2.00000
      5       2.4467      2.00000
      6       2.5143      2.00000
      7       3.5958      2.00000
      8       3.7584      2.00000
      9       4.6383      2.00000
     10       6.1548      0.00000
     11       7.2941      0.00000
     12       7.4170      0.00000
     13      10.3032      0.00000
     14      10.3284      0.00000

 k-point    38 :       0.2222    0.1111    0.5000
  band No.  band energies     occupation 
      1      -6.6106      2.00000
      2      -6.4983      2.00000
      3      -3.6726      2.00000
      4       1.0438      2.00000
      5       1.8820      2.00000
      6       2.0729      2.00000
      7       3.6045      2.00000
      8       3.9724      2.00000
      9       4.6222      2.00000
     10       6.5028      0.00000
     11       7.5910      0.00000
     12       7.7339      0.00000
     13      10.1715      0.00000
     14      10.9771      0.00000

 k-point    39 :       0.3333    0.1111    0.5000
  band No.  band energies     occupation 
      1      -6.4267      2.00000
      2      -6.1934      2.00000
      3      -4.1565      2.00000
      4       0.4208      2.00000
      5       1.6221      2.00000
      6       1.7677      2.00000
      7       3.6887      2.00000
      8       4.0615      2.00000
      9       4.9282      2.00000
     10       6.7439      0.00000
     11       7.2546      0.00000
     12       7.7979      0.00000
     13      10.2231      0.00000
     14      11.1817      0.00000

 k-point    40 :       0.4444    0.1111    0.5000
  band No.  band energies     occupation 
      1      -6.3482      2.00000
      2      -6.0293      2.00000
      3      -4.3878      2.00000
      4       0.1683      2.00000
      5       1.5664      2.00000
      6       1.6387      2.00000
      7       3.8041      2.00000
      8       3.9137      2.00000
      9       5.4244      2.00000
     10       6.3235      0.00000
     11       7.2962      0.00000
     12       7.7947      0.00000
     13      10.3216      0.00000
     14      10.9551      0.00000

 k-point    41 :       0.2222    0.2222    0.5000
  band No.  band energies     occupation 
      1      -6.4088      2.00000
      2      -6.2656      2.00000
      3      -4.0831      2.00000
      4       0.7260      2.00000
      5       1.2112      2.00000
      6       1.5295      2.00000
      7       4.0572      2.00000
      8       4.3747      2.00000
      9       5.0450      2.00000
     10       6.3605      0.00000
     11       7.4519      0.00000
     12       7.5194      0.00000
     13      10.4418      0.00000
     14      11.2946      0.00000

 k-point    42 :       0.3333    0.2222    0.5000
  band No.  band energies     occupation 
      1      -6.2522      2.00000
      2      -6.0764      2.00000
      3      -4.3888      2.00000
      4       0.4122      2.00000
      5       0.9839      2.00000
      6       1.1534      2.00000
      7       4.3904      2.00000
      8       4.7594      2.00000
      9       5.3487      2.00000
     10       6.3102      0.00000
     11       6.9829      0.00000
     12       7.2887      0.00000
     13      10.7895      0.00000
     14      11.4863      0.00000

 k-point    43 :       0.3333    0.3333    0.5000
  band No.  band energies     occupation 
      1      -6.1041      2.00000
      2      -6.1041      2.00000
      3      -4.4748      2.00000
      4       0.5863      2.00000
      5       0.7407      2.00000
      6       0.7407      2.00000
      7       4.6732      2.00000
      8       5.5493      1.99687
      9       5.5493      1.99687
     10       5.7504      0.00627
     11       6.8702      0.00000
     12       6.8702      0.00000
     13      11.4653      0.00000
     14      12.0644      0.00000


--------------------------------------------------------------------------------------------------------


 soft charge-density along one line, spin component           1
         0         1         2         3         4         5         6         7         8         9
 total charge-density along one line
 
 pseudopotential strength for first ion, spin component:           1
 51.789  56.348  -0.000  -0.000  -0.049  -0.000  -0.000  -0.071
 56.348  61.311  -0.000  -0.000  -0.054  -0.000  -0.000  -0.078
 -0.000  -0.000  12.744   0.010   0.000  18.370   0.014   0.000
 -0.000  -0.000   0.010  12.760   0.000   0.014  18.393   0.000
 -0.049  -0.054   0.000   0.000  12.760   0.000   0.000  18.393
 -0.000  -0.000  18.370   0.014   0.000  26.489   0.020   0.000
 -0.000  -0.000   0.014  18.393   0.000   0.020  26.522   0.000
 -0.071  -0.078   0.000   0.000  18.393   0.000   0.000  26.522
  0.000   0.000  -0.010   0.000  -0.000  -0.014   0.001  -0.000
  0.015   0.017   0.000  -0.000   0.000   0.000  -0.000   0.001
  0.007   0.008   0.000  -0.000   0.006   0.000  -0.000   0.009
  0.000   0.000   0.000  -0.009  -0.000   0.001  -0.013  -0.000
  0.012   0.013   0.000  -0.000  -0.009   0.000  -0.000  -0.014
 total augmentation occupancy for first ion, spin component:           1
 12.848  -9.320   0.000   0.000   2.145   0.000   0.000  -0.557   0.000  -0.161  -0.091   0.000  -0.116
 -9.320   8.010   0.000   0.000  -1.797   0.000  -0.000   0.475   0.000   0.146   0.082   0.000   0.104
  0.000   0.000   2.491   0.215   0.000  -0.465  -0.191   0.000  -0.054   0.000   0.000  -0.049   0.000
  0.000  -0.000   0.215   2.831   0.000  -0.191  -0.768  -0.000  -0.048   0.000   0.000  -0.120  -0.000
  2.145  -1.797   0.000   0.000   2.727   0.000  -0.000  -0.712   0.000  -0.054  -0.015   0.000  -0.053
  0.000   0.000  -0.465  -0.191   0.000   0.166   0.071   0.000   0.013  -0.000   0.000   0.018   0.000
  0.000  -0.000  -0.191  -0.768  -0.000   0.071   0.275   0.000   0.018   0.000   0.000   0.036   0.000
 -0.557   0.475   0.000  -0.000  -0.712   0.000   0.000   0.246   0.000   0.015   0.003  -0.000   0.013
  0.000   0.000  -0.054  -0.048   0.000   0.013   0.018   0.000   0.009   0.000   0.000   0.010   0.000
 -0.161   0.146   0.000   0.000  -0.054   0.000   0.000   0.015   0.000   0.013   0.004   0.000   0.003
 -0.091   0.082   0.000   0.000  -0.015   0.000   0.000   0.003   0.000   0.004   0.007  -0.000  -0.001
  0.000  -0.000  -0.049  -0.120   0.000   0.018   0.036   0.000   0.010   0.000   0.000   0.025   0.000
 -0.116   0.104   0.000  -0.000  -0.053   0.000   0.000   0.013   0.000   0.003  -0.001   0.000   0.009


------------------------ aborting loop because EDIFF is reached ----------------------------------------


    CHARGE:  cpu time    0.2801: real time    0.3039
    FORLOC:  cpu time    0.0075: real time    0.0075
    FORNL :  cpu time    0.9327: real time    1.0537
    STRESS:  cpu time    1.0952: real time    2.1990
    FORCOR:  cpu time    0.1090: real time    0.2210
    FORHAR:  cpu time    0.0250: real time    0.0520
    MIXING:  cpu time    0.0035: real time    0.0035
    OFIELD:  cpu time    0.0000: real time    0.0000

  FORCE on cell =-STRESS in cart. coord.  units (eV):
  Direction    XX          YY          ZZ          XY          YZ          ZX
  --------------------------------------------------------------------------------------
  Alpha Z     2.22408     2.22408     2.22408
  Ewald    -235.02083  -235.02083  -197.69535    -0.00000    -0.00001     0.00000
  Hartree    11.83991    11.83991    21.67460     0.00000     0.00000    -0.00000
  E(xc)     -70.21198   -70.21198   -69.75404    -0.00000     0.00000    -0.00000
  Local    -114.63171  -114.63177  -153.02061    -0.00004     0.00000    -0.00000
  n-local   331.44180   332.29330   327.77050    -1.16028    -0.70755    -1.20363
  augment   -81.03397   -81.03392   -78.89827     0.00004    -0.00000     0.00000
  Kinetic   151.72293   158.15827   147.66850    -7.17777     0.17313     1.57343
  Fock        0.00000     0.00000     0.00000     0.00000     0.00000     0.00000
  -------------------------------------------------------------------------------------
  Total      -0.02634    -0.02634    -0.03059     0.00000     0.00000     0.00000
  in kB      -0.40153    -0.40153    -0.46637     0.00000     0.00000     0.00000
  external pressure =       -0.42 kB  Pullay stress =        0.00 kB


 VOLUME and BASIS-vectors are now :
 -----------------------------------------------------------------------------
  energy-cutoff  :      520.00
  volume of cell :      105.10
      direct lattice vectors                 reciprocal lattice vectors
     4.513746108 -0.000000000  0.000000000     0.221545469  0.127909336 -0.000000000
    -2.256873054  3.909018796 -0.000000000    -0.000000000  0.255818673  0.000000000
     0.000000000 -0.000000000  5.956627250    -0.000000000  0.000000000  0.167880238

  length of vectors
     4.513746108  4.513746108  5.956627250     0.255818673  0.255818673  0.167880238


 FORCES acting on ions
    electron-ion (+dipol)            ewald-force                    non-local-force                 convergence-correction
 -----------------------------------------------------------------------------------------------
   -.119E+02 0.119E-04 -.110E-05   0.170E+02 0.155E-05 0.164E-05   -.509E+01 -.277E-16 0.278E-16   0.194E-02 0.885E-08 -.506E-09
   0.595E+01 -.103E+02 -.184E-04   -.849E+01 0.147E+02 -.810E-05   0.255E+01 -.441E+01 0.000E+00   -.968E-03 0.168E-02 0.107E-08
   0.595E+01 0.103E+02 0.192E-04   -.849E+01 -.147E+02 0.646E-05   0.255E+01 0.441E+01 0.000E+00   -.968E-03 -.168E-02 -.564E-09
 -----------------------------------------------------------------------------------------------
   0.260E-04 -.768E-05 -.310E-06   0.000E+00 -.178E-14 0.174E-17   0.000E+00 -.888E-15 0.278E-16   0.242E-08 0.578E-08 0.540E-11
 
 
 POSITION                                       TOTAL-FORCE (eV/Angst)
 -----------------------------------------------------------------------------------
      1.21579     -0.00000      1.98554        -0.003893      0.000000     -0.000000
     -0.60789      1.05290      3.97108         0.001946     -0.003371      0.000000
      1.64898      2.85612      0.00000         0.001946      0.003371      0.000000
 -----------------------------------------------------------------------------------
    total drift:                                0.000026     -0.000008     -0.000000


--------------------------------------------------------------------------------------------------------



  FREE ENERGIE OF THE ION-ELECTRON SYSTEM (eV)
  ---------------------------------------------------
  free  energy   TOTEN  =        -9.42610070 eV

  energy  without entropy=       -9.42609211  energy(sigma->0) =       -9.42609640
 
 d Force =-0.2350102E-04[-0.164E-04,-0.306E-04]  d Energy = 0.6404066E-04-0.875E-04
 d Force = 0.7168718E-01[ 0.714E-01, 0.719E-01]  d Ewald  = 0.6158996E+00-0.544E+00


--------------------------------------------------------------------------------------------------------


    POTLOK:  cpu time    0.2478: real time    0.3104


--------------------------------------------------------------------------------------------------------




--------------------------------------------------------------------------------------------------------


    WAVPRE:  cpu time    0.0403: real time    0.0561
    FEWALD:  cpu time    0.0003: real time    0.0129
    GENKIN:  cpu time    0.0448: real time    0.0549
    ORTHCH:  cpu time    0.5670: real time    0.7219
     LOOP+:  cpu time   16.0306: real time   23.4183


--------------------------------------- Iteration     15(   1)  ---------------------------------------


    POTLOK:  cpu time    0.1667: real time    0.2873
    SETDIJ:  cpu time    0.0182: real time    0.0182
     EDDAV:  cpu time    3.5023: real time    4.6416
       DOS:  cpu time    0.0025: real time    0.0025
    CHARGE:  cpu time    0.1324: real time    0.2689
    MIXING:  cpu time    0.0030: real time    0.0030
    --------------------------------------------
      LOOP:  cpu time    3.8250: real time    5.2215

 eigenvalue-minimisations  :  1204
 total energy-change (2. order) :-0.8503146E-03  (-0.4340340E-02)
 number of electron      17.9999992 magnetization 
 augmentation part       -3.6033890 magnetization 

 Broyden mixing:
  rms(total) = 0.14044E-01    rms(broyden)= 0.14043E-01
  rms(prec ) = 0.26639E-01
  weight for this iteration     100.00

 Free energy of the ion-electron system (eV)
  ---------------------------------------------------
  alpha Z        PSCENC =         2.23440847
  Ewald energy   TEWEN  =      -668.96961369
  -Hartree energ DENC   =       -45.31080993
  -exchange      EXHF   =         0.00000000
  -V(xc)+E(xc)   XCENC  =       -84.14050638
  PAW double counting   =      1469.10509306    -1353.72700905
  entropy T*S    EENTRO =        -0.00001264
  eigenvalues    EBANDS =         1.56719035
  atomic energy  EATOM  =       669.81430600
  Solvation  Ediel_sol  =         0.00000000
  ---------------------------------------------------
  free energy    TOTEN  =        -9.42695381 eV

  energy without entropy =       -9.42694117  energy(sigma->0) =       -9.42694749


--------------------------------------------------------------------------------------------------------




--------------------------------------- Iteration     15(   2)  ---------------------------------------


    POTLOK:  cpu time    0.0813: real time    0.1588
    SETDIJ:  cpu time    0.0126: real time    0.0336
     EDDAV:  cpu time    2.9625: real time    4.7361
       DOS:  cpu time    0.0050: real time    0.0133
    CHARGE:  cpu time    0.1459: real time    0.2923
    MIXING:  cpu time    0.0099: real time    0.0189
    --------------------------------------------
      LOOP:  cpu time    3.2172: real time    5.2529

 eigenvalue-minimisations  :  1264
 total energy-change (2. order) : 0.6015890E-03  (-0.1695644E-03)
 number of electron      17.9999992 magnetization 
 augmentation part       -3.6040887 magnetization 

 Broyden mixing:
  rms(total) = 0.88623E-02    rms(broyden)= 0.88623E-02
  rms(prec ) = 0.15745E-01
  weight for this iteration     100.00

 eigenvalues of (default mixing * dielectric matrix)
  average eigenvalue GAMMA=   1.1325
  1.1325

 Free energy of the ion-electron system (eV)
  ---------------------------------------------------
  alpha Z        PSCENC =         2.23440847
  Ewald energy   TEWEN  =      -668.96961369
  -Hartree energ DENC   =       -45.13904032
  -exchange      EXHF   =         0.00000000
  -V(xc)+E(xc)   XCENC  =       -84.13766197
  PAW double counting   =      1470.18213238    -1354.80155637
  entropy T*S    EENTRO =        -0.00001310
  eigenvalues    EBANDS =         1.39068638
  atomic energy  EATOM  =       669.81430600
  Solvation  Ediel_sol  =         0.00000000
  ---------------------------------------------------
  free energy    TOTEN  =        -9.42635222 eV

  energy without entropy =       -9.42633912  energy(sigma->0) =       -9.42634567


--------------------------------------------------------------------------------------------------------




--------------------------------------- Iteration     15(   3)  ---------------------------------------


    POTLOK:  cpu time    0.0806: real time    0.1568
    SETDIJ:  cpu time    0.0100: real time    0.0224
     EDDAV:  cpu time    3.3084: real time    4.5547
       DOS:  cpu time    0.0024: real time    0.0024
    CHARGE:  cpu time    0.2559: real time    0.2571
    MIXING:  cpu time    0.0134: real time    0.0134
    --------------------------------------------
      LOOP:  cpu time    3.6707: real time    5.0068

 eigenvalue-minimisations  :  1354
 total energy-change (2. order) : 0.3239565E-03  (-0.6115148E-04)
 number of electron      17.9999992 magnetization 
 augmentation part       -3.6074460 magnetization 

 Broyden mixing:
  rms(total) = 0.65258E-02    rms(broyden)= 0.65258E-02
  rms(prec ) = 0.70479E-02
  weight for this iteration     100.00

 eigenvalues of (default mixing * dielectric matrix)
  average eigenvalue GAMMA=   1.1263
  1.5830  0.6696

 Free energy of the ion-electron system (eV)
  ---------------------------------------------------
  alpha Z        PSCENC =         2.23440847
  Ewald energy   TEWEN  =      -668.96961369
  -Hartree energ DENC   =       -44.97150412
  -exchange      EXHF   =         0.00000000
  -V(xc)+E(xc)   XCENC  =       -84.13207799
  PAW double counting   =      1472.67334255    -1357.29203379
  entropy T*S    EENTRO =        -0.00001343
  eigenvalues    EBANDS =         1.21715775
  atomic energy  EATOM  =       669.81430600
  Solvation  Ediel_sol  =         0.00000000
  ---------------------------------------------------
  free energy    TOTEN  =        -9.42602826 eV

  energy without entropy =       -9.42601483  energy(sigma->0) =       -9.42602155


--------------------------------------------------------------------------------------------------------




--------------------------------------- Iteration     15(   4)  ---------------------------------------


    POTLOK:  cpu time    0.1392: real time    0.1571
    SETDIJ:  cpu time    0.0212: real time    0.0212
     EDDAV:  cpu time    2.7095: real time    4.0211
       DOS:  cpu time    0.0025: real time    0.0025
    CHARGE:  cpu time    0.1777: real time    0.3604
    MIXING:  cpu time    0.0094: real time    0.0178
    --------------------------------------------
      LOOP:  cpu time    3.0596: real time    4.5802

 eigenvalue-minimisations  :  1348
 total energy-change (2. order) : 0.1023896E-04  (-0.3396164E-05)
 number of electron      17.9999992 magnetization 
 augmentation part       -3.6083248 magnetization 

 Broyden mixing:
  rms(total) = 0.84367E-02    rms(broyden)= 0.84367E-02
  rms(prec ) = 0.84861E-02
  weight for this iteration     100.00

 eigenvalues of (default mixing * dielectric matrix)
  average eigenvalue GAMMA=   1.4568
  1.2747  1.5478  1.5478

 Free energy of the ion-electron system (eV)
  ---------------------------------------------------
  alpha Z        PSCENC =         2.23440847
  Ewald energy   TEWEN  =      -668.96961369
  -Hartree energ DENC   =       -44.94253817
  -exchange      EXHF   =         0.00000000
  -V(xc)+E(xc)   XCENC  =       -84.13079034
  PAW double counting   =      1473.50832557    -1358.12805621
  entropy T*S    EENTRO =        -0.00001340
  eigenvalues    EBANDS =         1.18795374
  atomic energy  EATOM  =       669.81430600
  Solvation  Ediel_sol  =         0.00000000
  ---------------------------------------------------
  free energy    TOTEN  =        -9.42601802 eV

  energy without entropy =       -9.42600463  energy(sigma->0) =       -9.42601133


--------------------------------------------------------------------------------------------------------




--------------------------------------- Iteration     15(   5)  ---------------------------------------


    POTLOK:  cpu time    0.0951: real time    0.1985
    SETDIJ:  cpu time    0.0179: real time    0.0349
     EDDAV:  cpu time    2.0032: real time    3.6394
       DOS:  cpu time    0.0026: real time    0.0026
    --------------------------------------------
      LOOP:  cpu time    2.1188: real time    3.8754

 eigenvalue-minimisations  :   620
 total energy-change (2. order) : 0.2102087E-05  (-0.2075522E-06)
 number of electron      17.9999992 magnetization 
 augmentation part       -3.6083248 magnetization 

 Free energy of the ion-electron system (eV)
  ---------------------------------------------------
  alpha Z        PSCENC =         2.23440847
  Ewald energy   TEWEN  =      -668.96961369
  -Hartree energ DENC   =       -44.93712993
  -exchange      EXHF   =         0.00000000
  -V(xc)+E(xc)   XCENC  =       -84.13083398
  PAW double counting   =      1474.97403055    -1359.59629840
  entropy T*S    EENTRO =        -0.00001329
  eigenvalues    EBANDS =         1.18512836
  atomic energy  EATOM  =       669.81430600
  Solvation  Ediel_sol  =         0.00000000
  ---------------------------------------------------
  free energy    TOTEN  =        -9.42601592 eV

  energy without entropy =       -9.42600263  energy(sigma->0) =       -9.42600927


--------------------------------------------------------------------------------------------------------




 average (electrostatic) potential at core
  the test charge radii are     1.1897
  (the norm of the test charge is              1.0000)
       1 -89.3210       2 -89.3210       3 -89.3210
 
 
 
 E-fermi :   5.7073     XC(G=0):  -8.9530     alpha+bet :-10.2793


 k-point     1 :       0.0000    0.0000    0.0000
  band No.  band energies     occupation 
      1      -7.7960      2.00000
      2      -4.6191      2.00000
      3      -4.6191      2.00000
      4       2.6349      2.00000
      5       2.9058      2.00000
      6       2.9058      2.00000
      7       3.9863      2.00000
      8       3.9863      2.00000
      9       4.7832      2.00000
     10       6.5943      0.00000
     11       6.5943      0.00000
     12       7.1585      0.00000
     13      10.6443      0.00000
     14      10.6443      0.00000

 k-point     2 :       0.1111    0.0000    0.0000
  band No.  band energies     occupation 
      1      -7.7158      2.00000
      2      -4.6465      2.00000
      3      -4.6005      2.00000
      4       2.0390      2.00000
      5       2.5056      2.00000
      6       2.7457      2.00000
      7       4.2375      2.00000
      8       4.5215      2.00000
      9       4.9703      2.00000
     10       6.3243      0.00000
     11       6.5338      0.00000
     12       7.0448      0.00000
     13      10.3921      0.00000
     14      10.6006      0.00000

 k-point     3 :       0.2222    0.0000    0.0000
  band No.  band energies     occupation 
      1      -7.4860      2.00000
      2      -4.7639      2.00000
      3      -4.5493      2.00000
      4       1.3000      2.00000
      5       1.9656      2.00000
      6       2.4006      2.00000
      7       4.3602      2.00000
      8       4.6502      2.00000
      9       4.8090      2.00000
     10       6.4412      0.00000
     11       6.6121      0.00000
     12       7.1925      0.00000
     13       9.6563      0.00000
     14      10.8117      0.00000

 k-point     4 :       0.3333   -0.0000    0.0000
  band No.  band energies     occupation 
      1      -7.1510      2.00000
      2      -5.0148      2.00000
      3      -4.4842      2.00000
      4       0.9538      2.00000
      5       1.5454      2.00000
      6       2.1146      2.00000
      7       3.3405      2.00000
      8       4.6992      2.00000
      9       4.8383      2.00000
     10       6.4288      0.00000
     11       6.5808      0.00000
     12       8.2575      0.00000
     13       9.0257      0.00000
     14      11.5513      0.00000

 k-point     5 :       0.4444    0.0000    0.0000
  band No.  band energies     occupation 
      1      -6.8423      2.00000
      2      -5.2964      2.00000
      3      -4.4381      2.00000
      4       0.9400      2.00000
      5       1.3582      2.00000
      6       2.0438      2.00000
      7       2.4589      2.00000
      8       4.6570      2.00000
      9       4.8370      2.00000
     10       6.4355      0.00000
     11       6.5023      0.00000
     12       8.6888      0.00000
     13       9.0781      0.00000
     14      12.6241      0.00000

 k-point     6 :       0.1111    0.1111    0.0000
  band No.  band energies     occupation 
      1      -7.5605      2.00000
      2      -4.7038      2.00000
      3      -4.5819      2.00000
      4       1.5428      2.00000
      5       1.8522      2.00000
      6       2.8010      2.00000
      7       4.0623      2.00000
      8       4.8596      2.00000
      9       4.8933      2.00000
     10       6.3170      0.00000
     11       6.6428      0.00000
     12       7.1180      0.00000
     13      10.1646      0.00000
     14      10.2469      0.00000

 k-point     7 :       0.2222    0.1111    0.0000
  band No.  band energies     occupation 
      1      -7.2750      2.00000
      2      -4.8641      2.00000
      3      -4.5591      2.00000
      4       1.0975      2.00000
      5       1.4468      2.00000
      6       2.5219      2.00000
      7       3.8496      2.00000
      8       4.1625      2.00000
      9       4.6111      2.00000
     10       6.7595      0.00000
     11       7.0903      0.00000
     12       7.6169      0.00000
     13       9.5756      0.00000
     14      10.5238      0.00000

 k-point     8 :       0.3333    0.1111    0.0000
  band No.  band energies     occupation 
      1      -6.9363      2.00000
      2      -5.1356      2.00000
      3      -4.5325      2.00000
      4       0.9759      2.00000
      5       1.3128      2.00000
      6       2.1903      2.00000
      7       2.9084      2.00000
      8       4.1305      2.00000
      9       4.3634      2.00000
     10       6.9066      0.00000
     11       7.1341      0.00000
     12       8.6442      0.00000
     13       9.1526      0.00000
     14      11.4122      0.00000

 k-point     9 :       0.4444    0.1111    0.0000
  band No.  band energies     occupation 
      1      -6.7537      2.00000
      2      -5.3032      2.00000
      3      -4.5206      2.00000
      4       1.0133      2.00000
      5       1.3238      2.00000
      6       2.1970      2.00000
      7       2.2907      2.00000
      8       4.1656      2.00000
      9       4.2430      2.00000
     10       6.9281      0.00000
     11       7.1401      0.00000
     12       9.0042      0.00000
     13       9.1102      0.00000
     14      12.3627      0.00000

 k-point    10 :       0.2222    0.2222    0.0000
  band No.  band energies     occupation 
      1      -6.9754      2.00000
      2      -4.9919      2.00000
      3      -4.6546      2.00000
      4       1.0841      2.00000
      5       1.1662      2.00000
      6       2.4987      2.00000
      7       3.3608      2.00000
      8       3.6808      2.00000
      9       3.7210      2.00000
     10       7.5450      0.00000
     11       7.8001      0.00000
     12       7.9716      0.00000
     13       9.9366      0.00000
     14      10.2925      0.00000

 k-point    11 :       0.3333    0.2222    0.0000
  band No.  band energies     occupation 
      1      -6.7138      2.00000
      2      -5.1458      2.00000
      3      -4.7378      2.00000
      4       1.1496      2.00000
      5       1.2644      2.00000
      6       2.3444      2.00000
      7       2.6771      2.00000
      8       3.3696      2.00000
      9       3.4553      2.00000
     10       7.7733      0.00000
     11       8.0420      0.00000
     12       8.7297      0.00000
     13       9.8677      0.00000
     14      11.1620      0.00000

 k-point    12 :       0.3333    0.3333    0.0000
  band No.  band energies     occupation 
      1      -6.6145      2.00000
      2      -4.9947      2.00000
      3      -4.9947      2.00000
      4       1.2949      2.00000
      5       1.2949      2.00000
      6       2.6425      2.00000
      7       2.6425      2.00000
      8       2.7601      2.00000
      9       3.0246      2.00000
     10       8.3872      0.00000
     11       8.3872      0.00000
     12       8.6511      0.00000
     13      10.4924      0.00000
     14      11.4158      0.00000

 k-point    13 :       0.0000    0.0000    0.2500
  band No.  band energies     occupation 
      1      -7.5773      2.00000
      2      -5.9120      2.00000
      3      -3.3176      2.00000
      4       2.2503      2.00000
      5       2.7552      2.00000
      6       3.1534      2.00000
      7       4.1769      2.00000
      8       4.1922      2.00000
      9       4.7673      2.00000
     10       6.2531      0.00000
     11       6.3241      0.00000
     12       6.6457      0.00000
     13      10.0766      0.00000
     14      11.1024      0.00000

 k-point    14 :       0.1111    0.0000    0.2500
  band No.  band energies     occupation 
      1      -7.5006      2.00000
      2      -5.8645      2.00000
      3      -3.4213      2.00000
      4       1.9863      2.00000
      5       2.6051      2.00000
      6       3.0252      2.00000
      7       3.8968      2.00000
      8       4.3278      2.00000
      9       4.4228      2.00000
     10       6.5051      0.00000
     11       6.6549      0.00000
     12       7.0190      0.00000
     13      10.1452      0.00000
     14      11.1014      0.00000

 k-point    15 :       0.2222    0.0000    0.2500
  band No.  band energies     occupation 
      1      -7.2853      2.00000
      2      -5.7276      2.00000
      3      -3.7430      2.00000
      4       1.6533      2.00000
      5       2.2207      2.00000
      6       2.7626      2.00000
      7       3.2858      2.00000
      8       3.8586      2.00000
      9       4.3398      2.00000
     10       6.9260      0.00000
     11       7.4017      0.00000
     12       7.7760      0.00000
     13      10.4070      0.00000
     14      10.8423      0.00000

 k-point    16 :       0.3333   -0.0000    0.2500
  band No.  band energies     occupation 
      1      -6.9798      2.00000
      2      -5.5573      2.00000
      3      -4.1825      2.00000
      4       1.3326      2.00000
      5       1.6903      2.00000
      6       2.4357      2.00000
      7       2.8594      2.00000
      8       3.8586      2.00000
      9       4.2580      2.00000
     10       6.9859      0.00000
     11       7.5689      0.00000
     12       8.6249      0.00000
     13       9.9808      0.00000
     14      11.3016      0.00000

 k-point    17 :       0.4444    0.0000    0.2500
  band No.  band energies     occupation 
      1      -6.6983      2.00000
      2      -5.5305      2.00000
      3      -4.4257      2.00000
      4       0.7646      2.00000
      5       1.4029      2.00000
      6       2.1615      2.00000
      7       3.2903      2.00000
      8       3.8945      2.00000
      9       4.2027      2.00000
     10       6.8848      0.00000
     11       7.5308      0.00000
     12       8.5038      0.00000
     13       9.5291      0.00000
     14      11.7638      0.00000

 k-point    18 :      -0.4444   -0.0000    0.2500
  band No.  band energies     occupation 
      1      -6.6669      2.00000
      2      -5.6609      2.00000
      3      -4.2635      2.00000
      4       0.4451      2.00000
      5       1.3163      2.00000
      6       2.1245      2.00000
      7       3.9628      2.00000
      8       4.0198      2.00000
      9       4.3402      2.00000
     10       6.7449      0.00000
     11       7.3439      0.00000
     12       7.7703      0.00000
     13       9.2382      0.00000
     14      12.2922      0.00000

 k-point    19 :      -0.3333    0.0000    0.2500
  band No.  band energies     occupation 
      1      -6.9475      2.00000
      2      -5.7132      2.00000
      3      -3.9373      2.00000
      4       0.6283      2.00000
      5       1.4099      2.00000
      6       2.2674      2.00000
      7       4.2220      2.00000
      8       4.2622      2.00000
      9       5.1042      2.00000
     10       6.4285      0.00000
     11       6.9567      0.00000
     12       7.1153      0.00000
     13       9.1510      0.00000
     14      12.2772      0.00000

 k-point    20 :      -0.2222   -0.0000    0.2500
  band No.  band energies     occupation 
      1      -7.2743      2.00000
      2      -5.7839      2.00000
      3      -3.6239      2.00000
      4       1.3004      2.00000
      5       1.6880      2.00000
      6       2.5486      2.00000
      7       4.4358      2.00000
      8       4.5476      2.00000
      9       5.1603      2.00000
     10       6.2112      0.00000
     11       6.5954      0.00000
     12       6.8785      0.00000
     13       9.3643      0.00000
     14      11.7534      0.00000

 k-point    21 :      -0.1111   -0.0000    0.2500
  band No.  band energies     occupation 
      1      -7.4992      2.00000
      2      -5.8717      2.00000
      3      -3.4023      2.00000
      4       2.0076      2.00000
      5       2.3028      2.00000
      6       2.9094      2.00000
      7       4.3308      2.00000
      8       4.4947      2.00000
      9       4.7659      2.00000
     10       6.1884      0.00000
     11       6.2381      0.00000
     12       7.0382      0.00000
     13       9.8536      0.00000
     14      11.1712      0.00000

 k-point    22 :       0.1111    0.1111    0.2500
  band No.  band energies     occupation 
      1      -7.3509      2.00000
      2      -5.7897      2.00000
      3      -3.5957      2.00000
      4       1.6584      2.00000
      5       1.9585      2.00000
      6       2.7784      2.00000
      7       3.8135      2.00000
      8       4.3437      2.00000
      9       4.7353      2.00000
     10       6.4994      0.00000
     11       7.0003      0.00000
     12       7.1759      0.00000
     13       9.8678      0.00000
     14      11.1754      0.00000

 k-point    23 :       0.2222    0.1111    0.2500
  band No.  band energies     occupation 
      1      -7.0861      2.00000
      2      -5.6384      2.00000
      3      -3.9825      2.00000
      4       1.3106      2.00000
      5       1.7157      2.00000
      6       2.6208      2.00000
      7       2.9035      2.00000
      8       3.9283      2.00000
      9       4.8721      2.00000
     10       6.6871      0.00000
     11       7.3438      0.00000
     12       8.2374      0.00000
     13      10.2256      0.00000
     14      10.6793      0.00000

 k-point    24 :       0.3333    0.1111    0.2500
  band No.  band energies     occupation 
      1      -6.7799      2.00000
      2      -5.5149      2.00000
      3      -4.3703      2.00000
      4       1.0207      2.00000
      5       1.2762      2.00000
      6       2.3131      2.00000
      7       2.9504      2.00000
      8       3.6080      2.00000
      9       4.9164      2.00000
     10       6.5936      0.00000
     11       7.6928      0.00000
     12       8.6369      0.00000
     13       9.8550      0.00000
     14      11.3626      0.00000

 k-point    25 :       0.4444    0.1111    0.2500
  band No.  band energies     occupation 
      1      -6.6008      2.00000
      2      -5.5793      2.00000
      3      -4.4274      2.00000
      4       0.5906      2.00000
      5       1.1694      2.00000
      6       2.2036      2.00000
      7       3.1614      2.00000
      8       3.8069      2.00000
      9       4.9375      2.00000
     10       6.4920      0.00000
     11       7.7713      0.00000
     12       8.1539      0.00000
     13       9.5865      0.00000
     14      12.0968      0.00000

 k-point    26 :      -0.4444    0.1111    0.2500
  band No.  band energies     occupation 
      1      -6.7487      2.00000
      2      -5.6561      2.00000
      3      -4.1829      2.00000
      4       0.5068      2.00000
      5       1.3135      2.00000
      6       2.2204      2.00000
      7       3.2091      2.00000
      8       4.5626      2.00000
      9       5.0045      2.00000
     10       6.3747      0.00000
     11       7.2403      0.00000
     12       7.7785      0.00000
     13       9.4721      0.00000
     14      11.9827      0.00000

 k-point    27 :      -0.3333    0.1111    0.2500
  band No.  band energies     occupation 
      1      -7.0730      2.00000
      2      -5.7033      2.00000
      3      -3.8690      2.00000
      4       0.9349      2.00000
      5       1.5632      2.00000
      6       2.4238      2.00000
      7       3.4256      2.00000
      8       4.7084      2.00000
      9       5.3341      2.00000
     10       6.1751      0.00000
     11       6.8158      0.00000
     12       7.5646      0.00000
     13       9.5301      0.00000
     14      11.3705      0.00000

 k-point    28 :       0.2222    0.2222    0.2500
  band No.  band energies     occupation 
      1      -6.7983      2.00000
      2      -5.5810      2.00000
      3      -4.2463      2.00000
      4       0.7531      2.00000
      5       1.4122      2.00000
      6       2.2150      2.00000
      7       2.7764      2.00000
      8       4.2843      2.00000
      9       5.2025      2.00000
     10       6.4928      0.00000
     11       7.2526      0.00000
     12       8.3689      0.00000
     13      10.1606      0.00000
     14      10.7461      0.00000

 k-point    29 :       0.3333    0.2222    0.2500
  band No.  band energies     occupation 
      1      -6.5620      2.00000
      2      -5.5182      2.00000
      3      -4.5185      2.00000
      4       0.7355      2.00000
      5       1.0428      2.00000
      6       1.8920      2.00000
      7       3.0333      2.00000
      8       3.9062      2.00000
      9       4.9921      2.00000
     10       6.7270      0.00000
     11       7.8196      0.00000
     12       8.3657      0.00000
     13      10.2168      0.00000
     14      11.2761      0.00000

 k-point    30 :       0.4444    0.2222    0.2500
  band No.  band energies     occupation 
      1      -6.5525      2.00000
      2      -5.5585      2.00000
      3      -4.4732      2.00000
      4       0.5893      2.00000
      5       1.1201      2.00000
      6       1.9061      2.00000
      7       2.9698      2.00000
      8       4.2352      2.00000
      9       4.8399      2.00000
     10       6.8593      0.00000
     11       7.5800      0.00000
     12       8.2481      0.00000
     13      10.1254      0.00000
     14      11.5123      0.00000

 k-point    31 :       0.3333    0.3333    0.2500
  band No.  band energies     occupation 
      1      -6.4634      2.00000
      2      -5.5135      2.00000
      3      -4.5998      2.00000
      4       0.6892      2.00000
      5       1.0237      2.00000
      6       1.5550      2.00000
      7       3.2165      2.00000
      8       4.1294      2.00000
      9       4.5420      2.00000
     10       7.3532      0.00000
     11       7.8888      0.00000
     12       7.9766      0.00000
     13      10.9473      0.00000
     14      11.2174      0.00000

 k-point    32 :       0.0000    0.0000    0.5000
  band No.  band energies     occupation 
      1      -6.9340      2.00000
      2      -6.9340      2.00000
      3      -2.6696      2.00000
      4       1.8186      2.00000
      5       3.0110      2.00000
      6       3.0110      2.00000
      7       4.3459      2.00000
      8       4.6164      2.00000
      9       4.6164      2.00000
     10       6.0590      0.00000
     11       6.0590      0.00000
     12       6.0828      0.00000
     13       9.7340      0.00000
     14      10.8865      0.00000

 k-point    33 :       0.1111    0.0000    0.5000
  band No.  band energies     occupation 
      1      -6.8749      2.00000
      2      -6.8589      2.00000
      3      -2.8383      2.00000
      4       1.7738      2.00000
      5       2.8397      2.00000
      6       2.9285      2.00000
      7       3.8583      2.00000
      8       4.2175      2.00000
      9       4.4444      2.00000
     10       6.3059      0.00000
     11       6.4827      0.00000
     12       6.9086      0.00000
     13       9.9511      0.00000
     14      10.6104      0.00000

 k-point    34 :       0.2222    0.0000    0.5000
  band No.  band energies     occupation 
      1      -6.7158      2.00000
      2      -6.6430      2.00000
      3      -3.2764      2.00000
      4       1.4309      2.00000
      5       2.2960      2.00000
      6       2.6518      2.00000
      7       3.6642      2.00000
      8       3.8329      2.00000
      9       4.2512      2.00000
     10       6.7779      0.00000
     11       7.2014      0.00000
     12       7.6988      0.00000
     13      10.1211      0.00000
     14      10.8362      0.00000

 k-point    35 :       0.3333   -0.0000    0.5000
  band No.  band energies     occupation 
      1      -6.5154      2.00000
      2      -6.3251      2.00000
      3      -3.8260      2.00000
      4       0.6982      2.00000
      5       2.0656      2.00000
      6       2.3549      2.00000
      7       3.4206      2.00000
      8       3.6934      2.00000
      9       4.5928      2.00000
     10       7.0618      0.00000
     11       7.5488      0.00000
     12       7.7983      0.00000
     13      10.1374      0.00000
     14      11.1692      0.00000

 k-point    36 :       0.4444    0.0000    0.5000
  band No.  band energies     occupation 
      1      -6.3703      2.00000
      2      -6.0288      2.00000
      3      -4.2638      2.00000
      4       0.1972      2.00000
      5       2.0360      2.00000
      6       2.1375      2.00000
      7       3.2586      2.00000
      8       3.5873      2.00000
      9       5.2592      2.00000
     10       6.5609      0.00000
     11       7.5160      0.00000
     12       8.0688      0.00000
     13      10.2066      0.00000
     14      10.9410      0.00000

 k-point    37 :       0.1111    0.1111    0.5000
  band No.  band energies     occupation 
      1      -6.7618      2.00000
      2      -6.7170      2.00000
      3      -3.1392      2.00000
      4       1.6053      2.00000
      5       2.4937      2.00000
      6       2.5645      2.00000
      7       3.6329      2.00000
      8       3.7998      2.00000
      9       4.6989      2.00000
     10       6.2055      0.00000
     11       7.3620      0.00000
     12       7.4840      0.00000
     13      10.3445      0.00000
     14      10.3710      0.00000

 k-point    38 :       0.2222    0.1111    0.5000
  band No.  band energies     occupation 
      1      -6.5705      2.00000
      2      -6.4576      2.00000
      3      -3.6233      2.00000
      4       1.0841      2.00000
      5       1.9232      2.00000
      6       2.1173      2.00000
      7       3.6420      2.00000
      8       4.0147      2.00000
      9       4.6770      2.00000
     10       6.5587      0.00000
     11       7.6553      0.00000
     12       7.7972      0.00000
     13      10.2118      0.00000
     14      11.0266      0.00000

 k-point    39 :       0.3333    0.1111    0.5000
  band No.  band energies     occupation 
      1      -6.3830      2.00000
      2      -6.1468      2.00000
      3      -4.1149      2.00000
      4       0.4515      2.00000
      5       1.6623      2.00000
      6       1.8100      2.00000
      7       3.7293      2.00000
      8       4.1083      2.00000
      9       4.9745      2.00000
     10       6.8006      0.00000
     11       7.3063      0.00000
     12       7.8615      0.00000
     13      10.2634      0.00000
     14      11.2237      0.00000

 k-point    40 :       0.4444    0.1111    0.5000
  band No.  band energies     occupation 
      1      -6.3029      2.00000
      2      -5.9784      2.00000
      3      -4.3511      2.00000
      4       0.1953      2.00000
      5       1.6057      2.00000
      6       1.6808      2.00000
      7       3.8497      2.00000
      8       3.9558      2.00000
      9       5.4759      2.00000
     10       6.3664      0.00000
     11       7.3525      0.00000
     12       7.8573      0.00000
     13      10.3645      0.00000
     14      10.9884      0.00000

 k-point    41 :       0.2222    0.2222    0.5000
  band No.  band energies     occupation 
      1      -6.3649      2.00000
      2      -6.2205      2.00000
      3      -4.0398      2.00000
      4       0.7624      2.00000
      5       1.2446      2.00000
      6       1.5671      2.00000
      7       4.0988      2.00000
      8       4.4196      2.00000
      9       5.1064      2.00000
     10       6.4119      0.00000
     11       7.5104      0.00000
     12       7.5730      0.00000
     13      10.4893      0.00000
     14      11.3424      0.00000

 k-point    42 :       0.3333    0.2222    0.5000
  band No.  band energies     occupation 
      1      -6.2053      2.00000
      2      -6.0265      2.00000
      3      -4.3512      2.00000
      4       0.4422      2.00000
      5       1.0160      2.00000
      6       1.1879      2.00000
      7       4.4386      2.00000
      8       4.8112      2.00000
      9       5.4025      2.00000
     10       6.3639      0.00000
     11       7.0282      0.00000
     12       7.3411      0.00000
     13      10.8395      0.00000
     14      11.5294      0.00000

 k-point    43 :       0.3333    0.3333    0.5000
  band No.  band energies     occupation 
      1      -6.0542      2.00000
      2      -6.0542      2.00000
      3      -4.4388      2.00000
      4       0.6202      2.00000
      5       0.7690      2.00000
      6       0.7690      2.00000
      7       4.7266      2.00000
      8       5.6082      1.99491
      9       5.6082      1.99491
     10       5.7981      0.01018
     11       6.9126      0.00000
     12       6.9126      0.00000
     13      11.5283      0.00000
     14      12.1132      0.00000


--------------------------------------------------------------------------------------------------------


 soft charge-density along one line, spin component           1
         0         1         2         3         4         5         6         7         8         9
 total charge-density along one line
 
 pseudopotential strength for first ion, spin component:           1
 51.769  56.325  -0.000  -0.000  -0.049  -0.000  -0.000  -0.071
 56.325  61.287  -0.000  -0.000  -0.053  -0.000  -0.000  -0.077
 -0.000  -0.000  12.740   0.010   0.000  18.364   0.014   0.000
 -0.000  -0.000   0.010  12.756   0.000   0.014  18.387   0.000
 -0.049  -0.053   0.000   0.000  12.756   0.000   0.000  18.387
 -0.000  -0.000  18.364   0.014   0.000  26.481   0.020   0.000
 -0.000  -0.000   0.014  18.387   0.000   0.020  26.513   0.000
 -0.071  -0.077   0.000   0.000  18.387   0.000   0.000  26.513
  0.000   0.000  -0.009   0.000  -0.000  -0.014   0.001  -0.000
  0.015   0.016   0.000  -0.000   0.000   0.000  -0.000   0.001
  0.007   0.008   0.000  -0.000   0.006   0.000  -0.000   0.008
  0.000   0.000   0.000  -0.009  -0.000   0.001  -0.013  -0.000
  0.012   0.013   0.000  -0.000  -0.009   0.000  -0.000  -0.014
 total augmentation occupancy for first ion, spin component:           1
 12.942  -9.400   0.000   0.000   2.129   0.000  -0.000  -0.552   0.000  -0.161  -0.092   0.000  -0.116
 -9.400   8.076   0.000  -0.000  -1.784   0.000   0.000   0.470   0.000   0.146   0.083   0.000   0.104
  0.000   0.000   2.496   0.214   0.000  -0.468  -0.190   0.000  -0.053   0.000   0.000  -0.049   0.000
  0.000   0.000   0.214   2.834   0.000  -0.190  -0.770  -0.000  -0.048   0.000  -0.000  -0.119   0.000
  2.129  -1.784   0.000   0.000   2.731   0.000  -0.000  -0.714  -0.000  -0.054  -0.015   0.000  -0.053
  0.000   0.000  -0.468  -0.190   0.000   0.167   0.070   0.000   0.013   0.000  -0.000   0.018   0.000
 -0.000  -0.000  -0.190  -0.770  -0.000   0.070   0.277   0.000   0.018  -0.000   0.000   0.035   0.000
 -0.552   0.470   0.000  -0.000  -0.714   0.000   0.000   0.247   0.000   0.015   0.003   0.000   0.013
  0.000   0.000  -0.053  -0.048  -0.000   0.013   0.018   0.000   0.009   0.000   0.000   0.010   0.000
 -0.161   0.146   0.000  -0.000  -0.054   0.000   0.000   0.015   0.000   0.013   0.004   0.000   0.003
 -0.092   0.083   0.000  -0.000  -0.015  -0.000   0.000   0.003   0.000   0.004   0.007   0.000  -0.001
  0.000  -0.000  -0.049  -0.119   0.000   0.018   0.035   0.000   0.010   0.000   0.000   0.025   0.000
 -0.116   0.104   0.000   0.000  -0.053   0.000   0.000   0.013   0.000   0.003  -0.001   0.000   0.009


------------------------ aborting loop because EDIFF is reached ----------------------------------------


    CHARGE:  cpu time    0.2956: real time    0.2964
    FORLOC:  cpu time    0.0172: real time    0.0172
    FORNL :  cpu time    0.6737: real time    1.0401
    STRESS:  cpu time    1.0442: real time    2.0561
    FORCOR:  cpu time    0.1595: real time    0.2008
    FORHAR:  cpu time    0.0312: real time    0.0620
    MIXING:  cpu time    0.0046: real time    0.0046
    OFIELD:  cpu time    0.0000: real time    0.0000

  FORCE on cell =-STRESS in cart. coord.  units (eV):
  Direction    XX          YY          ZZ          XY          YZ          ZX
  --------------------------------------------------------------------------------------
  Alpha Z     2.23441     2.23441     2.23441
  Ewald    -235.36463  -235.36462  -198.24096    -0.00000    -0.00001     0.00000
  Hartree    11.73720    11.73720    21.45338     0.00000     0.00000    -0.00000
  E(xc)     -70.23032   -70.23032   -69.77162    -0.00000     0.00000    -0.00000
  Local    -114.21597  -114.21602  -152.29755    -0.00004     0.00000    -0.00000
  n-local   331.50024   332.34779   327.82561    -1.17693    -0.70835    -1.20867
  augment   -81.04069   -81.04064   -78.90455     0.00004    -0.00000     0.00000
  Kinetic   151.75183   158.24528   147.74752    -7.22986     0.16904     1.57694
  Fock        0.00000     0.00000     0.00000     0.00000     0.00000     0.00000
  -------------------------------------------------------------------------------------
  Total       0.04257     0.04257     0.04624     0.00000     0.00000     0.00000
  in kB       0.65192     0.65192     0.70820     0.00000     0.00000     0.00000
  external pressure =        0.67 kB  Pullay stress =        0.00 kB


 VOLUME and BASIS-vectors are now :
 -----------------------------------------------------------------------------
  energy-cutoff  :      520.00
  volume of cell :      104.61
      direct lattice vectors                 reciprocal lattice vectors
     4.503172833 -0.000000000  0.000000000     0.222065650  0.128209663 -0.000000000
    -2.251586417  3.899862071 -0.000000000    -0.000000000  0.256419325  0.000000000
     0.000000000 -0.000000000  5.956979055    -0.000000000  0.000000000  0.167870323

  length of vectors
     4.503172833  4.503172833  5.956979055     0.256419325  0.256419325  0.167870323


 FORCES acting on ions
    electron-ion (+dipol)            ewald-force                    non-local-force                 convergence-correction
 -----------------------------------------------------------------------------------------------
   -.117E+02 0.119E-04 -.108E-05   0.167E+02 0.155E-05 0.162E-05   -.505E+01 0.278E-16 -.555E-16   0.368E-03 0.514E-08 -.381E-09
   0.585E+01 -.101E+02 -.184E-04   -.837E+01 0.145E+02 -.812E-05   0.252E+01 -.437E+01 0.555E-16   -.184E-03 0.318E-03 0.870E-09
   0.585E+01 0.101E+02 0.192E-04   -.837E+01 -.145E+02 0.650E-05   0.252E+01 0.437E+01 0.000E+00   -.184E-03 -.318E-03 -.480E-09
 -----------------------------------------------------------------------------------------------
   0.260E-04 -.773E-05 -.313E-06   0.000E+00 -.178E-14 0.348E-17   0.133E-14 -.888E-15 0.000E+00   0.226E-08 0.500E-08 0.981E-11
 
 
 POSITION                                       TOTAL-FORCE (eV/Angst)
 -----------------------------------------------------------------------------------
      1.21574     -0.00000      1.98566         0.002823      0.000000      0.000000
     -0.60787      1.05286      3.97132        -0.001411      0.002445     -0.000000
      1.64372      2.84700      0.00000        -0.001411     -0.002445     -0.000000
 -----------------------------------------------------------------------------------
    total drift:                                0.000026     -0.000008     -0.000000


--------------------------------------------------------------------------------------------------------



  FREE ENERGIE OF THE ION-ELECTRON SYSTEM (eV)
  ---------------------------------------------------
  free  energy   TOTEN  =        -9.42601592 eV

  energy  without entropy=       -9.42600263  energy(sigma->0) =       -9.42600927
 
 d Force =-0.4497198E-05[ 0.237E-04,-0.327E-04]  d Energy =-0.8477390E-04 0.803E-04
 d Force = 0.1417274E+00[ 0.141E+00, 0.143E+00]  d Ewald  = 0.1233347E+01-0.109E+01


--------------------------------------------------------------------------------------------------------


    POTLOK:  cpu time    0.1239: real time    0.2354


--------------------------------------------------------------------------------------------------------




--------------------------------------------------------------------------------------------------------


    WAVPRE:  cpu time    0.0193: real time    0.0468
    FEWALD:  cpu time    0.0041: real time    0.0122
    GENKIN:  cpu time    0.0314: real time    0.0632
    ORTHCH:  cpu time    0.1757: real time    0.3185
     LOOP+:  cpu time   18.5265: real time   28.3731


--------------------------------------- Iteration     16(   1)  ---------------------------------------


    POTLOK:  cpu time    0.1531: real time    0.3109
    SETDIJ:  cpu time    0.0495: real time    0.1006
     EDDAV:  cpu time    2.5631: real time    3.8528
       DOS:  cpu time    0.0026: real time    0.0025
    CHARGE:  cpu time    0.1350: real time    0.1354
    MIXING:  cpu time    0.0030: real time    0.0030
    --------------------------------------------
      LOOP:  cpu time    2.9063: real time    4.4052

 eigenvalue-minimisations  :  1204
 total energy-change (2. order) :-0.4925489E-03  (-0.1907268E-02)
 number of electron      17.9999992 magnetization 
 augmentation part       -3.6117735 magnetization 

 Broyden mixing:
  rms(total) = 0.91333E-02    rms(broyden)= 0.91331E-02
  rms(prec ) = 0.17511E-01
  weight for this iteration     100.00

 Free energy of the ion-electron system (eV)
  ---------------------------------------------------
  alpha Z        PSCENC =         2.22757805
  Ewald energy   TEWEN  =      -668.15419244
  -Hartree energ DENC   =       -44.95931509
  -exchange      EXHF   =         0.00000000
  -V(xc)+E(xc)   XCENC  =       -84.13782893
  PAW double counting   =      1475.57053687    -1360.19378195
  entropy T*S    EENTRO =        -0.00001021
  eigenvalues    EBANDS =         0.40619714
  atomic energy  EATOM  =       669.81430600
  Solvation  Ediel_sol  =         0.00000000
  ---------------------------------------------------
  free energy    TOTEN  =        -9.42651057 eV

  energy without entropy =       -9.42650036  energy(sigma->0) =       -9.42650547


--------------------------------------------------------------------------------------------------------




--------------------------------------- Iteration     16(   2)  ---------------------------------------


    POTLOK:  cpu time    0.1100: real time    0.1104
    SETDIJ:  cpu time    0.0195: real time    0.0195
     EDDAV:  cpu time    2.6843: real time    3.9819
       DOS:  cpu time    0.0026: real time    0.0025
    CHARGE:  cpu time    0.1514: real time    0.1518
    MIXING:  cpu time    0.0099: real time    0.0099
    --------------------------------------------
      LOOP:  cpu time    2.9777: real time    4.2761

 eigenvalue-minimisations  :  1264
 total energy-change (2. order) : 0.2585349E-03  (-0.7498288E-04)
 number of electron      17.9999992 magnetization 
 augmentation part       -3.6113690 magnetization 

 Broyden mixing:
  rms(total) = 0.57859E-02    rms(broyden)= 0.57859E-02
  rms(prec ) = 0.10366E-01
  weight for this iteration     100.00

 eigenvalues of (default mixing * dielectric matrix)
  average eigenvalue GAMMA=   1.0634
  1.0634

 Free energy of the ion-electron system (eV)
  ---------------------------------------------------
  alpha Z        PSCENC =         2.22757805
  Ewald energy   TEWEN  =      -668.15419244
  -Hartree energ DENC   =       -45.07204884
  -exchange      EXHF   =         0.00000000
  -V(xc)+E(xc)   XCENC  =       -84.13978354
  PAW double counting   =      1474.92063496    -1359.54543738
  entropy T*S    EENTRO =        -0.00001001
  eigenvalues    EBANDS =         0.52270116
  atomic energy  EATOM  =       669.81430600
  Solvation  Ediel_sol  =         0.00000000
  ---------------------------------------------------
  free energy    TOTEN  =        -9.42625204 eV

  energy without entropy =       -9.42624203  energy(sigma->0) =       -9.42624704


--------------------------------------------------------------------------------------------------------




--------------------------------------- Iteration     16(   3)  ---------------------------------------


    POTLOK:  cpu time    0.0783: real time    0.1639
    SETDIJ:  cpu time    0.0137: real time    0.0264
     EDDAV:  cpu time    3.9853: real time    5.3913
       DOS:  cpu time    0.0027: real time    0.0027
    CHARGE:  cpu time    0.2121: real time    0.2668
    MIXING:  cpu time    0.0057: real time    0.0057
    --------------------------------------------
      LOOP:  cpu time    4.2977: real time    5.8567

 eigenvalue-minimisations  :  1348
 total energy-change (2. order) : 0.1448458E-03  (-0.2499315E-04)
 number of electron      17.9999992 magnetization 
 augmentation part       -3.6092266 magnetization 

 Broyden mixing:
  rms(total) = 0.41724E-02    rms(broyden)= 0.41724E-02
  rms(prec ) = 0.46106E-02
  weight for this iteration     100.00

 eigenvalues of (default mixing * dielectric matrix)
  average eigenvalue GAMMA=   1.1479
  1.6349  0.6609

 Free energy of the ion-electron system (eV)
  ---------------------------------------------------
  alpha Z        PSCENC =         2.22757805
  Ewald energy   TEWEN  =      -668.15419244
  -Hartree energ DENC   =       -45.17911305
  -exchange      EXHF   =         0.00000000
  -V(xc)+E(xc)   XCENC  =       -84.14343437
  PAW double counting   =      1473.50394669    -1358.12911789
  entropy T*S    EENTRO =        -0.00000988
  eigenvalues    EBANDS =         0.63392971
  atomic energy  EATOM  =       669.81430600
  Solvation  Ediel_sol  =         0.00000000
  ---------------------------------------------------
  free energy    TOTEN  =        -9.42610719 eV

  energy without entropy =       -9.42609732  energy(sigma->0) =       -9.42610225


--------------------------------------------------------------------------------------------------------




--------------------------------------- Iteration     16(   4)  ---------------------------------------


    POTLOK:  cpu time    0.2256: real time    0.2263
    SETDIJ:  cpu time    0.0143: real time    0.0143
     EDDAV:  cpu time    3.3820: real time    4.0687
       DOS:  cpu time    0.0026: real time    0.0026
    --------------------------------------------
      LOOP:  cpu time    3.6244: real time    4.3119

 eigenvalue-minimisations  :   748
 total energy-change (2. order) : 0.7831707E-05  (-0.1606326E-05)
 number of electron      17.9999992 magnetization 
 augmentation part       -3.6092266 magnetization 

 Free energy of the ion-electron system (eV)
  ---------------------------------------------------
  alpha Z        PSCENC =         2.22757805
  Ewald energy   TEWEN  =      -668.15419244
  -Hartree energ DENC   =       -45.20293157
  -exchange      EXHF   =         0.00000000
  -V(xc)+E(xc)   XCENC  =       -84.14446393
  PAW double counting   =      1472.92116998    -1357.54563178
  entropy T*S    EENTRO =        -0.00000989
  eigenvalues    EBANDS =         0.65807623
  atomic energy  EATOM  =       669.81430600
  Solvation  Ediel_sol  =         0.00000000
  ---------------------------------------------------
  free energy    TOTEN  =        -9.42609936 eV

  energy without entropy =       -9.42608947  energy(sigma->0) =       -9.42609441


--------------------------------------------------------------------------------------------------------




 average (electrostatic) potential at core
  the test charge radii are     1.1897
  (the norm of the test charge is              1.0000)
       1 -89.3548       2 -89.3548       3 -89.3548
 
 
 
 E-fermi :   5.6715     XC(G=0):  -8.9393     alpha+bet :-10.2479


 k-point     1 :       0.0000    0.0000    0.0000
  band No.  band energies     occupation 
      1      -7.8178      2.00000
      2      -4.6487      2.00000
      3      -4.6487      2.00000
      4       2.5978      2.00000
      5       2.8648      2.00000
      6       2.8648      2.00000
      7       3.9529      2.00000
      8       3.9529      2.00000
      9       4.7535      2.00000
     10       6.5567      0.00000
     11       6.5567      0.00000
     12       7.1157      0.00000
     13      10.6119      0.00000
     14      10.6119      0.00000

 k-point     2 :       0.1111    0.0000    0.0000
  band No.  band energies     occupation 
      1      -7.7381      2.00000
      2      -4.6766      2.00000
      3      -4.6306      2.00000
      4       2.0080      2.00000
      5       2.4699      2.00000
      6       2.7099      2.00000
      7       4.1992      2.00000
      8       4.4839      2.00000
      9       4.9334      2.00000
     10       6.2906      0.00000
     11       6.4977      0.00000
     12       7.0055      0.00000
     13      10.3624      0.00000
     14      10.5669      0.00000

 k-point     3 :       0.2222    0.0000    0.0000
  band No.  band energies     occupation 
      1      -7.5103      2.00000
      2      -4.7945      2.00000
      3      -4.5807      2.00000
      4       1.2759      2.00000
      5       1.9359      2.00000
      6       2.3697      2.00000
      7       4.3230      2.00000
      8       4.6111      2.00000
      9       4.7718      2.00000
     10       6.4076      0.00000
     11       6.5752      0.00000
     12       7.1551      0.00000
     13       9.6313      0.00000
     14      10.7741      0.00000

 k-point     4 :       0.3333   -0.0000    0.0000
  band No.  band energies     occupation 
      1      -7.1787      2.00000
      2      -5.0440      2.00000
      3      -4.5173      2.00000
      4       0.9326      2.00000
      5       1.5202      2.00000
      6       2.0871      2.00000
      7       3.3138      2.00000
      8       4.6571      2.00000
      9       4.8005      2.00000
     10       6.3975      0.00000
     11       6.5480      0.00000
     12       8.2135      0.00000
     13       9.0036      0.00000
     14      11.5069      0.00000

 k-point     5 :       0.4444    0.0000    0.0000
  band No.  band energies     occupation 
      1      -6.8742      2.00000
      2      -5.3221      2.00000
      3      -4.4723      2.00000
      4       0.9180      2.00000
      5       1.3338      2.00000
      6       2.0200      2.00000
      7       2.4380      2.00000
      8       4.6162      2.00000
      9       4.7982      2.00000
     10       6.4045      0.00000
     11       6.4723      0.00000
     12       8.6681      0.00000
     13       9.0318      0.00000
     14      12.5720      0.00000

 k-point     6 :       0.1111    0.1111    0.0000
  band No.  band energies     occupation 
      1      -7.5841      2.00000
      2      -4.7346      2.00000
      3      -4.6127      2.00000
      4       1.5164      2.00000
      5       1.8241      2.00000
      6       2.7639      2.00000
      7       4.0298      2.00000
      8       4.8180      2.00000
      9       4.8550      2.00000
     10       6.2831      0.00000
     11       6.6082      0.00000
     12       7.0788      0.00000
     13      10.1341      0.00000
     14      10.2181      0.00000

 k-point     7 :       0.2222    0.1111    0.0000
  band No.  band energies     occupation 
      1      -7.3014      2.00000
      2      -4.8947      2.00000
      3      -4.5909      2.00000
      4       1.0754      2.00000
      5       1.4222      2.00000
      6       2.4897      2.00000
      7       3.8183      2.00000
      8       4.1307      2.00000
      9       4.5745      2.00000
     10       6.7236      0.00000
     11       7.0499      0.00000
     12       7.5764      0.00000
     13       9.5494      0.00000
     14      10.4900      0.00000

 k-point     8 :       0.3333    0.1111    0.0000
  band No.  band energies     occupation 
      1      -6.9666      2.00000
      2      -5.1634      2.00000
      3      -4.5656      2.00000
      4       0.9541      2.00000
      5       1.2892      2.00000
      6       2.1640      2.00000
      7       2.8845      2.00000
      8       4.0975      2.00000
      9       4.3295      2.00000
     10       6.8701      0.00000
     11       7.0964      0.00000
     12       8.5990      0.00000
     13       9.1282      0.00000
     14      11.3709      0.00000

 k-point     9 :       0.4444    0.1111    0.0000
  band No.  band energies     occupation 
      1      -6.7869      2.00000
      2      -5.3285      2.00000
      3      -4.5541      2.00000
      4       0.9905      2.00000
      5       1.2984      2.00000
      6       2.1727      2.00000
      7       2.2722      2.00000
      8       4.1308      2.00000
      9       4.2115      2.00000
     10       6.8913      0.00000
     11       7.1037      0.00000
     12       8.9804      0.00000
     13       9.0635      0.00000
     14      12.3127      0.00000

 k-point    10 :       0.2222    0.2222    0.0000
  band No.  band energies     occupation 
      1      -7.0051      2.00000
      2      -5.0217      2.00000
      3      -4.6860      2.00000
      4       1.0621      2.00000
      5       1.1433      2.00000
      6       2.4681      2.00000
      7       3.3335      2.00000
      8       3.6513      2.00000
      9       3.6952      2.00000
     10       7.5013      0.00000
     11       7.7573      0.00000
     12       7.9304      0.00000
     13       9.9042      0.00000
     14      10.2627      0.00000

 k-point    11 :       0.3333    0.2222    0.0000
  band No.  band energies     occupation 
      1      -6.7474      2.00000
      2      -5.1729      2.00000
      3      -4.7688      2.00000
      4       1.1254      2.00000
      5       1.2392      2.00000
      6       2.3200      2.00000
      7       2.6546      2.00000
      8       3.3422      2.00000
      9       3.4311      2.00000
     10       7.7297      0.00000
     11       7.9990      0.00000
     12       8.6837      0.00000
     13       9.8367      0.00000
     14      11.1239      0.00000

 k-point    12 :       0.3333    0.3333    0.0000
  band No.  band energies     occupation 
      1      -6.6497      2.00000
      2      -5.0229      2.00000
      3      -5.0229      2.00000
      4       1.2681      2.00000
      5       1.2681      2.00000
      6       2.6192      2.00000
      7       2.6192      2.00000
      8       2.7345      2.00000
      9       3.0073      2.00000
     10       8.3404      0.00000
     11       8.3404      0.00000
     12       8.6057      0.00000
     13      10.4524      0.00000
     14      11.3801      0.00000

 k-point    13 :       0.0000    0.0000    0.2500
  band No.  band energies     occupation 
      1      -7.5994      2.00000
      2      -5.9375      2.00000
      3      -3.3539      2.00000
      4       2.2162      2.00000
      5       2.7186      2.00000
      6       3.1157      2.00000
      7       4.1434      2.00000
      8       4.1513      2.00000
      9       4.7342      2.00000
     10       6.2175      0.00000
     11       6.2893      0.00000
     12       6.6048      0.00000
     13      10.0530      0.00000
     14      11.0686      0.00000

 k-point    14 :       0.1111    0.0000    0.2500
  band No.  band energies     occupation 
      1      -7.5233      2.00000
      2      -5.8906      2.00000
      3      -3.4572      2.00000
      4       1.9558      2.00000
      5       2.5681      2.00000
      6       2.9873      2.00000
      7       3.8665      2.00000
      8       4.2895      2.00000
      9       4.3925      2.00000
     10       6.4682      0.00000
     11       6.6160      0.00000
     12       6.9758      0.00000
     13      10.1183      0.00000
     14      11.0680      0.00000

 k-point    15 :       0.2222    0.0000    0.2500
  band No.  band energies     occupation 
      1      -7.3099      2.00000
      2      -5.7557      2.00000
      3      -3.7769      2.00000
      4       1.6246      2.00000
      5       2.1859      2.00000
      6       2.7303      2.00000
      7       3.2587      2.00000
      8       3.8279      2.00000
      9       4.3106      2.00000
     10       6.8857      0.00000
     11       7.3578      0.00000
     12       7.7304      0.00000
     13      10.3742      0.00000
     14      10.8108      0.00000

 k-point    16 :       0.3333   -0.0000    0.2500
  band No.  band energies     occupation 
      1      -7.0075      2.00000
      2      -5.5883      2.00000
      3      -4.2121      2.00000
      4       1.3050      2.00000
      5       1.6607      2.00000
      6       2.4069      2.00000
      7       2.8373      2.00000
      8       3.8270      2.00000
      9       4.2296      2.00000
     10       6.9469      0.00000
     11       7.5271      0.00000
     12       8.5786      0.00000
     13       9.9552      0.00000
     14      11.2672      0.00000

 k-point    17 :       0.4444    0.0000    0.2500
  band No.  band energies     occupation 
      1      -6.7295      2.00000
      2      -5.5620      2.00000
      3      -4.4531      2.00000
      4       0.7433      2.00000
      5       1.3757      2.00000
      6       2.1336      2.00000
      7       3.2665      2.00000
      8       3.8620      2.00000
      9       4.1743      2.00000
     10       6.8478      0.00000
     11       7.4907      0.00000
     12       8.4632      0.00000
     13       9.5065      0.00000
     14      11.7305      0.00000

 k-point    18 :      -0.4444   -0.0000    0.2500
  band No.  band energies     occupation 
      1      -6.6989      2.00000
      2      -5.6894      2.00000
      3      -4.2944      2.00000
      4       0.4269      2.00000
      5       1.2913      2.00000
      6       2.0964      2.00000
      7       3.9318      2.00000
      8       3.9858      2.00000
      9       4.3133      2.00000
     10       6.7087      0.00000
     11       7.3047      0.00000
     12       7.7343      0.00000
     13       9.2163      0.00000
     14      12.2543      0.00000

 k-point    19 :      -0.3333    0.0000    0.2500
  band No.  band energies     occupation 
      1      -6.9757      2.00000
      2      -5.7416      2.00000
      3      -3.9714      2.00000
      4       0.6084      2.00000
      5       1.3857      2.00000
      6       2.2384      2.00000
      7       4.1878      2.00000
      8       4.2251      2.00000
      9       5.0710      2.00000
     10       6.3927      0.00000
     11       6.9236      0.00000
     12       7.0772      0.00000
     13       9.1285      0.00000
     14      12.2343      0.00000

 k-point    20 :      -0.2222   -0.0000    0.2500
  band No.  band energies     occupation 
      1      -7.2991      2.00000
      2      -5.8113      2.00000
      3      -3.6597      2.00000
      4       1.2745      2.00000
      5       1.6622      2.00000
      6       2.5177      2.00000
      7       4.3975      2.00000
      8       4.5085      2.00000
      9       5.1218      2.00000
     10       6.1775      0.00000
     11       6.5576      0.00000
     12       6.8452      0.00000
     13       9.3401      0.00000
     14      11.7173      0.00000

 k-point    21 :      -0.1111   -0.0000    0.2500
  band No.  band energies     occupation 
      1      -7.5220      2.00000
      2      -5.8978      2.00000
      3      -3.4385      2.00000
      4       1.9763      2.00000
      5       2.2703      2.00000
      6       2.8749      2.00000
      7       4.2977      2.00000
      8       4.4526      2.00000
      9       4.7270      2.00000
     10       6.1545      0.00000
     11       6.2049      0.00000
     12       6.9966      0.00000
     13       9.8281      0.00000
     14      11.1404      0.00000

 k-point    22 :       0.1111    0.1111    0.2500
  band No.  band energies     occupation 
      1      -7.3749      2.00000
      2      -5.8169      2.00000
      3      -3.6310      2.00000
      4       1.6294      2.00000
      5       1.9297      2.00000
      6       2.7451      2.00000
      7       3.7813      2.00000
      8       4.3078      2.00000
      9       4.7008      2.00000
     10       6.4623      0.00000
     11       6.9595      0.00000
     12       7.1356      0.00000
     13       9.8399      0.00000
     14      11.1407      0.00000

 k-point    23 :       0.2222    0.1111    0.2500
  band No.  band energies     occupation 
      1      -7.1126      2.00000
      2      -5.6679      2.00000
      3      -4.0146      2.00000
      4       1.2835      2.00000
      5       1.6871      2.00000
      6       2.5912      2.00000
      7       2.8786      2.00000
      8       3.8983      2.00000
      9       4.8367      2.00000
     10       6.6516      0.00000
     11       7.3023      0.00000
     12       8.1907      0.00000
     13      10.1942      0.00000
     14      10.6493      0.00000

 k-point    24 :       0.3333    0.1111    0.2500
  band No.  band energies     occupation 
      1      -6.8100      2.00000
      2      -5.5468      2.00000
      3      -4.3981      2.00000
      4       0.9959      2.00000
      5       1.2513      2.00000
      6       2.2846      2.00000
      7       2.9259      2.00000
      8       3.5826      2.00000
      9       4.8796      2.00000
     10       6.5610      0.00000
     11       7.6500      0.00000
     12       8.5929      0.00000
     13       9.8290      0.00000
     14      11.3260      0.00000

 k-point    25 :       0.4444    0.1111    0.2500
  band No.  band energies     occupation 
      1      -6.6336      2.00000
      2      -5.6093      2.00000
      3      -4.4557      2.00000
      4       0.5709      2.00000
      5       1.1452      2.00000
      6       2.1741      2.00000
      7       3.1362      2.00000
      8       3.7818      2.00000
      9       4.8993      2.00000
     10       6.4603      0.00000
     11       7.7297      0.00000
     12       8.1154      0.00000
     13       9.5613      0.00000
     14      12.0587      0.00000

 k-point    26 :      -0.4444    0.1111    0.2500
  band No.  band energies     occupation 
      1      -6.7793      2.00000
      2      -5.6851      2.00000
      3      -4.2146      2.00000
      4       0.4879      2.00000
      5       1.2888      2.00000
      6       2.1917      2.00000
      7       3.1832      2.00000
      8       4.5287      2.00000
      9       4.9676      2.00000
     10       6.3420      0.00000
     11       7.2064      0.00000
     12       7.7368      0.00000
     13       9.4464      0.00000
     14      11.9421      0.00000

 k-point    27 :      -0.3333    0.1111    0.2500
  band No.  band energies     occupation 
      1      -7.0997      2.00000
      2      -5.7318      2.00000
      3      -3.9031      2.00000
      4       0.9120      2.00000
      5       1.5375      2.00000
      6       2.3943      2.00000
      7       3.3970      2.00000
      8       4.6681      2.00000
      9       5.2953      2.00000
     10       6.1435      0.00000
     11       6.7835      0.00000
     12       7.5217      0.00000
     13       9.5038      0.00000
     14      11.3357      0.00000

 k-point    28 :       0.2222    0.2222    0.2500
  band No.  band energies     occupation 
      1      -6.8281      2.00000
      2      -5.6115      2.00000
      3      -4.2765      2.00000
      4       0.7316      2.00000
      5       1.3851      2.00000
      6       2.1883      2.00000
      7       2.7544      2.00000
      8       4.2509      2.00000
      9       5.1658      2.00000
     10       6.4607      0.00000
     11       7.2142      0.00000
     12       8.3235      0.00000
     13      10.1286      0.00000
     14      10.7153      0.00000

 k-point    29 :       0.3333    0.2222    0.2500
  band No.  band energies     occupation 
      1      -6.5952      2.00000
      2      -5.5498      2.00000
      3      -4.5453      2.00000
      4       0.7136      2.00000
      5       1.0197      2.00000
      6       1.8680      2.00000
      7       3.0076      2.00000
      8       3.8790      2.00000
      9       4.9575      2.00000
     10       6.6932      0.00000
     11       7.7769      0.00000
     12       8.3234      0.00000
     13      10.1860      0.00000
     14      11.2384      0.00000

 k-point    30 :       0.4444    0.2222    0.2500
  band No.  band energies     occupation 
      1      -6.5859      2.00000
      2      -5.5889      2.00000
      3      -4.5011      2.00000
      4       0.5692      2.00000
      5       1.0959      2.00000
      6       1.8816      2.00000
      7       2.9452      2.00000
      8       4.2051      2.00000
      9       4.8073      2.00000
     10       6.8224      0.00000
     11       7.5430      0.00000
     12       8.2042      0.00000
     13      10.0949      0.00000
     14      11.4733      0.00000

 k-point    31 :       0.3333    0.3333    0.2500
  band No.  band energies     occupation 
      1      -6.4983      2.00000
      2      -5.5449      2.00000
      3      -4.6256      2.00000
      4       0.6675      2.00000
      5       0.9995      2.00000
      6       1.5357      2.00000
      7       3.1883      2.00000
      8       4.0998      2.00000
      9       4.5147      2.00000
     10       7.3126      0.00000
     11       7.8487      0.00000
     12       7.9358      0.00000
     13      10.9093      0.00000
     14      11.1771      0.00000

 k-point    32 :       0.0000    0.0000    0.5000
  band No.  band energies     occupation 
      1      -6.9572      2.00000
      2      -6.9572      2.00000
      3      -2.7111      2.00000
      4       1.7908      2.00000
      5       2.9753      2.00000
      6       2.9753      2.00000
      7       4.3108      2.00000
      8       4.5744      2.00000
      9       4.5744      2.00000
     10       6.0238      0.00000
     11       6.0238      0.00000
     12       6.0509      0.00000
     13       9.7115      0.00000
     14      10.8548      0.00000

 k-point    33 :       0.1111    0.0000    0.5000
  band No.  band energies     occupation 
      1      -6.8987      2.00000
      2      -6.8828      2.00000
      3      -2.8786      2.00000
      4       1.7446      2.00000
      5       2.8050      2.00000
      6       2.8923      2.00000
      7       3.8298      2.00000
      8       4.1821      2.00000
      9       4.4081      2.00000
     10       6.2699      0.00000
     11       6.4431      0.00000
     12       6.8659      0.00000
     13       9.9267      0.00000
     14      10.5804      0.00000

 k-point    34 :       0.2222    0.0000    0.5000
  band No.  band energies     occupation 
      1      -6.7414      2.00000
      2      -6.6688      2.00000
      3      -3.3132      2.00000
      4       1.4011      2.00000
      5       2.2672      2.00000
      6       2.6161      2.00000
      7       3.6368      2.00000
      8       3.8046      2.00000
      9       4.2204      2.00000
     10       6.7380      0.00000
     11       7.1569      0.00000
     12       7.6547      0.00000
     13      10.0967      0.00000
     14      10.8015      0.00000

 k-point    35 :       0.3333   -0.0000    0.5000
  band No.  band energies     occupation 
      1      -6.5434      2.00000
      2      -6.3543      2.00000
      3      -3.8577      2.00000
      4       0.6752      2.00000
      5       2.0356      2.00000
      6       2.3202      2.00000
      7       3.3937      2.00000
      8       3.6687      2.00000
      9       4.5641      2.00000
     10       7.0208      0.00000
     11       7.5122      0.00000
     12       7.7526      0.00000
     13      10.1126      0.00000
     14      11.1369      0.00000

 k-point    36 :       0.4444    0.0000    0.5000
  band No.  band energies     occupation 
      1      -6.4002      2.00000
      2      -6.0623      2.00000
      3      -4.2901      2.00000
      4       0.1788      2.00000
      5       2.0040      2.00000
      6       2.1042      2.00000
      7       3.2331      2.00000
      8       3.5637      2.00000
      9       5.2275      2.00000
     10       6.5306      0.00000
     11       7.4768      0.00000
     12       8.0238      0.00000
     13      10.1793      0.00000
     14      10.9180      0.00000

 k-point    37 :       0.1111    0.1111    0.5000
  band No.  band energies     occupation 
      1      -6.7868      2.00000
      2      -6.7421      2.00000
      3      -3.1771      2.00000
      4       1.5746      2.00000
      5       2.4622      2.00000
      6       2.5308      2.00000
      7       3.6079      2.00000
      8       3.7720      2.00000
      9       4.6584      2.00000
     10       6.1715      0.00000
     11       7.3168      0.00000
     12       7.4393      0.00000
     13      10.3171      0.00000
     14      10.3422      0.00000

 k-point    38 :       0.2222    0.1111    0.5000
  band No.  band energies     occupation 
      1      -6.5978      2.00000
      2      -6.4852      2.00000
      3      -3.6570      2.00000
      4       1.0571      2.00000
      5       1.8956      2.00000
      6       2.0875      2.00000
      7       3.6168      2.00000
      8       3.9864      2.00000
      9       4.6403      2.00000
     10       6.5213      0.00000
     11       7.6124      0.00000
     12       7.7549      0.00000
     13      10.1846      0.00000
     14      10.9937      0.00000

 k-point    39 :       0.3333    0.1111    0.5000
  band No.  band energies     occupation 
      1      -6.4127      2.00000
      2      -6.1784      2.00000
      3      -4.1435      2.00000
      4       0.4308      2.00000
      5       1.6353      2.00000
      6       1.7817      2.00000
      7       3.7021      2.00000
      8       4.0770      2.00000
      9       4.9434      2.00000
     10       6.7628      0.00000
     11       7.2716      0.00000
     12       7.8190      0.00000
     13      10.2362      0.00000
     14      11.1955      0.00000

 k-point    40 :       0.4444    0.1111    0.5000
  band No.  band energies     occupation 
      1      -6.3336      2.00000
      2      -6.0129      2.00000
      3      -4.3765      2.00000
      4       0.1771      2.00000
      5       1.5793      2.00000
      6       1.6526      2.00000
      7       3.8191      2.00000
      8       3.9276      2.00000
      9       5.4413      2.00000
     10       6.3378      0.00000
     11       7.3149      0.00000
     12       7.8154      0.00000
     13      10.3356      0.00000
     14      10.9659      0.00000

 k-point    41 :       0.2222    0.2222    0.5000
  band No.  band energies     occupation 
      1      -6.3947      2.00000
      2      -6.2511      2.00000
      3      -4.0695      2.00000
      4       0.7380      2.00000
      5       1.2221      2.00000
      6       1.5419      2.00000
      7       4.0709      2.00000
      8       4.3895      2.00000
      9       5.0654      2.00000
     10       6.3775      0.00000
     11       7.4713      0.00000
     12       7.5371      0.00000
     13      10.4572      0.00000
     14      11.3106      0.00000

 k-point    42 :       0.3333    0.2222    0.5000
  band No.  band energies     occupation 
      1      -6.2371      2.00000
      2      -6.0603      2.00000
      3      -4.3772      2.00000
      4       0.4220      2.00000
      5       0.9944      2.00000
      6       1.1647      2.00000
      7       4.4063      2.00000
      8       4.7765      2.00000
      9       5.3665      2.00000
     10       6.3281      0.00000
     11       6.9978      0.00000
     12       7.3060      0.00000
     13      10.8058      0.00000
     14      11.5004      0.00000

 k-point    43 :       0.3333    0.3333    0.5000
  band No.  band energies     occupation 
      1      -6.0880      2.00000
      2      -6.0880      2.00000
      3      -4.4637      2.00000
      4       0.5975      2.00000
      5       0.7499      2.00000
      6       0.7499      2.00000
      7       4.6909      2.00000
      8       5.5688      1.99633
      9       5.5688      1.99633
     10       5.7663      0.00733
     11       6.8841      0.00000
     12       6.8841      0.00000
     13      11.4861      0.00000
     14      12.0802      0.00000


--------------------------------------------------------------------------------------------------------


 soft charge-density along one line, spin component           1
         0         1         2         3         4         5         6         7         8         9
 total charge-density along one line
 
 pseudopotential strength for first ion, spin component:           1
 51.783  56.341  -0.000  -0.000  -0.049  -0.000  -0.000  -0.071
 56.341  61.304  -0.000  -0.000  -0.053  -0.000  -0.000  -0.077
 -0.000  -0.000  12.743   0.010   0.000  18.369   0.014   0.000
 -0.000  -0.000   0.010  12.759   0.000   0.014  18.391   0.000
 -0.049  -0.053   0.000   0.000  12.759   0.000   0.000  18.392
 -0.000  -0.000  18.369   0.014   0.000  26.487   0.020   0.000
 -0.000  -0.000   0.014  18.391   0.000   0.020  26.520   0.000
 -0.071  -0.077   0.000   0.000  18.392   0.000   0.000  26.520
  0.000   0.000  -0.010   0.000  -0.000  -0.014   0.001  -0.000
  0.015   0.016   0.000  -0.000   0.000   0.000  -0.000   0.001
  0.007   0.008   0.000  -0.000   0.006   0.000  -0.000   0.009
  0.000   0.000   0.000  -0.009  -0.000   0.001  -0.013  -0.000
  0.012   0.013   0.000  -0.000  -0.009   0.000  -0.000  -0.014
 total augmentation occupancy for first ion, spin component:           1
 12.953  -9.393   0.000   0.000   2.139   0.000  -0.000  -0.554   0.000  -0.161  -0.092   0.000  -0.116
 -9.393   8.055   0.000  -0.000  -1.792   0.000   0.000   0.472   0.000   0.146   0.083   0.000   0.104
  0.000   0.000   2.487   0.215   0.000  -0.463  -0.190   0.000  -0.054   0.000   0.000  -0.049   0.000
  0.000  -0.000   0.215   2.823   0.000  -0.190  -0.765  -0.000  -0.048  -0.000  -0.000  -0.119   0.000
  2.139  -1.792   0.000   0.000   2.721   0.000  -0.000  -0.709  -0.000  -0.054  -0.015   0.000  -0.053
  0.000   0.000  -0.463  -0.190   0.000   0.166   0.071   0.000   0.013  -0.000   0.000   0.018   0.000
 -0.000   0.000  -0.190  -0.765  -0.000   0.071   0.274   0.000   0.018   0.000   0.000   0.035   0.000
 -0.554   0.472   0.000  -0.000  -0.709   0.000   0.000   0.246   0.000   0.015   0.003   0.000   0.013
  0.000   0.000  -0.054  -0.048  -0.000   0.013   0.018   0.000   0.009   0.000   0.000   0.010   0.000
 -0.161   0.146   0.000  -0.000  -0.054   0.000   0.000   0.015   0.000   0.013   0.004   0.000   0.003
 -0.092   0.083   0.000  -0.000  -0.015  -0.000   0.000   0.003   0.000   0.004   0.007  -0.000  -0.001
  0.000   0.000  -0.049  -0.119   0.000   0.018   0.035   0.000   0.010   0.000   0.000   0.025   0.000
 -0.116   0.104   0.000  -0.000  -0.053   0.000   0.000   0.013   0.000   0.003  -0.001   0.000   0.009


------------------------ aborting loop because EDIFF is reached ----------------------------------------


    CHARGE:  cpu time    0.2553: real time    0.2560
    FORLOC:  cpu time    0.0185: real time    0.0186
    FORNL :  cpu time    0.7106: real time    1.0285
    STRESS:  cpu time    1.3683: real time    2.0570
    FORCOR:  cpu time    0.1036: real time    0.2080
    FORHAR:  cpu time    0.0257: real time    0.0510
    MIXING:  cpu time    0.0035: real time    0.0035
    OFIELD:  cpu time    0.0000: real time    0.0000

  FORCE on cell =-STRESS in cart. coord.  units (eV):
  Direction    XX          YY          ZZ          XY          YZ          ZX
  --------------------------------------------------------------------------------------
  Alpha Z     2.22758     2.22758     2.22758
  Ewald    -235.13722  -235.13721  -197.88036    -0.00000    -0.00001     0.00000
  Hartree    11.80584    11.80584    21.59851     0.00000     0.00000    -0.00000
  E(xc)     -70.21311   -70.21311   -69.75687    -0.00000     0.00000    -0.00000
  Local    -114.48383  -114.48388  -152.77373    -0.00004     0.00000    -0.00000
  n-local   331.47088   332.32154   327.80751    -1.16619    -0.70783    -1.20557
  augment   -81.05004   -81.04999   -78.91437     0.00004    -0.00000     0.00000
  Kinetic   151.74155   158.19668   147.70574    -7.19507     0.17178     1.57462
  Fock        0.00000     0.00000     0.00000     0.00000     0.00000     0.00000
  -------------------------------------------------------------------------------------
  Total       0.01456     0.01456     0.01400     0.00000     0.00000     0.00000
  in kB       0.22225     0.22225     0.21382     0.00000     0.00000     0.00000
  external pressure =        0.22 kB  Pullay stress =        0.00 kB


 VOLUME and BASIS-vectors are now :
 -----------------------------------------------------------------------------
  energy-cutoff  :      520.00
  volume of cell :      104.94
      direct lattice vectors                 reciprocal lattice vectors
     4.510159596 -0.000000000  0.000000000     0.221721644  0.128011051 -0.000000000
    -2.255079798  3.905912785 -0.000000000    -0.000000000  0.256022102  0.000000000
     0.000000000 -0.000000000  5.956746584    -0.000000000  0.000000000  0.167876875

  length of vectors
     4.510159596  4.510159596  5.956746584     0.256022102  0.256022102  0.167876875


 FORCES acting on ions
    electron-ion (+dipol)            ewald-force                    non-local-force                 convergence-correction
 -----------------------------------------------------------------------------------------------
   -.118E+02 0.119E-04 -.109E-05   0.169E+02 0.155E-05 0.163E-05   -.508E+01 0.473E-19 -.111E-15   -.231E-02 -.126E-07 0.644E-09
   0.591E+01 -.102E+02 -.184E-04   -.845E+01 0.146E+02 -.811E-05   0.254E+01 -.440E+01 0.555E-16   0.116E-02 -.200E-02 -.110E-08
   0.591E+01 0.102E+02 0.192E-04   -.845E+01 -.146E+02 0.647E-05   0.254E+01 0.440E+01 0.000E+00   0.116E-02 0.200E-02 0.453E-09
 -----------------------------------------------------------------------------------------------
   0.260E-04 -.770E-05 -.311E-06   -.178E-14 0.000E+00 0.174E-17   0.000E+00 0.000E+00 -.555E-16   -.299E-08 -.700E-08 -.519E-11
 
 
 POSITION                                       TOTAL-FORCE (eV/Angst)
 -----------------------------------------------------------------------------------
      1.21577     -0.00000      1.98558        -0.001724      0.000000      0.000000
     -0.60788      1.05288      3.97116         0.000862     -0.001493      0.000000
      1.64720      2.85303      0.00000         0.000862      0.001493     -0.000000
 -----------------------------------------------------------------------------------
    total drift:                                0.000026     -0.000008     -0.000000


--------------------------------------------------------------------------------------------------------



  FREE ENERGIE OF THE ION-ELECTRON SYSTEM (eV)
  ---------------------------------------------------
  free  energy   TOTEN  =        -9.42609936 eV

  energy  without entropy=       -9.42608947  energy(sigma->0) =       -9.42609441
 
 d Force =-0.3063299E-05[ 0.962E-05,-0.157E-04]  d Energy = 0.8343854E-04-0.865E-04
 d Force =-0.9379707E-01[-0.942E-01,-0.934E-01]  d Ewald  =-0.8154213E+00 0.722E+00


--------------------------------------------------------------------------------------------------------


    POTLOK:  cpu time    0.1214: real time    0.1474


--------------------------------------------------------------------------------------------------------




--------------------------------------------------------------------------------------------------------


  
 reached required accuracy - stopping structural energy minimisation
 writing wavefunctions
     LOOP+:  cpu time   17.2734: real time   24.3468
    4ORBIT:  cpu time    0.0000: real time    0.0000

 total amount of memory used by VASP MPI-rank0    48763. kBytes
=======================================================================

   base      :      30000. kBytes
   nonl-proj :       6255. kBytes
   fftplans  :       2372. kBytes
   grid      :       3330. kBytes
   one-center:         16. kBytes
   wavefun   :       6790. kBytes
 
  
  
 General timing and accounting informations for this job:
 ========================================================
  
                  Total CPU time used (sec):      273.469
                            User time (sec):      261.780
                          System time (sec):       11.689
                         Elapsed time (sec):      401.746
  
                   Maximum memory used (kb):       89180.
                   Average memory used (kb):           0.
  
                          Minor page faults:        63671
                          Major page faults:            0
                 Voluntary context switches:          961
