Phosphorus                              
   1.00000000000000     
    12.9825496674000007    0.0000000000000000    0.0000000000000000
     0.0848524310000000   12.9822723716000006    0.0000000000000000
    -8.8922368229999993   -8.8343068928000008   43.4272174445999966
   Te
    12
Direct
  0.0872335432604197  0.8274618962800022  0.5280671871617703
  0.0811897951548572  0.4693089821105090  0.5257970955380102
  0.2668668200778383 -0.0586343626330681  0.5608548317119227
  0.4360804127058863  0.7922549046996976  0.5643925424694713
  0.5872335209458536  0.8274618962800022  0.5280671871617703
  0.7668668200239221 -0.0586343626330681  0.5608548317119227
  0.9360804127289938  0.7922549046996976  0.5643925424694713
  0.2591058152865536  0.6081385398926175  0.5389711058627207
  0.4551062051291042  0.5289025564761897  0.5685050119869373
  0.5811898100440743  0.4693089821105090  0.5257970955380102
  0.7591058153096607  0.6081385398926175  0.5389711058627207
  0.9551061753429683  0.5289025564761897  0.5685050119869373
 
  0.00000000E+00  0.00000000E+00  0.00000000E+00
  0.00000000E+00  0.00000000E+00  0.00000000E+00
  0.00000000E+00  0.00000000E+00  0.00000000E+00
  0.00000000E+00  0.00000000E+00  0.00000000E+00
  0.00000000E+00  0.00000000E+00  0.00000000E+00
  0.00000000E+00  0.00000000E+00  0.00000000E+00
  0.00000000E+00  0.00000000E+00  0.00000000E+00
  0.00000000E+00  0.00000000E+00  0.00000000E+00
  0.00000000E+00  0.00000000E+00  0.00000000E+00
  0.00000000E+00  0.00000000E+00  0.00000000E+00
  0.00000000E+00  0.00000000E+00  0.00000000E+00
  0.00000000E+00  0.00000000E+00  0.00000000E+00
