Te-vac
1.0
       12.9825496674         0.0000000000         0.0000000000
        0.0848524310        12.9822723716         0.0000000000
       -8.8922368230        -8.8343068928        43.4272174446
    Te
  12
Cartesian
    -3.543077398         7.329649696        22.690070479
    -3.546637955         1.026355698        22.431027368
    -1.464171505        -4.589709407        24.531089521
     0.784439491         6.266738150        24.531086932
     2.948197146         7.329649696        22.690070479
     5.027103328        -4.589709407        24.531089521
     7.275714325         6.266738150        24.531086932
    -1.382879397         2.089268719        24.272043822
     0.780879028        -0.036556236        24.272043822
     2.944637072         1.026355698        22.431027368
     5.108395437         2.089268719        24.272043822
     7.272153475        -0.036556236        24.272043822
