Phosphorus - white                      
   1.00000000000000     
     5.4144118222072368   -0.0113865635004050   -0.0091256961894812
    -1.9974000327025014   10.4932701361016427    0.0019060168277183
    -1.8318761928460359   -1.1654177395078102   10.6570815035246369
   P 
    24
Direct
  0.0737383563799580 -0.0003412529839713  0.1754587510995688
  0.9262616216200401  0.0003412409839702  0.8245412639004361
  0.8243882480014608  0.9404699257898396  0.3099191342894898
  0.1756117519985394  0.0595300592101628  0.6900808657105104
 -0.0001238078073985  0.1445724648897440  0.3126915365091727
  0.0001237818074033  0.8554275651102581  0.6873084634908344
  0.2402501979818824  0.0085186101461111  0.3759903833091534
  0.7597498320181133  0.9914814178538915  0.6240096466908494
  0.7896983840974551  0.3767213742866903  0.0614019133266748
  0.2103016159025453  0.6232786257133095  0.9385981096733305
  0.5932571934806973  0.1738131435053554  0.0308683080724249
  0.4067428065193024  0.8261868564946443  0.9691316799275743
  0.5061221713022795  0.3055398315974043  0.1762190047331476
  0.4938778286977200  0.6944601684025956  0.8237810102668569
  0.3791378881965930  0.3229214261321042  0.9760767621792351
  0.6208621118034063  0.6770785738678960  0.0239232228207601
  0.3082267051267019  0.6908600821516648  0.4750160068548422
  0.6917732648732949  0.3091399178483358  0.5249839931451580
  0.9162863237023844  0.6248588548944095  0.3656891238590177
  0.0837136912976133  0.3751411451055907  0.6343108461409798
  0.2015754782316863  0.5036416249280831  0.3594993398507634
  0.7984245367683115  0.4963583750719168  0.6405006301492340
  0.2387486225468374  0.6824200180551597  0.2687361583615540
  0.7612513624531576  0.3175799819448399  0.7312638416384459
 
  0.00000000E+00  0.00000000E+00  0.00000000E+00
  0.00000000E+00  0.00000000E+00  0.00000000E+00
  0.00000000E+00  0.00000000E+00  0.00000000E+00
  0.00000000E+00  0.00000000E+00  0.00000000E+00
  0.00000000E+00  0.00000000E+00  0.00000000E+00
  0.00000000E+00  0.00000000E+00  0.00000000E+00
  0.00000000E+00  0.00000000E+00  0.00000000E+00
  0.00000000E+00  0.00000000E+00  0.00000000E+00
  0.00000000E+00  0.00000000E+00  0.00000000E+00
  0.00000000E+00  0.00000000E+00  0.00000000E+00
  0.00000000E+00  0.00000000E+00  0.00000000E+00
  0.00000000E+00  0.00000000E+00  0.00000000E+00
  0.00000000E+00  0.00000000E+00  0.00000000E+00
  0.00000000E+00  0.00000000E+00  0.00000000E+00
  0.00000000E+00  0.00000000E+00  0.00000000E+00
  0.00000000E+00  0.00000000E+00  0.00000000E+00
  0.00000000E+00  0.00000000E+00  0.00000000E+00
  0.00000000E+00  0.00000000E+00  0.00000000E+00
  0.00000000E+00  0.00000000E+00  0.00000000E+00
  0.00000000E+00  0.00000000E+00  0.00000000E+00
  0.00000000E+00  0.00000000E+00  0.00000000E+00
  0.00000000E+00  0.00000000E+00  0.00000000E+00
  0.00000000E+00  0.00000000E+00  0.00000000E+00
  0.00000000E+00  0.00000000E+00  0.00000000E+00
