Phosphorus - aP42                       
   1.00000000000000     
    13.2932411540826578    0.0709660699047847   -0.4538408334615812
    -1.8646098228887797   12.8928884136693114    0.0578287038618485
    -2.4062562588317395   -3.5402456190942071    6.8695149126783752
   P 
    42
Direct
  0.1491623735716469  0.3358424513083846  0.7637365407411060
  0.8508376414283511  0.6641575486916157  0.2362634292588917
  0.2691394557315342  0.4859604685530958  0.7944892901681855
  0.7308605142684704  0.5140395014469021  0.2055106798318121
  0.1508772278495616  0.5892591687134237  0.7634840042586643
  0.8491227421504361  0.4107408312865768  0.2365159957413354
  0.2745979509595309  0.7315633394163701  0.7872591031314197
  0.7254020190404743  0.2684366605836305  0.2127408668685781
  0.1755030722601111  0.8504943960421840  0.7566822642381044
  0.8244969137398878  0.1495055749578168  0.2433177657618978
  0.3014233043700266  0.9854365359742555  0.7666051876334860
  0.6985766666299750  0.0145634600257446  0.2333948413665126
  0.1732288241946647  0.0770699235779373  0.7569488384555659
  0.8267711608053379  0.9229300984220572  0.2430511615444339
  0.2720532782042925  0.2390808314373441  0.7886081213124361
  0.7279467217957076  0.7609191535626583  0.2113918786875641
  0.3275368019346414  0.4766735394812588  0.2492092634697591
  0.6724631680653556  0.5233264605187409  0.7507907065302456
  0.3883588164687248  0.5809537967767330  0.1201384177563717
  0.6116411835312755  0.4190462032232669  0.8798615902436291
  0.3294300784115057  0.7318575664410696  0.2489959494719294
  0.6705699515884963  0.2681424335589301  0.7510040505280706
  0.3972912730217661  0.8254815938264225  0.1138115937019698
  0.6027087269782336  0.1745184061735773  0.8861884212980353
  0.3599766972297495 -0.0084507306234381  0.2337278559938563
  0.6400232727702478  0.0084507126234366  0.7662721140061414
  0.4274464692852605  0.0826245313968652  0.0936082342363431
  0.5725535007147443  0.9173754906031366  0.9063917437636625
  0.3562993180873704  0.2177798069181565  0.2346056301767271
  0.6437007119126257  0.7822201630818478  0.7653943998232748
  0.3946883975565772  0.3365211169641357  0.1154975818891121
  0.6053116324434180  0.6634788830358639  0.8845024481108908
  0.1471717149552532  0.3885758536464213  0.0568651187350886
  0.8528283000447517  0.6114241463535784  0.9431348952649130
  0.1492472576325645  0.6777854211573845  0.0567419748361818
  0.8507527573674406  0.3222145788426156  0.9432580321638151
  0.1767968917346634  0.9465128649813846  0.0545462133813563
  0.8232031082653368  0.0534871310186150  0.9454538016186409
  0.1740091714878021  0.1220753151963256  0.0542312273506678
  0.8259908435122025  0.8779246998036789  0.9457687876493295
  0.0827317554586756  0.5428035815771937  0.1324936218824034
  0.9172682445413247  0.4571964184227991  0.8675063931175941
 
  0.00000000E+00  0.00000000E+00  0.00000000E+00
  0.00000000E+00  0.00000000E+00  0.00000000E+00
  0.00000000E+00  0.00000000E+00  0.00000000E+00
  0.00000000E+00  0.00000000E+00  0.00000000E+00
  0.00000000E+00  0.00000000E+00  0.00000000E+00
  0.00000000E+00  0.00000000E+00  0.00000000E+00
  0.00000000E+00  0.00000000E+00  0.00000000E+00
  0.00000000E+00  0.00000000E+00  0.00000000E+00
  0.00000000E+00  0.00000000E+00  0.00000000E+00
  0.00000000E+00  0.00000000E+00  0.00000000E+00
  0.00000000E+00  0.00000000E+00  0.00000000E+00
  0.00000000E+00  0.00000000E+00  0.00000000E+00
  0.00000000E+00  0.00000000E+00  0.00000000E+00
  0.00000000E+00  0.00000000E+00  0.00000000E+00
  0.00000000E+00  0.00000000E+00  0.00000000E+00
  0.00000000E+00  0.00000000E+00  0.00000000E+00
  0.00000000E+00  0.00000000E+00  0.00000000E+00
  0.00000000E+00  0.00000000E+00  0.00000000E+00
  0.00000000E+00  0.00000000E+00  0.00000000E+00
  0.00000000E+00  0.00000000E+00  0.00000000E+00
  0.00000000E+00  0.00000000E+00  0.00000000E+00
  0.00000000E+00  0.00000000E+00  0.00000000E+00
  0.00000000E+00  0.00000000E+00  0.00000000E+00
  0.00000000E+00  0.00000000E+00  0.00000000E+00
  0.00000000E+00  0.00000000E+00  0.00000000E+00
  0.00000000E+00  0.00000000E+00  0.00000000E+00
  0.00000000E+00  0.00000000E+00  0.00000000E+00
  0.00000000E+00  0.00000000E+00  0.00000000E+00
  0.00000000E+00  0.00000000E+00  0.00000000E+00
  0.00000000E+00  0.00000000E+00  0.00000000E+00
  0.00000000E+00  0.00000000E+00  0.00000000E+00
  0.00000000E+00  0.00000000E+00  0.00000000E+00
  0.00000000E+00  0.00000000E+00  0.00000000E+00
  0.00000000E+00  0.00000000E+00  0.00000000E+00
  0.00000000E+00  0.00000000E+00  0.00000000E+00
  0.00000000E+00  0.00000000E+00  0.00000000E+00
  0.00000000E+00  0.00000000E+00  0.00000000E+00
  0.00000000E+00  0.00000000E+00  0.00000000E+00
  0.00000000E+00  0.00000000E+00  0.00000000E+00
  0.00000000E+00  0.00000000E+00  0.00000000E+00
  0.00000000E+00  0.00000000E+00  0.00000000E+00
  0.00000000E+00  0.00000000E+00  0.00000000E+00
