Phosphorus - aP42                       
   1.00000000000000     
    12.3109967941819090    0.0078029160834455    0.0083116812812197
    -1.7953478483404581   12.8884274668326295    0.0119544593131138
    -2.0035810208145484   -3.5204077251103660    5.8826566591547040
   P 
    42
Direct
  0.1457998159187661  0.3274308723301552  0.7418422675484440
  0.8542001990812319  0.6725691276698451  0.2581577024515533
  0.2709689827809005  0.4736221686752964  0.7565523699707687
  0.7290309872191041  0.5263778013247017  0.2434476000292288
  0.1477514106184735  0.5824092783647139  0.7442989147167469
  0.8522485593815240  0.4175907216352859  0.2557010852832532
  0.2754285709145867  0.7237535836214659  0.7567742071532954
  0.7245713990854178  0.2762464163785343  0.2432257628467018
  0.1660289281868896  0.8417049648056617  0.7381000912711431
  0.8339710578131089  0.1582950061943393  0.2618999387288596
  0.2958235952359945  0.9727287024355127  0.7293793040752724
  0.7041763757640068  0.0272712935644872  0.2706207249247262
  0.1625237249307611  0.0696263196377187  0.7364743462836866
  0.8374762600692416  0.9303737023622762  0.2635256537163133
  0.2726441783983862  0.2247084451849411  0.7546542514751389
  0.7273558216016142  0.7752915398150610  0.2453457485248610
  0.3458641408650379  0.4892017027910955  0.2895361896486693
  0.6541358291349597  0.5107982972089045  0.7104637803513352
  0.4051660759864981  0.5808362137110317  0.1219489032084897
  0.5948339240135017  0.4191637862889678  0.8780511047915109
  0.3478318521122690  0.7410138200069406  0.2910909383977189
  0.6521681778877336  0.2589861799930592  0.7089090616022812
  0.4110566421868275  0.8291438096852558  0.1225675878070515
  0.5889433578131721  0.1708561903147440  0.8774324271929533
  0.3712313054600653  0.0013837419438465  0.2744257512689739
  0.6287686645399321 -0.0013837599438480  0.7255742187310241
  0.4351287407167014  0.0823703974266221  0.0957134450921104
  0.5648712292833032  0.9176296245733795  0.9042865329078948
  0.3657230928605447  0.2295084780971019  0.2756073523641922
  0.6342769371394508  0.7704914919029027  0.7243926776358105
  0.4081912489562505  0.3346134387458953  0.1221711971975646
  0.5918087810437446  0.6653865612541044  0.8778288328024376
  0.1532315360063106  0.3968112672440020  0.0916298013733079
  0.8467684789936939  0.6031887327559978  0.9083702126266932
  0.1554333368388390  0.6871306342366120  0.0939338682061962
  0.8445666781611658  0.3128693657633884  0.9060661387938006
  0.1747093718809849  0.9548411339980268  0.0924411735160224
  0.8252906281190154  0.0451588620019728  0.9075588414839749
  0.1704561229688605  0.1310427226184711  0.0910368804726936
  0.8295438920311444  0.8689572923815337  0.9089631345273039
  0.0774993735290850  0.5508210017546117  0.1679351716696910
  0.9225006264709149  0.4491789982453811  0.8320648433303066
 
  0.00000000E+00  0.00000000E+00  0.00000000E+00
  0.00000000E+00  0.00000000E+00  0.00000000E+00
  0.00000000E+00  0.00000000E+00  0.00000000E+00
  0.00000000E+00  0.00000000E+00  0.00000000E+00
  0.00000000E+00  0.00000000E+00  0.00000000E+00
  0.00000000E+00  0.00000000E+00  0.00000000E+00
  0.00000000E+00  0.00000000E+00  0.00000000E+00
  0.00000000E+00  0.00000000E+00  0.00000000E+00
  0.00000000E+00  0.00000000E+00  0.00000000E+00
  0.00000000E+00  0.00000000E+00  0.00000000E+00
  0.00000000E+00  0.00000000E+00  0.00000000E+00
  0.00000000E+00  0.00000000E+00  0.00000000E+00
  0.00000000E+00  0.00000000E+00  0.00000000E+00
  0.00000000E+00  0.00000000E+00  0.00000000E+00
  0.00000000E+00  0.00000000E+00  0.00000000E+00
  0.00000000E+00  0.00000000E+00  0.00000000E+00
  0.00000000E+00  0.00000000E+00  0.00000000E+00
  0.00000000E+00  0.00000000E+00  0.00000000E+00
  0.00000000E+00  0.00000000E+00  0.00000000E+00
  0.00000000E+00  0.00000000E+00  0.00000000E+00
  0.00000000E+00  0.00000000E+00  0.00000000E+00
  0.00000000E+00  0.00000000E+00  0.00000000E+00
  0.00000000E+00  0.00000000E+00  0.00000000E+00
  0.00000000E+00  0.00000000E+00  0.00000000E+00
  0.00000000E+00  0.00000000E+00  0.00000000E+00
  0.00000000E+00  0.00000000E+00  0.00000000E+00
  0.00000000E+00  0.00000000E+00  0.00000000E+00
  0.00000000E+00  0.00000000E+00  0.00000000E+00
  0.00000000E+00  0.00000000E+00  0.00000000E+00
  0.00000000E+00  0.00000000E+00  0.00000000E+00
  0.00000000E+00  0.00000000E+00  0.00000000E+00
  0.00000000E+00  0.00000000E+00  0.00000000E+00
  0.00000000E+00  0.00000000E+00  0.00000000E+00
  0.00000000E+00  0.00000000E+00  0.00000000E+00
  0.00000000E+00  0.00000000E+00  0.00000000E+00
  0.00000000E+00  0.00000000E+00  0.00000000E+00
  0.00000000E+00  0.00000000E+00  0.00000000E+00
  0.00000000E+00  0.00000000E+00  0.00000000E+00
  0.00000000E+00  0.00000000E+00  0.00000000E+00
  0.00000000E+00  0.00000000E+00  0.00000000E+00
  0.00000000E+00  0.00000000E+00  0.00000000E+00
  0.00000000E+00  0.00000000E+00  0.00000000E+00
