Phosphorus                              
   1.00000000000000     
     9.1613848394444606    0.0000000000000000    0.0054837141511603
     0.0000000000000000    9.0279479934153866    0.0000000000000000
    -6.2199959172408965    0.0000000000000000   20.9005719601920426
   P 
    84
Direct
  0.3054130665465561  0.1954660602542338  0.1829347729877460
  0.6945869634534469  0.8045339547457637  0.8170651970122587
  0.6945869634534469  0.1954660602542338  0.3170652270122541
  0.3054130665465561  0.8045339547457637  0.6829348029877413
  0.1778934137938589  0.0256074554514590  0.1158625367863675
  0.8221066162061362  0.9743925335485434  0.8841374862136383
  0.8221066162061362  0.0256074554514590  0.3841374562136354
  0.1778934137938589  0.9743925335485434  0.6158625137863617
  0.9289465857972601  0.7734025852995685  0.1156225599067000
  0.0710534062027388  0.2265974147004313  0.8843774540933010
  0.0710534062027388  0.7734025852995685  0.3843774540933010
  0.9289465857972601  0.2265974147004313  0.6156225459066990
  0.0538183900797877  0.9432012484763297  0.1817796222299752
  0.9461815879202174  0.0567987625236752  0.8182203777700244
  0.9461815879202174  0.9432012484763297  0.3182203777700247
  0.0538183900797877  0.0567987625236752  0.6817796222299756
  0.8014731472247163  0.6718656785111931  0.1761448391010150
  0.1985268377752862  0.3281343214888067  0.8238551758989825
  0.1985268377752862  0.6718656785111931  0.3238551758989828
  0.8014731472247163  0.3281343214888067  0.6761448241010175
  0.6901409420152954  0.5073168565377413  0.1027025576439134
  0.3098590869847030  0.4926831434622582  0.8972974423560867
  0.3098590869847030  0.5073168565377413  0.3972974423560867
  0.6901409420152954  0.4926831434622582  0.6027025576439133
  0.5730537090296126  0.4398984530523957  0.1735914511103515
  0.4269462909703873  0.5601015469476043  0.8264085338896509
  0.4269462909703873  0.4398984530523957  0.3264085338896508
  0.5730537090296126  0.5601015469476043  0.6735914661103491
  0.4291956627690121  0.2683691093363719  0.1153711407548980
  0.5708043372309881  0.7316308906636287  0.8846288362451036
  0.5708043372309881  0.2683691093363719  0.3846288662451061
  0.4291956627690121  0.7316308906636287  0.6153711637548964
  0.0432018141870408  0.3877612311307327  0.0682953015748513
  0.9567982048129569  0.6122387688692673  0.9317047134251462
  0.9567982048129569  0.3877612311307327  0.4317047134251463
  0.0432018141870408  0.6122387688692673  0.5682952865748538
  0.0012542381509492  0.1532414162162448  0.0401643266127591
 -0.0012542361509491  0.8467585697837542  0.9598356953872424
 -0.0012542361509491  0.1532414162162448  0.4598356653872405
  0.0012542381509492  0.8467585697837542  0.5401643046127576
  0.7893846239769279  0.1349247465479907  0.0691176047024861
  0.2106154060230744  0.8650752534520091  0.9308824102975116
  0.2106154060230744  0.1349247465479907  0.4308824102975117
  0.7893846239769279  0.8650752534520091  0.5691175897024884
  0.7503000456925467  0.9020715630770422  0.0408939498525472
  0.2496999543074531  0.0979284369229582  0.9591060461474525
  0.2496999543074531  0.9020715630770422  0.4591060461474525
  0.7503000456925467  0.0979284369229582  0.5408939538525475
  0.5379548196730045  0.8698654501914360  0.0665993943580100
  0.4620452103269911  0.1301345648085617  0.9334006126419944
  0.4620452103269911  0.8698654501914360  0.4334006126419940
  0.5379548196730045  0.1301345648085617  0.5665993873580056
  0.5117067304780833  0.6409538878179873  0.0301815479426088
  0.4882932695219167  0.3590461421820076  0.9698184630573885
  0.4882932695219167  0.6409538878179873  0.4698184630573887
  0.5117067304780833  0.3590461421820076  0.5301815369426115
  0.3074386571211117  0.6324960787060935  0.0641467193013776
  0.6925613428788884  0.3675039212939063  0.9358533036986209
  0.6925613428788884  0.6324960787060935  0.4358532736986255
  0.3074386571211117  0.3675039212939063  0.5641466963013791
  0.2544383417578768  0.3989102915588943  0.0401648182507912
  0.7455616582421231  0.6010897084411058  0.9598351777492083
  0.7455616582421231  0.3989102915588943  0.4598351777492082
  0.2544383417578768  0.6010897084411058  0.5401648222507917
  0.1507027730231931  0.3884131266038290  0.1719416896471669
  0.8492971969768045  0.6115868733961703  0.8280582953528353
  0.8492971969768045  0.3884131266038290  0.3280582953528355
  0.1507027730231931  0.6115868733961703  0.6719417046471647
  0.8609656897525436  0.0987561348672866  0.1731371203561914
  0.1390343102474564  0.9012438721327175  0.8268628496438132
  0.1390343102474564  0.0987561348672866  0.3268628796438088
  0.8609656897525436  0.9012438721327175  0.6731371503561868
  0.6021420027535744  0.8208059668154509  0.1714895156956854
  0.3978580272464209  0.1791940481845467  0.8285105143043171
  0.3978580272464209  0.8208059668154509  0.3285104843043146
  0.6021420027535744  0.1791940481845467  0.6714894856956829
  0.4242297735562844  0.6393602275490550  0.1696359417610367
  0.5757702264437161  0.3606397724509454  0.8303640432389654
  0.5757702264437161  0.6393602275490550  0.3303640432389658
  0.4242297735562844  0.3606397724509454  0.6696359567610346
  0.9464445848376265  0.3244329455197364  0.1988082924296376
  0.0535553891623785  0.6755670244802614  0.8011916775703672
  0.0535553891623785  0.3244329455197364  0.3011917075703623
  0.9464445848376265  0.6755670244802614  0.6988083224296328
 
  0.00000000E+00  0.00000000E+00  0.00000000E+00
  0.00000000E+00  0.00000000E+00  0.00000000E+00
  0.00000000E+00  0.00000000E+00  0.00000000E+00
  0.00000000E+00  0.00000000E+00  0.00000000E+00
  0.00000000E+00  0.00000000E+00  0.00000000E+00
  0.00000000E+00  0.00000000E+00  0.00000000E+00
  0.00000000E+00  0.00000000E+00  0.00000000E+00
  0.00000000E+00  0.00000000E+00  0.00000000E+00
  0.00000000E+00  0.00000000E+00  0.00000000E+00
  0.00000000E+00  0.00000000E+00  0.00000000E+00
  0.00000000E+00  0.00000000E+00  0.00000000E+00
  0.00000000E+00  0.00000000E+00  0.00000000E+00
  0.00000000E+00  0.00000000E+00  0.00000000E+00
  0.00000000E+00  0.00000000E+00  0.00000000E+00
  0.00000000E+00  0.00000000E+00  0.00000000E+00
  0.00000000E+00  0.00000000E+00  0.00000000E+00
  0.00000000E+00  0.00000000E+00  0.00000000E+00
  0.00000000E+00  0.00000000E+00  0.00000000E+00
  0.00000000E+00  0.00000000E+00  0.00000000E+00
  0.00000000E+00  0.00000000E+00  0.00000000E+00
  0.00000000E+00  0.00000000E+00  0.00000000E+00
  0.00000000E+00  0.00000000E+00  0.00000000E+00
  0.00000000E+00  0.00000000E+00  0.00000000E+00
  0.00000000E+00  0.00000000E+00  0.00000000E+00
  0.00000000E+00  0.00000000E+00  0.00000000E+00
  0.00000000E+00  0.00000000E+00  0.00000000E+00
  0.00000000E+00  0.00000000E+00  0.00000000E+00
  0.00000000E+00  0.00000000E+00  0.00000000E+00
  0.00000000E+00  0.00000000E+00  0.00000000E+00
  0.00000000E+00  0.00000000E+00  0.00000000E+00
  0.00000000E+00  0.00000000E+00  0.00000000E+00
  0.00000000E+00  0.00000000E+00  0.00000000E+00
  0.00000000E+00  0.00000000E+00  0.00000000E+00
  0.00000000E+00  0.00000000E+00  0.00000000E+00
  0.00000000E+00  0.00000000E+00  0.00000000E+00
  0.00000000E+00  0.00000000E+00  0.00000000E+00
  0.00000000E+00  0.00000000E+00  0.00000000E+00
  0.00000000E+00  0.00000000E+00  0.00000000E+00
  0.00000000E+00  0.00000000E+00  0.00000000E+00
  0.00000000E+00  0.00000000E+00  0.00000000E+00
  0.00000000E+00  0.00000000E+00  0.00000000E+00
  0.00000000E+00  0.00000000E+00  0.00000000E+00
  0.00000000E+00  0.00000000E+00  0.00000000E+00
  0.00000000E+00  0.00000000E+00  0.00000000E+00
  0.00000000E+00  0.00000000E+00  0.00000000E+00
  0.00000000E+00  0.00000000E+00  0.00000000E+00
  0.00000000E+00  0.00000000E+00  0.00000000E+00
  0.00000000E+00  0.00000000E+00  0.00000000E+00
  0.00000000E+00  0.00000000E+00  0.00000000E+00
  0.00000000E+00  0.00000000E+00  0.00000000E+00
  0.00000000E+00  0.00000000E+00  0.00000000E+00
  0.00000000E+00  0.00000000E+00  0.00000000E+00
  0.00000000E+00  0.00000000E+00  0.00000000E+00
  0.00000000E+00  0.00000000E+00  0.00000000E+00
  0.00000000E+00  0.00000000E+00  0.00000000E+00
  0.00000000E+00  0.00000000E+00  0.00000000E+00
  0.00000000E+00  0.00000000E+00  0.00000000E+00
  0.00000000E+00  0.00000000E+00  0.00000000E+00
  0.00000000E+00  0.00000000E+00  0.00000000E+00
  0.00000000E+00  0.00000000E+00  0.00000000E+00
  0.00000000E+00  0.00000000E+00  0.00000000E+00
  0.00000000E+00  0.00000000E+00  0.00000000E+00
  0.00000000E+00  0.00000000E+00  0.00000000E+00
  0.00000000E+00  0.00000000E+00  0.00000000E+00
  0.00000000E+00  0.00000000E+00  0.00000000E+00
  0.00000000E+00  0.00000000E+00  0.00000000E+00
  0.00000000E+00  0.00000000E+00  0.00000000E+00
  0.00000000E+00  0.00000000E+00  0.00000000E+00
  0.00000000E+00  0.00000000E+00  0.00000000E+00
  0.00000000E+00  0.00000000E+00  0.00000000E+00
  0.00000000E+00  0.00000000E+00  0.00000000E+00
  0.00000000E+00  0.00000000E+00  0.00000000E+00
  0.00000000E+00  0.00000000E+00  0.00000000E+00
  0.00000000E+00  0.00000000E+00  0.00000000E+00
  0.00000000E+00  0.00000000E+00  0.00000000E+00
  0.00000000E+00  0.00000000E+00  0.00000000E+00
  0.00000000E+00  0.00000000E+00  0.00000000E+00
  0.00000000E+00  0.00000000E+00  0.00000000E+00
  0.00000000E+00  0.00000000E+00  0.00000000E+00
  0.00000000E+00  0.00000000E+00  0.00000000E+00
  0.00000000E+00  0.00000000E+00  0.00000000E+00
  0.00000000E+00  0.00000000E+00  0.00000000E+00
  0.00000000E+00  0.00000000E+00  0.00000000E+00
  0.00000000E+00  0.00000000E+00  0.00000000E+00
