Phosphorus - aP42+Te                    
   1.00000000000000     
    12.9860000610000004    0.0000000000000000    0.0000000000000000
    -3.2108821820000002    6.3044316090999999    0.0000000000000000
    -6.7146322425999996  -18.7970639772000006   44.5223915105000003
   P    Te
    84     6
Selective dynamics
Direct
  0.9175000190858924  0.8914000392411268  0.0186249930398361   F   F   F
  0.1682000160325430  0.8733000159095567  0.0212000012348241   F   F   F
  0.6647999882531579  0.8729999660877539  0.0214000046195935   F   F   F
  0.4186999798224562  0.8815000057487268  0.0219250023388753   F   F   F
  0.0037000009217039  0.7160999774237951  0.0340999960804425   F   F   F
  0.7634999752385525  0.7165000438384510  0.0350500047292357   F   F   F
  0.5076000094872768  0.7081000209625330  0.0362499952326090   F   F   F
  0.2590000033453848  0.7087000012411053  0.0366750061621204   F   F   F
  0.0284000038785166  0.2626999914986854  0.0530999898880680   F   F   F
  0.2756999731495000  0.2400999963594117  0.0550999902245053   F   F   F
  0.7739999890190177  0.2414000033576400  0.0555749833522867   F   F   F
  0.5270999669671710  0.2515999972463661  0.0561499893690680   F   F   F
  0.0459999963475966  0.9085000752929062  0.0826250016720778   F   F   F
  0.8690000176036037  0.9110000132845855  0.0836250185959102   F   F   F
  0.1640000045501182  0.2606000005803040  0.0849249958890539   F   F   F
  0.5945000052693530  0.8987999559026534  0.0853250026810457   F   F   F
  0.9272000197210133  0.2662000059400995  0.0855499803981061   F   F   F
  0.3155999779718925  0.9026999473004338  0.0857000052905974   F   F   F
  0.6692000031736285  0.2531000078529573  0.0871250033387199   F   F   F
  0.4199000299360875  0.2578999996294300  0.0872499942884701   F   F   F
  0.4483000040165024  0.8294999599654389  0.1058749854640766   F   F   F
  0.5516999960176605  0.1704999804644061  0.1441249996529663   F   F   F
  0.5800999999378149  0.7421000004410061  0.1627499908285728   F   F   F
  0.3307999968371220  0.7468999623835870  0.1628749966697072   F   F   F
  0.6844000220485071  0.0973000080259609  0.1642999947178225   F   F   F
  0.0727999955321650  0.7337999344227768  0.1644500046964765   F   F   F
  0.4054999947510467  0.1011999994237414  0.1646749973273742   F   F   F
  0.8359999656311388  0.7393999695892717  0.1650750040969129   F   F   F
  0.1309999972788560  0.0889999940551078  0.1663749963038939   F   F   F
  0.9539999963900243  0.0915000066111205  0.1673749983363422   F   F   F
  0.4729000032422519  0.7483999729901782  0.1938500106393590   F   F   F
  0.2260000109475797  0.7586000561277970  0.1944250017422959   F   F   F
  0.7243000269363620  0.7598999738773884  0.1948999911640783   F   F   F
  0.9715999960654713  0.7373000383114743  0.1969000100978988   F   F   F
  0.7409999966454350  0.2912999689556628  0.2133249640410710   F   F   F
  0.4923999607165825  0.2919000088214503  0.2137499600567452   F   F   F
  0.2364999800935408  0.2834999562319851  0.2149499803878001   F   F   F
  0.9962999818926548  0.2838999927593804  0.2158999890141331   F   F   F
  0.5813000201236065  0.1185000462791308  0.2280750124935480   F   F   F
  0.3352000414942964  0.1270000486113574  0.2285999952989854   F   F   F
  0.8317999839726795  0.1266999692507298  0.2287999838822117   F   F   F
  0.0825000108314384  0.1086000132893616  0.2313749940312775   F   F   F
  0.9247239448203789  0.9198801925128720  0.2667617793085947   T   T   T
  0.1771483186985524  0.8932806083060119  0.2727332506777976   T   T   T
  0.6735775876795460  0.8959353476922647  0.2735917947307197   T   T   T
  0.4258417221456632  0.8954071358509016  0.2743590607129516   T   T   T
  0.0045128565916249  0.7383099389741363  0.2827991136608903   T   T   T
  0.7770360091900460  0.7391938850439391  0.2844447652207669   T   T   T
  0.5171223921560987  0.7247571288278829  0.2888076183248502   T   T   T
  0.2644762068060441  0.7215314924477176  0.2884711672008193   T   T   T
  0.0359539570190933  0.2911792834184363  0.3021283118922505   T   T   T
  0.2845473845542666  0.2630425604308879  0.3073636196907602   T   T   T
  0.7841275609565547  0.2674561948820534  0.3081329050474917   T   T   T
  0.5348545005590095  0.2648613831337820  0.3086141528911630   T   T   T
  0.0516364481720184  0.9221815576333252  0.3324960966381142   T   T   T
  0.8758072239109831  0.9255839786834948  0.3337701973669114   T   T   T
  0.1664911331269106  0.2815271561251083  0.3349529173586113   T   T   T
  0.6100327996211889  0.9224774784477097  0.3375313530033851   T   T   T
  0.9394060112083593  0.2855110011008354  0.3358870434930120   T   T   T
  0.3193004289290442  0.9189107442006954  0.3372471658757143   T   T   T
  0.6810369842275020  0.2786269091782431  0.3401033158629456   T   T   T
  0.4255721855611923  0.2742140369576058  0.3396068923270936   T   T   T
  0.4545469972040354  0.8390488668350026  0.3561913704455490   T   T   T
  0.5587836477153240  0.1725133388738174  0.3962966911269172   T   T   T
  0.5918669803006285  0.7486026157503767  0.4166307621425965   T   T   T
  0.3369356992487137  0.7491231732941298  0.4160043955138146   T   T   T
  0.6936695122623076  0.0932888233125330  0.4154917823778032   T   T   T
  0.0774720051210634  0.7351211811568988  0.4216672680343844   T   T   T
  0.4055739167210167  0.0979190169605269  0.4156181312581798   T   T   T
  0.8515549245892902  0.7395526531861848  0.4223176396722843   T   T   T
  0.1363970867395453  0.0789346140109087  0.4190996721654936   T   T   T
  0.9609591682848583  0.0840307644618746  0.4195190085996330   T   T   T
  0.4856926689332338  0.7742389374064206  0.4481179605745265   T   T   T
  0.2401862701150605  0.7733060949392278  0.4491556395864313   T   T   T
  0.7378906181804344  0.7807520347060326  0.4500567433132628   T   T   T
  0.9876649999086442  0.7558189027785416  0.4568687587594096   T   T   T
  0.7510685075929365  0.3065485831201988  0.4638250284197708   T   T   T
  0.5032709742822010  0.3140692071693684  0.4637118611079444   T   T   T
  0.2389796577194109  0.2884898470345861  0.4682360046578010   T   T   T
  0.0160927375327417  0.3016327849249928  0.4682946497851456   T   T   T
  0.5942695931565185  0.1487320860815941  0.4803435227883366   T   T   T
  0.3516909479868483  0.1527118339521855  0.4810478135454014   T   T   T
  0.8499782217214196  0.1610186093343151  0.4814489001115541   T   T   T
  0.0969465703109575  0.1372038835218359  0.4888585569583177   T   T   T
  0.8545093958819778  0.7812074283641776  0.5229902162688358   T   T   T
  0.3619354259268616  0.7690741739268550  0.5248380340185363   T   T   T
  0.7655536688370143  0.0824070986152582  0.5395769614872579   T   T   T
  0.5792399306126549  0.8928707034541752  0.5646954940071555   T   T   T
  0.2668373808086045  0.0660905358745385  0.5370185276492581   T   T   T
  0.0714673183612018  0.8817391479177545  0.5605488696909721   T   T   T
 
  0.00000000E+00  0.00000000E+00  0.00000000E+00
  0.00000000E+00  0.00000000E+00  0.00000000E+00
  0.00000000E+00  0.00000000E+00  0.00000000E+00
  0.00000000E+00  0.00000000E+00  0.00000000E+00
  0.00000000E+00  0.00000000E+00  0.00000000E+00
  0.00000000E+00  0.00000000E+00  0.00000000E+00
  0.00000000E+00  0.00000000E+00  0.00000000E+00
  0.00000000E+00  0.00000000E+00  0.00000000E+00
  0.00000000E+00  0.00000000E+00  0.00000000E+00
  0.00000000E+00  0.00000000E+00  0.00000000E+00
  0.00000000E+00  0.00000000E+00  0.00000000E+00
  0.00000000E+00  0.00000000E+00  0.00000000E+00
  0.00000000E+00  0.00000000E+00  0.00000000E+00
  0.00000000E+00  0.00000000E+00  0.00000000E+00
  0.00000000E+00  0.00000000E+00  0.00000000E+00
  0.00000000E+00  0.00000000E+00  0.00000000E+00
  0.00000000E+00  0.00000000E+00  0.00000000E+00
  0.00000000E+00  0.00000000E+00  0.00000000E+00
  0.00000000E+00  0.00000000E+00  0.00000000E+00
  0.00000000E+00  0.00000000E+00  0.00000000E+00
  0.00000000E+00  0.00000000E+00  0.00000000E+00
  0.00000000E+00  0.00000000E+00  0.00000000E+00
  0.00000000E+00  0.00000000E+00  0.00000000E+00
  0.00000000E+00  0.00000000E+00  0.00000000E+00
  0.00000000E+00  0.00000000E+00  0.00000000E+00
  0.00000000E+00  0.00000000E+00  0.00000000E+00
  0.00000000E+00  0.00000000E+00  0.00000000E+00
  0.00000000E+00  0.00000000E+00  0.00000000E+00
  0.00000000E+00  0.00000000E+00  0.00000000E+00
  0.00000000E+00  0.00000000E+00  0.00000000E+00
  0.00000000E+00  0.00000000E+00  0.00000000E+00
  0.00000000E+00  0.00000000E+00  0.00000000E+00
  0.00000000E+00  0.00000000E+00  0.00000000E+00
  0.00000000E+00  0.00000000E+00  0.00000000E+00
  0.00000000E+00  0.00000000E+00  0.00000000E+00
  0.00000000E+00  0.00000000E+00  0.00000000E+00
  0.00000000E+00  0.00000000E+00  0.00000000E+00
  0.00000000E+00  0.00000000E+00  0.00000000E+00
  0.00000000E+00  0.00000000E+00  0.00000000E+00
  0.00000000E+00  0.00000000E+00  0.00000000E+00
  0.00000000E+00  0.00000000E+00  0.00000000E+00
  0.00000000E+00  0.00000000E+00  0.00000000E+00
  0.00000000E+00  0.00000000E+00  0.00000000E+00
  0.00000000E+00  0.00000000E+00  0.00000000E+00
  0.00000000E+00  0.00000000E+00  0.00000000E+00
  0.00000000E+00  0.00000000E+00  0.00000000E+00
  0.00000000E+00  0.00000000E+00  0.00000000E+00
  0.00000000E+00  0.00000000E+00  0.00000000E+00
  0.00000000E+00  0.00000000E+00  0.00000000E+00
  0.00000000E+00  0.00000000E+00  0.00000000E+00
  0.00000000E+00  0.00000000E+00  0.00000000E+00
  0.00000000E+00  0.00000000E+00  0.00000000E+00
  0.00000000E+00  0.00000000E+00  0.00000000E+00
  0.00000000E+00  0.00000000E+00  0.00000000E+00
  0.00000000E+00  0.00000000E+00  0.00000000E+00
  0.00000000E+00  0.00000000E+00  0.00000000E+00
  0.00000000E+00  0.00000000E+00  0.00000000E+00
  0.00000000E+00  0.00000000E+00  0.00000000E+00
  0.00000000E+00  0.00000000E+00  0.00000000E+00
  0.00000000E+00  0.00000000E+00  0.00000000E+00
  0.00000000E+00  0.00000000E+00  0.00000000E+00
  0.00000000E+00  0.00000000E+00  0.00000000E+00
  0.00000000E+00  0.00000000E+00  0.00000000E+00
  0.00000000E+00  0.00000000E+00  0.00000000E+00
  0.00000000E+00  0.00000000E+00  0.00000000E+00
  0.00000000E+00  0.00000000E+00  0.00000000E+00
  0.00000000E+00  0.00000000E+00  0.00000000E+00
  0.00000000E+00  0.00000000E+00  0.00000000E+00
  0.00000000E+00  0.00000000E+00  0.00000000E+00
  0.00000000E+00  0.00000000E+00  0.00000000E+00
  0.00000000E+00  0.00000000E+00  0.00000000E+00
  0.00000000E+00  0.00000000E+00  0.00000000E+00
  0.00000000E+00  0.00000000E+00  0.00000000E+00
  0.00000000E+00  0.00000000E+00  0.00000000E+00
  0.00000000E+00  0.00000000E+00  0.00000000E+00
  0.00000000E+00  0.00000000E+00  0.00000000E+00
  0.00000000E+00  0.00000000E+00  0.00000000E+00
  0.00000000E+00  0.00000000E+00  0.00000000E+00
  0.00000000E+00  0.00000000E+00  0.00000000E+00
  0.00000000E+00  0.00000000E+00  0.00000000E+00
  0.00000000E+00  0.00000000E+00  0.00000000E+00
  0.00000000E+00  0.00000000E+00  0.00000000E+00
  0.00000000E+00  0.00000000E+00  0.00000000E+00
  0.00000000E+00  0.00000000E+00  0.00000000E+00
  0.00000000E+00  0.00000000E+00  0.00000000E+00
  0.00000000E+00  0.00000000E+00  0.00000000E+00
  0.00000000E+00  0.00000000E+00  0.00000000E+00
  0.00000000E+00  0.00000000E+00  0.00000000E+00
  0.00000000E+00  0.00000000E+00  0.00000000E+00
  0.00000000E+00  0.00000000E+00  0.00000000E+00
