FP-Te
1.0
       12.9860000610         0.0000000000         0.0000000000
       -3.2108821820         6.3044316091         0.0000000000
       -6.7146322426       -18.7970639772        44.5223915105
    P   Te
   84    6
S
Cartesian
8.927414822	5.269675398	0.829229232	F	F	F
-0.762168254	5.107162445	0.943874755	F	F	F
5.686299491	5.101511325	0.952779384	F	F	F
2.459626974	5.145230828	0.976153538	F	F	F
-2.480233379	3.873623525	1.518213376	F	F	F
7.378865609	3.858288343	1.560510033	F	F	F
4.074662627	3.782774675	1.61393648	F	F	F
0.841562674	3.778568252	1.632858983	F	F	F
-0.831243174	0.658050223	2.364138539	F	F	F
2.439330897	0.477975965	2.453183337	F	F	F
8.90289136	0.477243294	2.474331167	F	F	F
5.660035726	0.530740033	2.49993181	F	F	F
-2.874527249	4.174469149	3.678662673	F	F	F
7.798209325	4.171432455	3.723185818	F	F	F
0.722708055	0.0465943	3.781063916	F	F	F
4.261310327	4.062563318	3.798873175	F	F	F
10.611446	0.070151277	3.808889721	F	F	F
0.624474138	4.080101599	3.815569188	F	F	F
7.29254462	-0.042042572	3.879013509	F	F	F
4.038883676	-0.014130815	3.884578405	F	F	F
2.447285647	3.239386892	4.713807554	F	F	F
5.649174463	-1.634221373	6.416789661	F	F	F
4.05757663	1.61929671	7.24601881	F	F	F
0.803915294	1.647207999	7.251584369	F	F	F
7.471985824	-2.474936266	7.31502869	F	F	F
-2.514985692	1.535014242	7.321707493	F	F	F
3.835149635	-2.457397985	7.331724703	F	F	F
7.373751472	1.558571127	7.349533961	F	F	F
0.298250563	-2.566267074	7.407412723	F	F	F
10.97098671	-2.569303018	7.451935205	F	F	F
2.436423801	1.074425394	8.630666068	F	F	F
-0.806431633	1.127922976	8.656266047	F	F	F
5.657129143	1.127189812	8.677413712	F	F	F
8.927702896	0.94711558	8.766459338	F	F	F
7.25489744	-2.173402265	9.497737568	F	F	F
4.021797009	-2.177608032	9.516659407	F	F	F
0.717593729	-2.253122448	9.570087182	F	F	F
10.57669317	-2.268457818	9.612383838	F	F	F
5.636832577	-3.540065164	10.154445	F	F	F
2.410160667	-3.496345616	10.17781849	F	F	F
8.85862822	-3.501996644	10.18672246	F	F	F
-0.830954697	-3.664509209	10.30136807	F	F	F
7.248756774	0.570409438	11.95982703	T	T	T
-2.440826315	0.407896451	12.07447263	T	T	T
4.00764143	0.402245331	12.08337726	T	T	T
0.780968913	0.445964834	12.10675142	T	T	T
-4.15889144	-0.825642469	12.64881125	T	T	T
5.700207548	-0.840977651	12.69110791	T	T	T
2.396004566	-0.91649132	12.74453436	T	T	T
-0.837095387	-0.920697742	12.76345686	T	T	T
-2.509901234	-4.041215772	13.49473642	T	T	T
0.760672811	-4.221290099	13.58378138	T	T	T
7.224233299	-4.2220227	13.60492905	T	T	T
3.981377666	-4.168525961	13.63052969	T	T	T
-4.55318531	-0.524796845	14.80926055	T	T	T
6.119551265	-0.527833539	14.8537837	T	T	T
-0.955950006	-4.652671694	14.91166179	T	T	T
2.582652266	-0.636702676	14.92947105	T	T	T
8.932787934	-4.629114717	14.9394876	T	T	T
-1.054183923	-0.619164395	14.94616707	T	T	T
5.613886559	-4.741308567	15.00961139	T	T	T
2.360225615	-4.713396809	15.01517628	T	T	T
0.768627586	-1.459879102	15.84440543	T	T	T
3.970516302	-6.333487647	17.5473882	T	T	T
2.378918469	-3.079969565	18.37661735	T	T	T
-0.874742767	-3.052057995	18.38218225	T	T	T
5.793327763	-7.174202261	18.44562657	T	T	T
-4.193643853	-3.164252033	18.45230603	T	T	T
2.156491574	-7.156663979	18.46232258	T	T	T
5.695093412	-3.140694867	18.48013184	T	T	T
-1.380407398	-7.265532788	18.53800994	T	T	T
9.292328647	-7.268569012	18.58253308	T	T	T
0.75776574	-3.624840601	19.76126395	T	T	T
-2.485089794	-3.571343298	19.78686459	T	T	T
3.978471182	-3.572075902	19.80801093	T	T	T
7.249044835	-3.752150414	19.89705722	T	T	T
5.57623938	-6.872668259	20.62833545	T	T	T
2.343139049	-6.876873746	20.64725662	T	T	T
-0.961064231	-6.952388163	20.7006844	T	T	T
8.898035212	-6.967723532	20.74298105	T	T	T
3.958174417	-8.239331439	21.28504354	T	T	T
0.731502606	-8.195611611	21.30841637	T	T	T
7.17997006	-8.201262918	21.317321	T	T	T
-2.509612857	-8.363775483	21.43196661	T	T	T
5.570099105	-4.128856371	23.09042358	T	T	T
-0.922900926	-4.128856371	23.09042358	T	T	T
6.803201783	-9.370375645	24.93144336	T	T	T
1.614539605	-5.191768976	24.93144336	T	T	T
0.123647961	-9.370375645	24.93144336	T	T	T
-5.251567914	-5.191768976	24.93144336	T	T	T

