Tellurium                               
   1.00000000000000     
     4.3346719218370744   -0.0000000000000000   -0.0000000000000000
    -2.1673359609185372    3.7539360014038148    0.0000000000000000
    -0.0000000000000000    0.0000000000000000    6.0404130828836982
   Te
     3
Direct
  0.2766217773095382  0.0000000000000000  0.3333333429999996
  0.0000000000000000  0.2766217773095381  0.6666666870000029
  0.7233782526904642  0.7233782526904643  0.0000000000000000
 
  0.00000000E+00  0.00000000E+00  0.00000000E+00
  0.00000000E+00  0.00000000E+00  0.00000000E+00
  0.00000000E+00  0.00000000E+00  0.00000000E+00
