 vasp.5.4.4.18Apr17-6-g9f103f2a35 (build Feb 10 2022 16:34:21) complex          
  
 executed on         VASP-optcell date 2026.04.16  11:05:20
 running on    4 total cores
 distrk:  each k-point on    4 cores,    1 groups
 distr:  one band on NCORES_PER_BAND=   2 cores,    2 groups


--------------------------------------------------------------------------------------------------------


 INCAR:
 POTCAR:    PAW_PBE Te 08Apr2002                  
 POTCAR:    PAW_PBE Te 08Apr2002                  
   VRHFIN =Te: s2p4                                                             
   LEXCH  = PE                                                                  
   EATOM  =   223.2721 eV,   16.4100 Ry                                         
                                                                                
   TITEL  = PAW_PBE Te 08Apr2002                                                
   LULTRA =        F    use ultrasoft PP ?                                      
   IUNSCR =        1    unscreen: 0-lin 1-nonlin 2-no                           
   RPACOR =    2.200    partial core radius                                     
   POMASS =  127.600; ZVAL   =    6.000    mass and valenz                      
   RCORE  =    2.300    outmost cutoff radius                                   
   RWIGS  =    2.900; RWIGS  =    1.535    wigner-seitz radius (au A)           
   ENMAX  =  174.982; ENMIN  =  131.236 eV                                      
   ICORE  =        3    local potential                                         
   LCOR   =        T    correct aug charges                                     
   LPAW   =        T    paw PP                                                  
   EAUG   =  368.792                                                            
   DEXC   =    0.000                                                            
   RMAX   =    2.345    core radius for proj-oper                               
   RAUG   =    1.300    factor for augmentation sphere                          
   RDEP   =    2.397    radius for radial grids                                 
   RDEPT  =    2.174    core radius for aug-charge                              
                                                                                
   Atomic configuration                                                         
   13 entries                                                                   
     n  l   j            E        occ.                                          
     1  0  0.50    -31621.2075   2.0000                                         
     2  0  0.50     -4848.7941   2.0000                                         
     2  1  1.50     -4352.1960   6.0000                                         
     3  0  0.50      -964.9612   2.0000                                         
     3  1  1.50      -803.6179   6.0000                                         
     3  2  2.50      -559.8710  10.0000                                         
     4  0  0.50      -164.3522   2.0000                                         
     4  1  1.50      -114.3756   6.0000                                         
     4  2  2.50       -41.6483  10.0000                                         
     5  0  0.50       -15.1072   2.0000                                         
     5  1  0.50        -5.9526   4.0000                                         
     5  2  1.50        -5.4423   0.0000                                         
     4  3  2.50        -5.4423   0.0000                                         
   Description                                                                  
     l       E           TYP  RCUT    TYP  RCUT                                 
     0    -15.1072389     23  2.300                                             
     0    -16.4678215     23  2.300                                             
     1     -5.9526306     23  2.300                                             
     1     -2.4873968     23  2.300                                             
     2     -5.4423304     23  2.300                                             
     3     -1.3605826     23  2.300                                             
  local pseudopotential read in
  partial core-charges read in
  partial kinetic energy density read in
  atomic valenz-charges read in
  non local Contribution for L=           0  read in
    real space projection operators read in
  non local Contribution for L=           0  read in
    real space projection operators read in
  non local Contribution for L=           1  read in
    real space projection operators read in
  non local Contribution for L=           1  read in
    real space projection operators read in
  non local Contribution for L=           2  read in
    real space projection operators read in
    PAW grid and wavefunctions read in
 
   number of l-projection  operators is LMAX  =           5
   number of lm-projection operators is LMMAX =          13
 
  PAW_PBE Te 08Apr2002                  :
 energy of atom  1       EATOM= -223.2721
 kinetic energy error for atom=    0.0007 (will be added to EATOM!!)
 
 
 POSCAR: Tellurium                               
  positions in direct lattice
  No initial velocities read in
 exchange correlation table for  LEXCH =        8
   RHO(1)=    0.500       N(1)  =     2000
   RHO(2)=  100.500       N(2)  =     4000
 


--------------------------------------------------------------------------------------------------------


 ion  position               nearest neighbor table
   1  0.262  0.000  0.333-   3 2.83   2 2.83   2 3.50   2 3.50   3 3.50   3 3.50
   2  0.000  0.262  0.667-   3 2.83   1 2.83   3 3.50   3 3.50   1 3.50   1 3.50
   3  0.738  0.738  0.000-   2 2.83   1 2.83   2 3.50   2 3.50   1 3.50   1 3.50
 
  LATTYP: Found a hexagonal cell.
 ALAT       =     4.4593000412
 C/A-ratio  =     1.3294014113
  
  Lattice vectors:
  
 A1 = (   4.4593000412,   0.0000000000,   0.0000000000)
 A2 = (  -2.2296500206,   3.8618671188,   0.0000000000)
 A3 = (   0.0000000000,   0.0000000000,   5.9281997681)


Analysis of symmetry for initial positions (statically):
=====================================================================
 Subroutine PRICEL returns:
 Original cell was already a primitive cell.
 

 Routine SETGRP: Setting up the symmetry group for a 
 hexagonal supercell.


 Subroutine GETGRP returns: Found  6 space group operations
 (whereof  2 operations were pure point group operations)
 out of a pool of 24 trial point group operations.


The static configuration has the point symmetry C_2 .
 The point group associated with its full space group is D_3 .


Analysis of symmetry for dynamics (positions and initial velocities):
=====================================================================
 Subroutine PRICEL returns:
 Original cell was already a primitive cell.
 

 Routine SETGRP: Setting up the symmetry group for a 
 hexagonal supercell.


 Subroutine GETGRP returns: Found  6 space group operations
 (whereof  2 operations were pure point group operations)
 out of a pool of 24 trial point group operations.


The dynamic configuration has the point symmetry C_2 .
 The point group associated with its full space group is D_3 .


 Subroutine INISYM returns: Found  6 space group operations
 (whereof  2 operations are pure point group operations),
 and found     1 'primitive' translations

 
 
 KPOINTS: K-Spacing Value to Generate K-Mesh: 0.04

Automatic generation of k-mesh.
Space group operators:
 irot       det(A)        alpha          n_x          n_y          n_z        tau_x        tau_y        tau_z
    1     1.000000     0.000000     1.000000     0.000000     0.000000     0.000000     0.000000     0.000000
    2     1.000000   180.000000    -0.500000    -0.866025     0.000000     0.000000     0.000000     0.000000
    3     1.000000   120.000000     0.000000     0.000000    -1.000000     0.000000     0.000000     0.333333
    4     1.000000   120.000000     0.000000     0.000000     1.000000     0.000000     0.000000     0.666667
    5     1.000000   180.000000     1.000000     0.000000     0.000000     0.000000     0.000000     0.666667
    6     1.000000   180.000000     0.500000    -0.866025     0.000000     0.000000     0.000000     0.333333
 
 Subroutine IBZKPT returns following result:
 ===========================================
 
 Found     43 irreducible k-points:
 
 Following reciprocal coordinates:
            Coordinates               Weight
  0.000000  0.000000  0.000000      1.000000
  0.111111  0.000000  0.000000      6.000000
  0.222222  0.000000  0.000000      6.000000
  0.333333 -0.000000  0.000000      6.000000
  0.444444  0.000000  0.000000      6.000000
  0.111111  0.111111  0.000000      6.000000
  0.222222  0.111111  0.000000     12.000000
  0.333333  0.111111  0.000000     12.000000
  0.444444  0.111111  0.000000      6.000000
  0.222222  0.222222  0.000000      6.000000
  0.333333  0.222222  0.000000     12.000000
  0.333333  0.333333  0.000000      2.000000
  0.000000  0.000000  0.250000      2.000000
  0.111111  0.000000  0.250000      6.000000
  0.222222  0.000000  0.250000      6.000000
  0.333333 -0.000000  0.250000      6.000000
  0.444444  0.000000  0.250000      6.000000
 -0.444444 -0.000000  0.250000      6.000000
 -0.333333  0.000000  0.250000      6.000000
 -0.222222 -0.000000  0.250000      6.000000
 -0.111111 -0.000000  0.250000      6.000000
  0.111111  0.111111  0.250000     12.000000
  0.222222  0.111111  0.250000     12.000000
  0.333333  0.111111  0.250000     12.000000
  0.444444  0.111111  0.250000     12.000000
 -0.444444  0.111111  0.250000     12.000000
 -0.333333  0.111111  0.250000     12.000000
  0.222222  0.222222  0.250000     12.000000
  0.333333  0.222222  0.250000     12.000000
  0.444444  0.222222  0.250000     12.000000
  0.333333  0.333333  0.250000      4.000000
  0.000000  0.000000  0.500000      1.000000
  0.111111  0.000000  0.500000      6.000000
  0.222222  0.000000  0.500000      6.000000
  0.333333 -0.000000  0.500000      6.000000
  0.444444  0.000000  0.500000      6.000000
  0.111111  0.111111  0.500000      6.000000
  0.222222  0.111111  0.500000     12.000000
  0.333333  0.111111  0.500000     12.000000
  0.444444  0.111111  0.500000      6.000000
  0.222222  0.222222  0.500000      6.000000
  0.333333  0.222222  0.500000     12.000000
  0.333333  0.333333  0.500000      2.000000
 
 Following cartesian coordinates:
            Coordinates               Weight
  0.000000  0.000000  0.000000      1.000000
  0.024917  0.014386  0.000000      6.000000
  0.049833  0.028771  0.000000      6.000000
  0.074750  0.043157  0.000000      6.000000
  0.099667  0.057543  0.000000      6.000000
  0.024917  0.043157  0.000000      6.000000
  0.049833  0.057543  0.000000     12.000000
  0.074750  0.071928  0.000000     12.000000
  0.099667  0.086314  0.000000      6.000000
  0.049833  0.086314  0.000000      6.000000
  0.074750  0.100700  0.000000     12.000000
  0.074750  0.129471  0.000000      2.000000
  0.000000  0.000000  0.042171      2.000000
  0.024917  0.014386  0.042171      6.000000
  0.049833  0.028771  0.042171      6.000000
  0.074750  0.043157  0.042171      6.000000
  0.099667  0.057543  0.042171      6.000000
 -0.099667 -0.057543  0.042171      6.000000
 -0.074750 -0.043157  0.042171      6.000000
 -0.049833 -0.028771  0.042171      6.000000
 -0.024917 -0.014386  0.042171      6.000000
  0.024917  0.043157  0.042171     12.000000
  0.049833  0.057543  0.042171     12.000000
  0.074750  0.071928  0.042171     12.000000
  0.099667  0.086314  0.042171     12.000000
 -0.099667 -0.028771  0.042171     12.000000
 -0.074750 -0.014386  0.042171     12.000000
  0.049833  0.086314  0.042171     12.000000
  0.074750  0.100700  0.042171     12.000000
  0.099667  0.115085  0.042171     12.000000
  0.074750  0.129471  0.042171      4.000000
  0.000000  0.000000  0.084343      1.000000
  0.024917  0.014386  0.084343      6.000000
  0.049833  0.028771  0.084343      6.000000
  0.074750  0.043157  0.084343      6.000000
  0.099667  0.057543  0.084343      6.000000
  0.024917  0.043157  0.084343      6.000000
  0.049833  0.057543  0.084343     12.000000
  0.074750  0.071928  0.084343     12.000000
  0.099667  0.086314  0.084343      6.000000
  0.049833  0.086314  0.084343      6.000000
  0.074750  0.100700  0.084343     12.000000
  0.074750  0.129471  0.084343      2.000000
 


--------------------------------------------------------------------------------------------------------




 Dimension of arrays:
   k-points           NKPTS =     43   k-points in BZ     NKDIM =     43   number of bands    NBANDS=     14
   number of dos      NEDOS =    301   number of ions     NIONS =      3
   non local maximal  LDIM  =      5   non local SUM 2l+1 LMDIM =     13
   total plane-waves  NPLWV =  28224
   max r-space proj   IRMAX =      1   max aug-charges    IRDMAX=  16277
   dimension x,y,z NGX =    28 NGY =   28 NGZ =   36
   dimension x,y,z NGXF=    56 NGYF=   56 NGZF=   72
   support grid    NGXF=    56 NGYF=   56 NGZF=   72
   ions per type =               3
   NGX,Y,Z   is equivalent  to a cutoff of  10.44, 10.44, 10.10 a.u.
   NGXF,Y,Z  is equivalent  to a cutoff of  20.88, 20.88, 20.19 a.u.

 SYSTEM =  unknown system                          
 POSCAR =  Tellurium                               

 Startparameter for this run:
   NWRITE =      2    write-flag & timer
   PREC   = n         normal or accurate (medium, high low for compatibility)
   ISTART =      0    job   : 0-new  1-cont  2-samecut
   ICHARG =      2    charge: 1-file 2-atom 10-const
   ISPIN  =      1    spin polarized calculation?
   LNONCOLLINEAR =      F non collinear calculations
   LSORBIT =      F    spin-orbit coupling
   INIWAV =      1    electr: 0-lowe 1-rand  2-diag
   LASPH  =      F    aspherical Exc in radial PAW
   METAGGA=      F    non-selfconsistent MetaGGA calc.

 Electronic Relaxation 1
   ENCUT  =  520.0 eV  38.22 Ry    6.18 a.u.   8.29  8.29 11.02*2*pi/ulx,y,z
   ENINI  =  520.0     initial cutoff
   ENAUG  =  368.8 eV  augmentation charge cutoff
   NELM   =     80;   NELMIN=  2; NELMDL= -5     # of ELM steps 
   EDIFF  = 0.1E-04   stopping-criterion for ELM
   LREAL  =      F    real-space projection
   NLSPLINE    = F    spline interpolate recip. space projectors
   LCOMPAT=      F    compatible to vasp.4.4
   GGA_COMPAT  = T    GGA compatible to vasp.4.4-vasp.4.6
   LMAXPAW     = -100 max onsite density
   LMAXMIX     =    2 max onsite mixed and CHGCAR
   VOSKOWN=      0    Vosko Wilk Nusair interpolation
   ROPT   =    0.00000
 Ionic relaxation
   EDIFFG = -.1E-01   stopping-criterion for IOM
   NSW    =    100    number of steps for IOM
   NBLOCK =      1;   KBLOCK =    100    inner block; outer block 
   IBRION =      2    ionic relax: 0-MD 1-quasi-New 2-CG
   NFREE  =      1    steps in history (QN), initial steepest desc. (CG)
   ISIF   =      3    stress and relaxation
   IWAVPR =     11    prediction:  0-non 1-charg 2-wave 3-comb
   ISYM   =      2    0-nonsym 1-usesym 2-fastsym
   LCORR  =      T    Harris-Foulkes like correction to forces

   POTIM  = 0.5000    time-step for ionic-motion
   TEIN   =    0.0    initial temperature
   TEBEG  =    0.0;   TEEND  =   0.0 temperature during run
   SMASS  =  -3.00    Nose mass-parameter (am)
   estimated Nose-frequenzy (Omega)   =  0.10E-29 period in steps =****** mass=  -0.454E-27a.u.
   SCALEE = 1.0000    scale energy and forces
   NPACO  =    256;   APACO  = 16.0  distance and # of slots for P.C.
   PSTRESS=    0.0 pullay stress

  Mass of Ions in am
   POMASS = 127.60
  Ionic Valenz
   ZVAL   =   6.00
  Atomic Wigner-Seitz radii
   RWIGS  =  -1.00
  virtual crystal weights 
   VCA    =   1.00
   NELECT =      18.0000    total number of electrons
   NUPDOWN=      -1.0000    fix difference up-down

 DOS related values:
   EMIN   =  10.00;   EMAX   =-10.00  energy-range for DOS
   EFERMI =   0.00
   ISMEAR =     0;   SIGMA  =   0.05  broadening in eV -4-tet -1-fermi 0-gaus

 Electronic relaxation 2 (details)
   IALGO  =     38    algorithm
   LDIAG  =      T    sub-space diagonalisation (order eigenvalues)
   LSUBROT=      F    optimize rotation matrix (better conditioning)
   TURBO    =      0    0=normal 1=particle mesh
   IRESTART =      0    0=no restart 2=restart with 2 vectors
   NREBOOT  =      0    no. of reboots
   NMIN     =      0    reboot dimension
   EREF     =   0.00    reference energy to select bands
   IMIX   =      4    mixing-type and parameters
     AMIX     =   0.40;   BMIX     =  1.00
     AMIX_MAG =   1.60;   BMIX_MAG =  1.00
     AMIN     =   0.10
     WC   =   100.;   INIMIX=   1;  MIXPRE=   1;  MAXMIX= -45

 Intra band minimization:
   WEIMIN = 0.0010     energy-eigenvalue tresh-hold
   EBREAK =  0.18E-06  absolut break condition
   DEPER  =   0.30     relativ break condition  

   TIME   =   0.40     timestep for ELM

  volume/ion in A,a.u.               =      34.03       229.65
  Fermi-wavevector in a.u.,A,eV,Ry     =   0.917987  1.734745 11.465641  0.842701
  Thomas-Fermi vector in A             =   2.043018
 
 Write flags
   LWAVE        =      T    write WAVECAR
   LDOWNSAMPLE  =      F    k-point downsampling of WAVECAR
   LCHARG       =      T    write CHGCAR
   LVTOT        =      F    write LOCPOT, total local potential
   LVHAR        =      F    write LOCPOT, Hartree potential only
   LELF         =      F    write electronic localiz. function (ELF)
   LORBIT       =      0    0 simple, 1 ext, 2 COOP (PROOUT), +10 PAW based schemes


 Dipole corrections
   LMONO  =      F    monopole corrections only (constant potential shift)
   LDIPOL =      F    correct potential (dipole corrections)
   IDIPOL =      0    1-x, 2-y, 3-z, 4-all directions 
   EPSILON=  1.0000000 bulk dielectric constant

 Exchange correlation treatment:
   GGA     =    --    GGA type
   LEXCH   =     8    internal setting for exchange type
   VOSKOWN=      0    Vosko Wilk Nusair interpolation
   LHFCALC =     F    Hartree Fock is set to
   LHFONE  =     F    Hartree Fock one center treatment
   AEXX    =    0.0000 exact exchange contribution

 Linear response parameters
   LEPSILON=     F    determine dielectric tensor
   LRPA    =     F    only Hartree local field effects (RPA)
   LNABLA  =     F    use nabla operator in PAW spheres
   LVEL    =     F    velocity operator in full k-point grid
   LINTERFAST=   F  fast interpolation
   KINTER  =     0    interpolate to denser k-point grid
   CSHIFT  =0.1000    complex shift for real part using Kramers Kronig
   OMEGAMAX=  -1.0    maximum frequency
   DEG_THRESHOLD= 0.2000000E-02 threshold for treating states as degnerate
   RTIME   =   -0.100 relaxation time in fs
  (WPLASMAI=    0.000 imaginary part of plasma frequency in eV, 0.658/RTIME)
   DFIELD  = 0.0000000 0.0000000 0.0000000 field for delta impulse in time
 
 Orbital magnetization related:
   ORBITALMAG=     F  switch on orbital magnetization
   LCHIMAG   =     F  perturbation theory with respect to B field
   DQ        =  0.001000  dq finite difference perturbation B field
   LLRAUG    =     F  two centre corrections for induced B field



--------------------------------------------------------------------------------------------------------


 conjugate gradient relaxation of ions
 charge density and potential will be updated during run
 non-spin polarized calculation
 Variant of blocked Davidson
 Davidson routine will perform the subspace rotation
 perform sub-space diagonalisation
    after iterative eigenvector-optimisation
 modified Broyden-mixing scheme, WC =      100.0
 initial mixing is a Kerker type mixing with AMIX =  0.4000 and BMIX =      1.0000
 Hartree-type preconditioning will be used
 using additional bands            5
 reciprocal scheme for non local part
 use partial core corrections
 calculate Harris-corrections to forces 
   (improved forces if not selfconsistent)
 use gradient corrections 
 use of overlap-Matrix (Vanderbilt PP)
 Gauss-broadening in eV      SIGMA  =   0.05


--------------------------------------------------------------------------------------------------------


  energy-cutoff  :      520.00
  volume of cell :      102.09
      direct lattice vectors                 reciprocal lattice vectors
     4.459300041  0.000000000  0.000000000     0.224250441  0.129471052  0.000000000
    -2.229650021  3.861867119  0.000000000     0.000000000  0.258942105  0.000000000
     0.000000000  0.000000000  5.928199768     0.000000000  0.000000000  0.168685274

  length of vectors
     4.459300041  4.459300041  5.928199768     0.258942105  0.258942105  0.168685274


 
 k-points in units of 2pi/SCALE and weight: K-Spacing Value to Generate K-Mesh: 0.04
   0.00000000  0.00000000  0.00000000       0.003
   0.02491672  0.01438567  0.00000000       0.019
   0.04983343  0.02877134  0.00000000       0.019
   0.07475015  0.04315702  0.00000000       0.019
   0.09966686  0.05754269  0.00000000       0.019
   0.02491672  0.04315702  0.00000000       0.019
   0.04983343  0.05754269  0.00000000       0.037
   0.07475015  0.07192836  0.00000000       0.037
   0.09966686  0.08631403  0.00000000       0.019
   0.04983343  0.08631403  0.00000000       0.019
   0.07475015  0.10069971  0.00000000       0.037
   0.07475015  0.12947105  0.00000000       0.006
   0.00000000  0.00000000  0.04217132       0.006
   0.02491672  0.01438567  0.04217132       0.019
   0.04983343  0.02877134  0.04217132       0.019
   0.07475015  0.04315702  0.04217132       0.019
   0.09966686  0.05754269  0.04217132       0.019
  -0.09966686 -0.05754269  0.04217132       0.019
  -0.07475015 -0.04315702  0.04217132       0.019
  -0.04983343 -0.02877134  0.04217132       0.019
  -0.02491672 -0.01438567  0.04217132       0.019
   0.02491672  0.04315702  0.04217132       0.037
   0.04983343  0.05754269  0.04217132       0.037
   0.07475015  0.07192836  0.04217132       0.037
   0.09966686  0.08631403  0.04217132       0.037
  -0.09966686 -0.02877134  0.04217132       0.037
  -0.07475015 -0.01438567  0.04217132       0.037
   0.04983343  0.08631403  0.04217132       0.037
   0.07475015  0.10069971  0.04217132       0.037
   0.09966686  0.11508538  0.04217132       0.037
   0.07475015  0.12947105  0.04217132       0.012
   0.00000000  0.00000000  0.08434264       0.003
   0.02491672  0.01438567  0.08434264       0.019
   0.04983343  0.02877134  0.08434264       0.019
   0.07475015  0.04315702  0.08434264       0.019
   0.09966686  0.05754269  0.08434264       0.019
   0.02491672  0.04315702  0.08434264       0.019
   0.04983343  0.05754269  0.08434264       0.037
   0.07475015  0.07192836  0.08434264       0.037
   0.09966686  0.08631403  0.08434264       0.019
   0.04983343  0.08631403  0.08434264       0.019
   0.07475015  0.10069971  0.08434264       0.037
   0.07475015  0.12947105  0.08434264       0.006
 
 k-points in reciprocal lattice and weights: K-Spacing Value to Generate K-Mesh: 0.04
   0.00000000  0.00000000  0.00000000       0.003
   0.11111111  0.00000000  0.00000000       0.019
   0.22222222  0.00000000  0.00000000       0.019
   0.33333333 -0.00000000  0.00000000       0.019
   0.44444444  0.00000000  0.00000000       0.019
   0.11111111  0.11111111  0.00000000       0.019
   0.22222222  0.11111111  0.00000000       0.037
   0.33333333  0.11111111  0.00000000       0.037
   0.44444444  0.11111111  0.00000000       0.019
   0.22222222  0.22222222  0.00000000       0.019
   0.33333333  0.22222222  0.00000000       0.037
   0.33333333  0.33333333  0.00000000       0.006
   0.00000000  0.00000000  0.25000000       0.006
   0.11111111  0.00000000  0.25000000       0.019
   0.22222222  0.00000000  0.25000000       0.019
   0.33333333 -0.00000000  0.25000000       0.019
   0.44444444  0.00000000  0.25000000       0.019
  -0.44444444 -0.00000000  0.25000000       0.019
  -0.33333333  0.00000000  0.25000000       0.019
  -0.22222222 -0.00000000  0.25000000       0.019
  -0.11111111 -0.00000000  0.25000000       0.019
   0.11111111  0.11111111  0.25000000       0.037
   0.22222222  0.11111111  0.25000000       0.037
   0.33333333  0.11111111  0.25000000       0.037
   0.44444444  0.11111111  0.25000000       0.037
  -0.44444444  0.11111111  0.25000000       0.037
  -0.33333333  0.11111111  0.25000000       0.037
   0.22222222  0.22222222  0.25000000       0.037
   0.33333333  0.22222222  0.25000000       0.037
   0.44444444  0.22222222  0.25000000       0.037
   0.33333333  0.33333333  0.25000000       0.012
   0.00000000  0.00000000  0.50000000       0.003
   0.11111111  0.00000000  0.50000000       0.019
   0.22222222  0.00000000  0.50000000       0.019
   0.33333333 -0.00000000  0.50000000       0.019
   0.44444444  0.00000000  0.50000000       0.019
   0.11111111  0.11111111  0.50000000       0.019
   0.22222222  0.11111111  0.50000000       0.037
   0.33333333  0.11111111  0.50000000       0.037
   0.44444444  0.11111111  0.50000000       0.019
   0.22222222  0.22222222  0.50000000       0.019
   0.33333333  0.22222222  0.50000000       0.037
   0.33333333  0.33333333  0.50000000       0.006
 
 position of ions in fractional coordinates (direct lattice) 
   0.26196900  0.00000000  0.33333334
   0.00000000  0.26196900  0.66666669
   0.73803103  0.73803103  0.00000000
 
 position of ions in cartesian coordinates  (Angst):
   1.16819837  0.00000000  1.97606665
  -0.58409919  1.01168947  3.95213330
   1.64555090  2.85017777  0.00000000
 


--------------------------------------------------------------------------------------------------------


 k-point  1 :   0.0000 0.0000 0.0000  plane waves:    2729
 k-point  2 :   0.1111 0.0000 0.0000  plane waves:    2751
 k-point  3 :   0.2222 0.0000 0.0000  plane waves:    2738
 k-point  4 :   0.3333-0.0000 0.0000  plane waves:    2748
 k-point  5 :   0.4444 0.0000 0.0000  plane waves:    2734
 k-point  6 :   0.1111 0.1111 0.0000  plane waves:    2745
 k-point  7 :   0.2222 0.1111 0.0000  plane waves:    2742
 k-point  8 :   0.3333 0.1111 0.0000  plane waves:    2750
 k-point  9 :   0.4444 0.1111 0.0000  plane waves:    2738
 k-point 10 :   0.2222 0.2222 0.0000  plane waves:    2744
 k-point 11 :   0.3333 0.2222 0.0000  plane waves:    2737
 k-point 12 :   0.3333 0.3333 0.0000  plane waves:    2742
 k-point 13 :   0.0000 0.0000 0.2500  plane waves:    2752
 k-point 14 :   0.1111 0.0000 0.2500  plane waves:    2750
 k-point 15 :   0.2222 0.0000 0.2500  plane waves:    2757
 k-point 16 :   0.3333-0.0000 0.2500  plane waves:    2743
 k-point 17 :   0.4444 0.0000 0.2500  plane waves:    2751
 k-point 18 :  -0.4444-0.0000 0.2500  plane waves:    2751
 k-point 19 :  -0.3333 0.0000 0.2500  plane waves:    2743
 k-point 20 :  -0.2222-0.0000 0.2500  plane waves:    2757
 k-point 21 :  -0.1111-0.0000 0.2500  plane waves:    2750
 k-point 22 :   0.1111 0.1111 0.2500  plane waves:    2754
 k-point 23 :   0.2222 0.1111 0.2500  plane waves:    2751
 k-point 24 :   0.3333 0.1111 0.2500  plane waves:    2747
 k-point 25 :   0.4444 0.1111 0.2500  plane waves:    2745
 k-point 26 :  -0.4444 0.1111 0.2500  plane waves:    2747
 k-point 27 :  -0.3333 0.1111 0.2500  plane waves:    2751
 k-point 28 :   0.2222 0.2222 0.2500  plane waves:    2759
 k-point 29 :   0.3333 0.2222 0.2500  plane waves:    2751
 k-point 30 :   0.4444 0.2222 0.2500  plane waves:    2751
 k-point 31 :   0.3333 0.3333 0.2500  plane waves:    2751
 k-point 32 :   0.0000 0.0000 0.5000  plane waves:    2722
 k-point 33 :   0.1111 0.0000 0.5000  plane waves:    2780
 k-point 34 :   0.2222 0.0000 0.5000  plane waves:    2758
 k-point 35 :   0.3333-0.0000 0.5000  plane waves:    2746
 k-point 36 :   0.4444 0.0000 0.5000  plane waves:    2762
 k-point 37 :   0.1111 0.1111 0.5000  plane waves:    2760
 k-point 38 :   0.2222 0.1111 0.5000  plane waves:    2740
 k-point 39 :   0.3333 0.1111 0.5000  plane waves:    2740
 k-point 40 :   0.4444 0.1111 0.5000  plane waves:    2752
 k-point 41 :   0.2222 0.2222 0.5000  plane waves:    2732
 k-point 42 :   0.3333 0.2222 0.5000  plane waves:    2756
 k-point 43 :   0.3333 0.3333 0.5000  plane waves:    2766

 maximum and minimum number of plane-waves per node :      1406     1352

 maximum number of plane-waves:      2780
 maximum index in each direction: 
   IXMAX=    8   IYMAX=    8   IZMAX=   11
   IXMIN=   -8   IYMIN=   -8   IZMIN=  -11


 parallel 3D FFT for wavefunctions:
    minimum data exchange during FFTs selected (reduces bandwidth)
 parallel 3D FFT for charge:
    minimum data exchange during FFTs selected (reduces bandwidth)


 total amount of memory used by VASP MPI-rank0    48763. kBytes
=======================================================================

   base      :      30000. kBytes
   nonl-proj :       6255. kBytes
   fftplans  :       2372. kBytes
   grid      :       3330. kBytes
   one-center:         16. kBytes
   wavefun   :       6790. kBytes
 
     INWAV:  cpu time    0.0000: real time    0.0000
 Broyden mixing: mesh for mixing (old mesh)
   NGX = 17   NGY = 17   NGZ = 23
  (NGX  = 56   NGY  = 56   NGZ  = 72)
  gives a total of   6647 points

 initial charge density was supplied:
 charge density of overlapping atoms calculated
 number of electron      18.0000000 magnetization 
 keeping initial charge density in first step


--------------------------------------------------------------------------------------------------------


 Maximum index for augmentation-charges         3920 (set IRDMAX)


--------------------------------------------------------------------------------------------------------


 First call to EWALD:  gamma=   0.379
 Maximum number of real-space cells 3x 3x 2
 Maximum number of reciprocal cells 3x 3x 3

    FEWALD:  cpu time    0.0010: real time    0.0010


--------------------------------------- Iteration      1(   1)  ---------------------------------------


    POTLOK:  cpu time    0.0567: real time    0.0582
    SETDIJ:  cpu time    0.0058: real time    0.0058
     EDDAV:  cpu time    0.3863: real time    0.3875
       DOS:  cpu time    0.0005: real time    0.0005
    --------------------------------------------
      LOOP:  cpu time    0.4493: real time    0.4521

 eigenvalue-minimisations  :  1204
 total energy-change (2. order) : 0.7678275E+02  (-0.6593620E+03)
 number of electron      18.0000000 magnetization 
 augmentation part       18.0000000 magnetization 

 Free energy of the ion-electron system (eV)
  ---------------------------------------------------
  alpha Z        PSCENC =         2.28965292
  Ewald energy   TEWEN  =      -672.62417676
  -Hartree energ DENC   =       -44.61341497
  -exchange      EXHF   =         0.00000000
  -V(xc)+E(xc)   XCENC  =       -84.05205210
  PAW double counting   =       623.23253030     -507.77874573
  entropy T*S    EENTRO =        -0.00146824
  eigenvalues    EBANDS =        90.51612027
  atomic energy  EATOM  =       669.81430600
  Solvation  Ediel_sol  =         0.00000000
  ---------------------------------------------------
  free energy    TOTEN  =        76.78275170 eV

  energy without entropy =       76.78421994  energy(sigma->0) =       76.78348582


--------------------------------------------------------------------------------------------------------




--------------------------------------- Iteration      1(   2)  ---------------------------------------


     EDDAV:  cpu time    0.3782: real time    0.3803
       DOS:  cpu time    0.0004: real time    0.0004
    --------------------------------------------
      LOOP:  cpu time    0.3787: real time    0.3808

 eigenvalue-minimisations  :  1576
 total energy-change (2. order) :-0.8094131E+02  (-0.7758047E+02)
 number of electron      18.0000000 magnetization 
 augmentation part       18.0000000 magnetization 

 Free energy of the ion-electron system (eV)
  ---------------------------------------------------
  alpha Z        PSCENC =         2.28965292
  Ewald energy   TEWEN  =      -672.62417676
  -Hartree energ DENC   =       -44.61341497
  -exchange      EXHF   =         0.00000000
  -V(xc)+E(xc)   XCENC  =       -84.05205210
  PAW double counting   =       623.23253030     -507.77874573
  entropy T*S    EENTRO =        -0.00000003
  eigenvalues    EBANDS =         9.57334428
  atomic energy  EATOM  =       669.81430600
  Solvation  Ediel_sol  =         0.00000000
  ---------------------------------------------------
  free energy    TOTEN  =        -4.15855608 eV

  energy without entropy =       -4.15855605  energy(sigma->0) =       -4.15855607


--------------------------------------------------------------------------------------------------------




--------------------------------------- Iteration      1(   3)  ---------------------------------------


     EDDAV:  cpu time    0.3608: real time    0.3621
       DOS:  cpu time    0.0006: real time    0.0005
    --------------------------------------------
      LOOP:  cpu time    0.3614: real time    0.3626

 eigenvalue-minimisations  :  1468
 total energy-change (2. order) :-0.5165277E+01  (-0.5124966E+01)
 number of electron      18.0000000 magnetization 
 augmentation part       18.0000000 magnetization 

 Free energy of the ion-electron system (eV)
  ---------------------------------------------------
  alpha Z        PSCENC =         2.28965292
  Ewald energy   TEWEN  =      -672.62417676
  -Hartree energ DENC   =       -44.61341497
  -exchange      EXHF   =         0.00000000
  -V(xc)+E(xc)   XCENC  =       -84.05205210
  PAW double counting   =       623.23253030     -507.77874573
  entropy T*S    EENTRO =        -0.00000099
  eigenvalues    EBANDS =         4.40806775
  atomic energy  EATOM  =       669.81430600
  Solvation  Ediel_sol  =         0.00000000
  ---------------------------------------------------
  free energy    TOTEN  =        -9.32383358 eV

  energy without entropy =       -9.32383258  energy(sigma->0) =       -9.32383308


--------------------------------------------------------------------------------------------------------




--------------------------------------- Iteration      1(   4)  ---------------------------------------


     EDDAV:  cpu time    0.3768: real time    0.3781
       DOS:  cpu time    0.0005: real time    0.0005
    --------------------------------------------
      LOOP:  cpu time    0.3773: real time    0.3785

 eigenvalue-minimisations  :  1574
 total energy-change (2. order) :-0.9271013E-01  (-0.9266610E-01)
 number of electron      18.0000000 magnetization 
 augmentation part       18.0000000 magnetization 

 Free energy of the ion-electron system (eV)
  ---------------------------------------------------
  alpha Z        PSCENC =         2.28965292
  Ewald energy   TEWEN  =      -672.62417676
  -Hartree energ DENC   =       -44.61341497
  -exchange      EXHF   =         0.00000000
  -V(xc)+E(xc)   XCENC  =       -84.05205210
  PAW double counting   =       623.23253030     -507.77874573
  entropy T*S    EENTRO =        -0.00000111
  eigenvalues    EBANDS =         4.31535774
  atomic energy  EATOM  =       669.81430600
  Solvation  Ediel_sol  =         0.00000000
  ---------------------------------------------------
  free energy    TOTEN  =        -9.41654371 eV

  energy without entropy =       -9.41654259  energy(sigma->0) =       -9.41654315


--------------------------------------------------------------------------------------------------------




--------------------------------------- Iteration      1(   5)  ---------------------------------------


     EDDAV:  cpu time    0.3755: real time    0.3768
       DOS:  cpu time    0.0006: real time    0.0005
    CHARGE:  cpu time    0.0262: real time    0.0264
    MIXING:  cpu time    0.0006: real time    0.0006
    --------------------------------------------
      LOOP:  cpu time    0.4029: real time    0.4042

 eigenvalue-minimisations  :  1560
 total energy-change (2. order) :-0.1669984E-02  (-0.1669979E-02)
 number of electron      17.9999998 magnetization 
 augmentation part       -3.6013406 magnetization 

 Broyden mixing:
  rms(total) = 0.12417E+01    rms(broyden)= 0.12417E+01
  rms(prec ) = 0.12606E+01
  weight for this iteration     100.00

 Free energy of the ion-electron system (eV)
  ---------------------------------------------------
  alpha Z        PSCENC =         2.28965292
  Ewald energy   TEWEN  =      -672.62417676
  -Hartree energ DENC   =       -44.61341497
  -exchange      EXHF   =         0.00000000
  -V(xc)+E(xc)   XCENC  =       -84.05205210
  PAW double counting   =       623.23253030     -507.77874573
  entropy T*S    EENTRO =        -0.00000111
  eigenvalues    EBANDS =         4.31368775
  atomic energy  EATOM  =       669.81430600
  Solvation  Ediel_sol  =         0.00000000
  ---------------------------------------------------
  free energy    TOTEN  =        -9.41821369 eV

  energy without entropy =       -9.41821258  energy(sigma->0) =       -9.41821313


--------------------------------------------------------------------------------------------------------




--------------------------------------- Iteration      1(   6)  ---------------------------------------


    POTLOK:  cpu time    0.0171: real time    0.0172
    SETDIJ:  cpu time    0.0023: real time    0.0023
     EDDAV:  cpu time    0.3336: real time    0.3346
       DOS:  cpu time    0.0005: real time    0.0005
    CHARGE:  cpu time    0.0247: real time    0.0248
    MIXING:  cpu time    0.0007: real time    0.0006
    --------------------------------------------
      LOOP:  cpu time    0.3788: real time    0.3800

 eigenvalue-minimisations  :  1330
 total energy-change (2. order) : 0.2243227E-01  (-0.2186366E-02)
 number of electron      17.9999998 magnetization 
 augmentation part       -3.6056647 magnetization 

 Broyden mixing:
  rms(total) = 0.78842E+00    rms(broyden)= 0.78842E+00
  rms(prec ) = 0.79860E+00
  weight for this iteration     100.00

 eigenvalues of (default mixing * dielectric matrix)
  average eigenvalue GAMMA=   2.7341
  2.7341

 Free energy of the ion-electron system (eV)
  ---------------------------------------------------
  alpha Z        PSCENC =         2.28965292
  Ewald energy   TEWEN  =      -672.62417676
  -Hartree energ DENC   =       -44.59627643
  -exchange      EXHF   =         0.00000000
  -V(xc)+E(xc)   XCENC  =       -84.00354778
  PAW double counting   =       928.42511663     -813.02322098
  entropy T*S    EENTRO =        -0.00001193
  eigenvalues    EBANDS =         4.32237692
  atomic energy  EATOM  =       669.81430600
  Solvation  Ediel_sol  =         0.00000000
  ---------------------------------------------------
  free energy    TOTEN  =        -9.39578142 eV

  energy without entropy =       -9.39576949  energy(sigma->0) =       -9.39577545


--------------------------------------------------------------------------------------------------------




--------------------------------------- Iteration      1(   7)  ---------------------------------------


    POTLOK:  cpu time    0.0177: real time    0.0178
    SETDIJ:  cpu time    0.0023: real time    0.0023
     EDDAV:  cpu time    0.3362: real time    0.3373
       DOS:  cpu time    0.0005: real time    0.0005
    CHARGE:  cpu time    0.0247: real time    0.0248
    MIXING:  cpu time    0.0008: real time    0.0007
    --------------------------------------------
      LOOP:  cpu time    0.3821: real time    0.3834

 eigenvalue-minimisations  :  1348
 total energy-change (2. order) : 0.4048175E-02  (-0.4628726E-02)
 number of electron      17.9999998 magnetization 
 augmentation part       -3.6100798 magnetization 

 Broyden mixing:
  rms(total) = 0.33675E-01    rms(broyden)= 0.33675E-01
  rms(prec ) = 0.43844E-01
  weight for this iteration     100.00

 eigenvalues of (default mixing * dielectric matrix)
  average eigenvalue GAMMA=   2.0784
  1.7074  2.4494

 Free energy of the ion-electron system (eV)
  ---------------------------------------------------
  alpha Z        PSCENC =         2.28965292
  Ewald energy   TEWEN  =      -672.62417676
  -Hartree energ DENC   =       -44.79247322
  -exchange      EXHF   =         0.00000000
  -V(xc)+E(xc)   XCENC  =       -83.90105858
  PAW double counting   =      1637.42968207    -1522.10893753
  entropy T*S    EENTRO =        -0.00009429
  eigenvalues    EBANDS =         4.50136615
  atomic energy  EATOM  =       669.81430600
  Solvation  Ediel_sol  =         0.00000000
  ---------------------------------------------------
  free energy    TOTEN  =        -9.39173324 eV

  energy without entropy =       -9.39163895  energy(sigma->0) =       -9.39168609


--------------------------------------------------------------------------------------------------------




--------------------------------------- Iteration      1(   8)  ---------------------------------------


    POTLOK:  cpu time    0.0182: real time    0.0185
    SETDIJ:  cpu time    0.0023: real time    0.0023
     EDDAV:  cpu time    0.3202: real time    0.3213
       DOS:  cpu time    0.0006: real time    0.0005
    CHARGE:  cpu time    0.0250: real time    0.0252
    MIXING:  cpu time    0.0007: real time    0.0007
    --------------------------------------------
      LOOP:  cpu time    0.3670: real time    0.3684

 eigenvalue-minimisations  :  1240
 total energy-change (2. order) : 0.8719305E-03  (-0.8798909E-03)
 number of electron      17.9999998 magnetization 
 augmentation part       -3.6084959 magnetization 

 Broyden mixing:
  rms(total) = 0.18314E-01    rms(broyden)= 0.18314E-01
  rms(prec ) = 0.18917E-01
  weight for this iteration     100.00

 eigenvalues of (default mixing * dielectric matrix)
  average eigenvalue GAMMA=   1.4870
  2.4759  1.5414  0.4438

 Free energy of the ion-electron system (eV)
  ---------------------------------------------------
  alpha Z        PSCENC =         2.28965292
  Ewald energy   TEWEN  =      -672.62417676
  -Hartree energ DENC   =       -44.85308067
  -exchange      EXHF   =         0.00000000
  -V(xc)+E(xc)   XCENC  =       -83.90772213
  PAW double counting   =      1583.08047636    -1467.75119898
  entropy T*S    EENTRO =        -0.00004746
  eigenvalues    EBANDS =         4.56092942
  atomic energy  EATOM  =       669.81430600
  Solvation  Ediel_sol  =         0.00000000
  ---------------------------------------------------
  free energy    TOTEN  =        -9.39086131 eV

  energy without entropy =       -9.39081385  energy(sigma->0) =       -9.39083758


--------------------------------------------------------------------------------------------------------




--------------------------------------- Iteration      1(   9)  ---------------------------------------


    POTLOK:  cpu time    0.0172: real time    0.0172
    SETDIJ:  cpu time    0.0023: real time    0.0023
     EDDAV:  cpu time    0.3865: real time    0.3877
       DOS:  cpu time    0.0005: real time    0.0005
    CHARGE:  cpu time    0.0249: real time    0.0249
    MIXING:  cpu time    0.0007: real time    0.0007
    --------------------------------------------
      LOOP:  cpu time    0.4321: real time    0.4335

 eigenvalue-minimisations  :  1616
 total energy-change (2. order) :-0.3827179E-04  (-0.2538986E-04)
 number of electron      17.9999998 magnetization 
 augmentation part       -3.6086144 magnetization 

 Broyden mixing:
  rms(total) = 0.13184E-01    rms(broyden)= 0.13184E-01
  rms(prec ) = 0.13710E-01
  weight for this iteration     100.00

 eigenvalues of (default mixing * dielectric matrix)
  average eigenvalue GAMMA=   1.8748
  2.4801  1.4442  1.7875  1.7875

 Free energy of the ion-electron system (eV)
  ---------------------------------------------------
  alpha Z        PSCENC =         2.28965292
  Ewald energy   TEWEN  =      -672.62417676
  -Hartree energ DENC   =       -44.85117342
  -exchange      EXHF   =         0.00000000
  -V(xc)+E(xc)   XCENC  =       -83.90724784
  PAW double counting   =      1580.29333949    -1464.96409698
  entropy T*S    EENTRO =        -0.00004861
  eigenvalues    EBANDS =         4.55854562
  atomic energy  EATOM  =       669.81430600
  Solvation  Ediel_sol  =         0.00000000
  ---------------------------------------------------
  free energy    TOTEN  =        -9.39089958 eV

  energy without entropy =       -9.39085097  energy(sigma->0) =       -9.39087528


--------------------------------------------------------------------------------------------------------




--------------------------------------- Iteration      1(  10)  ---------------------------------------


    POTLOK:  cpu time    0.0167: real time    0.0168
    SETDIJ:  cpu time    0.0022: real time    0.0023
     EDDAV:  cpu time    0.3274: real time    0.3285
       DOS:  cpu time    0.0006: real time    0.0005
    CHARGE:  cpu time    0.0248: real time    0.0249
    MIXING:  cpu time    0.0008: real time    0.0007
    --------------------------------------------
      LOOP:  cpu time    0.3724: real time    0.3737

 eigenvalue-minimisations  :  1300
 total energy-change (2. order) :-0.5175327E-04  (-0.6159236E-05)
 number of electron      17.9999998 magnetization 
 augmentation part       -3.6088221 magnetization 

 Broyden mixing:
  rms(total) = 0.24099E-02    rms(broyden)= 0.24099E-02
  rms(prec ) = 0.34901E-02
  weight for this iteration     100.00

 eigenvalues of (default mixing * dielectric matrix)
  average eigenvalue GAMMA=   1.7482
  2.5654  2.5654  1.4251  1.3118  0.8733

 Free energy of the ion-electron system (eV)
  ---------------------------------------------------
  alpha Z        PSCENC =         2.28965292
  Ewald energy   TEWEN  =      -672.62417676
  -Hartree energ DENC   =       -44.85851353
  -exchange      EXHF   =         0.00000000
  -V(xc)+E(xc)   XCENC  =       -83.90461735
  PAW double counting   =      1575.66158189    -1460.33249254
  entropy T*S    EENTRO =        -0.00005073
  eigenvalues    EBANDS =         4.56335877
  atomic energy  EATOM  =       669.81430600
  Solvation  Ediel_sol  =         0.00000000
  ---------------------------------------------------
  free energy    TOTEN  =        -9.39095133 eV

  energy without entropy =       -9.39090061  energy(sigma->0) =       -9.39092597


--------------------------------------------------------------------------------------------------------




--------------------------------------- Iteration      1(  11)  ---------------------------------------


    POTLOK:  cpu time    0.0166: real time    0.0167
    SETDIJ:  cpu time    0.0022: real time    0.0022
     EDDAV:  cpu time    0.3017: real time    0.3027
       DOS:  cpu time    0.0006: real time    0.0006
    --------------------------------------------
      LOOP:  cpu time    0.3212: real time    0.3222

 eigenvalue-minimisations  :  1126
 total energy-change (2. order) : 0.8119904E-05  (-0.2553561E-05)
 number of electron      17.9999998 magnetization 
 augmentation part       -3.6088221 magnetization 

 Free energy of the ion-electron system (eV)
  ---------------------------------------------------
  alpha Z        PSCENC =         2.28965292
  Ewald energy   TEWEN  =      -672.62417676
  -Hartree energ DENC   =       -44.86820317
  -exchange      EXHF   =         0.00000000
  -V(xc)+E(xc)   XCENC  =       -83.90417861
  PAW double counting   =      1573.57828702    -1458.24888428
  entropy T*S    EENTRO =        -0.00004790
  eigenvalues    EBANDS =         4.57230156
  atomic energy  EATOM  =       669.81430600
  Solvation  Ediel_sol  =         0.00000000
  ---------------------------------------------------
  free energy    TOTEN  =        -9.39094321 eV

  energy without entropy =       -9.39089531  energy(sigma->0) =       -9.39091926


--------------------------------------------------------------------------------------------------------




 average (electrostatic) potential at core
  the test charge radii are     1.1897
  (the norm of the test charge is              1.0000)
       1 -89.0486       2 -89.0486       3 -89.0486
 
 
 
 E-fermi :   5.9805     XC(G=0):  -9.0463     alpha+bet :-10.5335


 k-point     1 :       0.0000    0.0000    0.0000
  band No.  band energies     occupation 
      1      -7.7598      2.00000
      2      -4.4175      2.00000
      3      -4.4175      2.00000
      4       2.8124      2.00000
      5       3.0984      2.00000
      6       3.0984      2.00000
      7       4.2559      2.00000
      8       4.2559      2.00000
      9       5.1843      2.00000
     10       6.9401      0.00000
     11       6.9401      0.00000
     12       7.5823      0.00000
     13      10.8391      0.00000
     14      10.8391      0.00000

 k-point     2 :       0.1111    0.0000    0.0000
  band No.  band energies     occupation 
      1      -7.6795      2.00000
      2      -4.4417      2.00000
      3      -4.3932      2.00000
      4       2.2024      2.00000
      5       2.6987      2.00000
      6       2.9643      2.00000
      7       4.4807      2.00000
      8       4.7882      2.00000
      9       5.2687      2.00000
     10       6.7221      0.00000
     11       6.8959      0.00000
     12       7.4967      0.00000
     13      10.6462      0.00000
     14      10.8089      0.00000

 k-point     3 :       0.2222    0.0000    0.0000
  band No.  band energies     occupation 
      1      -7.4510      2.00000
      2      -4.5491      2.00000
      3      -4.3272      2.00000
      4       1.4319      2.00000
      5       2.1416      2.00000
      6       2.6310      2.00000
      7       4.5459      2.00000
      8       4.8635      2.00000
      9       5.0814      2.00000
     10       6.8395      0.00000
     11       7.0274      0.00000
     12       7.6963      0.00000
     13       9.9590      0.00000
     14      11.0438      0.00000

 k-point     4 :       0.3333   -0.0000    0.0000
  band No.  band energies     occupation 
      1      -7.1232      2.00000
      2      -4.7835      2.00000
      3      -4.2449      2.00000
      4       1.0454      2.00000
      5       1.7015      2.00000
      6       2.3495      2.00000
      7       3.5492      2.00000
      8       4.8487      2.00000
      9       5.0748      2.00000
     10       6.8563      0.00000
     11       7.0331      0.00000
     12       8.7380      0.00000
     13       9.3388      0.00000
     14      11.8198      0.00000

 k-point     5 :       0.4444    0.0000    0.0000
  band No.  band energies     occupation 
      1      -6.8326      2.00000
      2      -5.0425      2.00000
      3      -4.1868      2.00000
      4       0.9968      2.00000
      5       1.4927      2.00000
      6       2.2888      2.00000
      7       2.6848      2.00000
      8       4.7793      2.00000
      9       5.0538      2.00000
     10       6.8562      0.00000
     11       6.9770      0.00000
     12       9.0038      0.00000
     13       9.5584      0.00000
     14      12.9093      0.00000

 k-point     6 :       0.1111    0.1111    0.0000
  band No.  band energies     occupation 
      1      -7.5247      2.00000
      2      -4.4936      2.00000
      3      -4.3630      2.00000
      4       1.6812      2.00000
      5       2.0449      2.00000
      6       3.0074      2.00000
      7       4.3466      2.00000
      8       5.0439      2.00000
      9       5.1051      2.00000
     10       6.7741      0.00000
     11       7.0669      0.00000
     12       7.5683      0.00000
     13      10.4170      0.00000
     14      10.5406      0.00000

 k-point     7 :       0.2222    0.1111    0.0000
  band No.  band energies     occupation 
      1      -7.2434      2.00000
      2      -4.6417      2.00000
      3      -4.3230      2.00000
      4       1.2077      2.00000
      5       1.6080      2.00000
      6       2.7376      2.00000
      7       4.0599      2.00000
      8       4.4249      2.00000
      9       4.8060      2.00000
     10       7.2012      0.00000
     11       7.4748      0.00000
     12       8.1018      0.00000
     13       9.8860      0.00000
     14      10.8125      0.00000

 k-point     8 :       0.3333    0.1111    0.0000
  band No.  band energies     occupation 
      1      -6.9183      2.00000
      2      -4.8923      2.00000
      3      -4.2826      2.00000
      4       1.0483      2.00000
      5       1.4460      2.00000
      6       2.4229      2.00000
      7       3.1241      2.00000
      8       4.3573      2.00000
      9       4.5770      2.00000
     10       7.2905      0.00000
     11       7.5707      0.00000
     12       9.1131      0.00000
     13       9.4862      0.00000
     14      11.7172      0.00000

 k-point     9 :       0.4444    0.1111    0.0000
  band No.  band energies     occupation 
      1      -6.7506      2.00000
      2      -5.0426      2.00000
      3      -4.2652      2.00000
      4       1.0636      2.00000
      5       1.4363      2.00000
      6       2.4552      2.00000
      7       2.5100      2.00000
      8       4.3471      2.00000
      9       4.4905      2.00000
     10       7.2859      0.00000
     11       7.5954      0.00000
     12       9.3405      0.00000
     13       9.5853      0.00000
     14      12.6511      0.00000

 k-point    10 :       0.2222    0.2222    0.0000
  band No.  band energies     occupation 
      1      -6.9541      2.00000
      2      -4.7571      2.00000
      3      -4.4008      2.00000
      4       1.1670      2.00000
      5       1.2921      2.00000
      6       2.7082      2.00000
      7       3.5711      2.00000
      8       3.9196      2.00000
      9       3.9833      2.00000
     10       7.8986      0.00000
     11       8.2269      0.00000
     12       8.4573      0.00000
     13      10.2245      0.00000
     14      10.6642      0.00000

 k-point    11 :       0.3333    0.2222    0.0000
  band No.  band energies     occupation 
      1      -6.7110      2.00000
      2      -4.8879      2.00000
      3      -4.4769      2.00000
      4       1.2036      2.00000
      5       1.3495      2.00000
      6       2.5808      2.00000
      7       2.8989      2.00000
      8       3.6104      2.00000
      9       3.7150      2.00000
     10       8.1256      0.00000
     11       8.4951      0.00000
     12       9.1901      0.00000
     13      10.2004      0.00000
     14      11.5039      0.00000

 k-point    12 :       0.3333    0.3333    0.0000
  band No.  band energies     occupation 
      1      -6.6205      2.00000
      2      -4.7291      2.00000
      3      -4.7291      2.00000
      4       1.3424      2.00000
      5       1.3424      2.00000
      6       2.8584      2.00000
      7       2.8585      2.00000
      8       3.0452      2.00000
      9       3.3022      2.00000
     10       8.7842      0.00000
     11       8.7842      0.00000
     12       9.1507      0.00000
     13      10.7317      0.00000
     14      11.8236      0.00000

 k-point    13 :       0.0000    0.0000    0.2500
  band No.  band energies     occupation 
      1      -7.5323      2.00000
      2      -5.7901      2.00000
      3      -2.9964      2.00000
      4       2.3527      2.00000
      5       2.9474      2.00000
      6       3.3961      2.00000
      7       4.4215      2.00000
      8       4.4277      2.00000
      9       5.1095      2.00000
     10       6.6509      0.00000
     11       6.6671      0.00000
     12       7.0895      0.00000
     13      10.3232      0.00000
     14      11.4036      0.00000

 k-point    14 :       0.1111    0.0000    0.2500
  band No.  band energies     occupation 
      1      -7.4552      2.00000
      2      -5.7404      2.00000
      3      -3.0977      2.00000
      4       2.0873      2.00000
      5       2.7724      2.00000
      6       3.2490      2.00000
      7       4.1860      2.00000
      8       4.5301      2.00000
      9       4.7801      2.00000
     10       6.9063      0.00000
     11       7.0337      0.00000
     12       7.4216      0.00000
     13      10.4092      0.00000
     14      11.3641      0.00000

 k-point    15 :       0.2222    0.0000    0.2500
  band No.  band energies     occupation 
      1      -7.2395      2.00000
      2      -5.5995      2.00000
      3      -3.4147      2.00000
      4       1.7217      2.00000
      5       2.3632      2.00000
      6       2.9926      2.00000
      7       3.5248      2.00000
      8       4.1446      2.00000
      9       4.7010      2.00000
     10       7.2141      0.00000
     11       7.7913      0.00000
     12       8.2342      0.00000
     13      10.6798      0.00000
     14      11.0999      0.00000

 k-point    16 :       0.3333   -0.0000    0.2500
  band No.  band energies     occupation 
      1      -6.9369      2.00000
      2      -5.4276      2.00000
      3      -3.8458      2.00000
      4       1.3987      2.00000
      5       1.8054      2.00000
      6       2.6739      2.00000
      7       3.0978      2.00000
      8       4.1233      2.00000
      9       4.5934      2.00000
     10       7.2601      0.00000
     11       7.9645      0.00000
     12       9.0631      0.00000
     13      10.3051      0.00000
     14      11.5405      0.00000

 k-point    17 :       0.4444    0.0000    0.2500
  band No.  band energies     occupation 
      1      -6.6675      2.00000
      2      -5.3854      2.00000
      3      -4.0871      2.00000
      4       0.8806      2.00000
      5       1.4829      2.00000
      6       2.3921      2.00000
      7       3.4988      2.00000
      8       4.1423      2.00000
      9       4.5061      2.00000
     10       7.1601      0.00000
     11       7.9331      0.00000
     12       8.9221      0.00000
     13       9.9002      0.00000
     14      11.9247      0.00000

 k-point    18 :      -0.4444   -0.0000    0.2500
  band No.  band energies     occupation 
      1      -6.6442      2.00000
      2      -5.4900      2.00000
      3      -3.9396      2.00000
      4       0.5823      2.00000
      5       1.3904      2.00000
      6       2.3551      2.00000
      7       4.1324      2.00000
      8       4.2512      2.00000
      9       4.6320      2.00000
     10       7.0465      0.00000
     11       7.7522      0.00000
     12       8.2071      0.00000
     13       9.6182      0.00000
     14      12.4159      0.00000

 k-point    19 :      -0.3333    0.0000    0.2500
  band No.  band energies     occupation 
      1      -6.9110      2.00000
      2      -5.5583      2.00000
      3      -3.6140      2.00000
      4       0.7815      2.00000
      5       1.4883      2.00000
      6       2.5057      2.00000
      7       4.4141      2.00000
      8       4.4705      2.00000
      9       5.3422      2.00000
     10       6.7688      0.00000
     11       7.3942      0.00000
     12       7.5923      0.00000
     13       9.5021      0.00000
     14      12.4334      0.00000

 k-point    20 :      -0.2222   -0.0000    0.2500
  band No.  band energies     occupation 
      1      -7.2303      2.00000
      2      -5.6482      2.00000
      3      -3.2984      2.00000
      4       1.4588      2.00000
      5       1.7884      2.00000
      6       2.7974      2.00000
      7       4.6025      2.00000
      8       4.7666      2.00000
      9       5.4392      2.00000
     10       6.5810      0.00000
     11       7.0649      0.00000
     12       7.3331      0.00000
     13       9.6671      0.00000
     14      11.9376      0.00000

 k-point    21 :      -0.1111   -0.0000    0.2500
  band No.  band energies     occupation 
      1      -7.4540      2.00000
      2      -5.7467      2.00000
      3      -3.0790      2.00000
      4       2.1095      2.00000
      5       2.4808      2.00000
      6       3.1593      2.00000
      7       4.6310      2.00000
      8       4.6774      2.00000
      9       5.0210      2.00000
     10       6.6398      0.00000
     11       6.6645      0.00000
     12       7.4184      0.00000
     13      10.1281      0.00000
     14      11.4105      0.00000

 k-point    22 :       0.1111    0.1111    0.2500
  band No.  band energies     occupation 
      1      -7.3056      2.00000
      2      -5.6601      2.00000
      3      -3.2695      2.00000
      4       1.7622      2.00000
      5       2.1115      2.00000
      6       3.0159      2.00000
      7       4.0221      2.00000
      8       4.6206      2.00000
      9       5.0496      2.00000
     10       6.8397      0.00000
     11       7.4020      0.00000
     12       7.6259      0.00000
     13      10.1586      0.00000
     14      11.3910      0.00000

 k-point    23 :       0.2222    0.1111    0.2500
  band No.  band energies     occupation 
      1      -7.0422      2.00000
      2      -5.5047      2.00000
      3      -3.6510      2.00000
      4       1.4132      2.00000
      5       1.8229      2.00000
      6       2.8347      2.00000
      7       3.1395      2.00000
      8       4.2356      2.00000
      9       5.1624      2.00000
     10       6.9997      0.00000
     11       7.7520      0.00000
     12       8.6749      0.00000
     13      10.4909      0.00000
     14      10.9872      0.00000

 k-point    24 :       0.3333    0.1111    0.2500
  band No.  band energies     occupation 
      1      -6.7440      2.00000
      2      -5.3780      2.00000
      3      -4.0285      2.00000
      4       1.1189      2.00000
      5       1.3929      2.00000
      6       2.4998      2.00000
      7       3.1624      2.00000
      8       3.9214      2.00000
      9       5.1699      2.00000
     10       6.9450      0.00000
     11       8.0676      0.00000
     12       9.0613      0.00000
     13      10.1710      0.00000
     14      11.6334      0.00000

 k-point    25 :       0.4444    0.1111    0.2500
  band No.  band energies     occupation 
      1      -6.5791      2.00000
      2      -5.4170      2.00000
      3      -4.0926      2.00000
      4       0.7160      2.00000
      5       1.2660      2.00000
      6       2.3905      2.00000
      7       3.3827      2.00000
      8       4.0656      2.00000
      9       5.1667      2.00000
     10       6.8801      0.00000
     11       8.1195      0.00000
     12       8.5755      0.00000
     13       9.9570      0.00000
     14      12.2816      0.00000

 k-point    26 :      -0.4444    0.1111    0.2500
  band No.  band energies     occupation 
      1      -6.7200      2.00000
      2      -5.4926      2.00000
      3      -3.8566      2.00000
      4       0.6478      2.00000
      5       1.3935      2.00000
      6       2.4316      2.00000
      7       3.4373      2.00000
      8       4.7518      2.00000
      9       5.2500      2.00000
     10       6.7732      0.00000
     11       7.6754      0.00000
     12       8.1563      0.00000
     13       9.8511      0.00000
     14      12.2157      0.00000

 k-point    27 :      -0.3333    0.1111    0.2500
  band No.  band energies     occupation 
      1      -7.0316      2.00000
      2      -5.5599      2.00000
      3      -3.5421      2.00000
      4       1.0850      2.00000
      5       1.6452      2.00000
      6       2.6595      2.00000
      7       3.6429      2.00000
      8       4.9253      2.00000
      9       5.5768      2.00000
     10       6.5410      0.00000
     11       7.2934      0.00000
     12       7.9796      0.00000
     13       9.8663      0.00000
     14      11.6077      0.00000

 k-point    28 :       0.2222    0.2222    0.2500
  band No.  band energies     occupation 
      1      -6.7636      2.00000
      2      -5.4331      2.00000
      3      -3.9113      2.00000
      4       0.8845      2.00000
      5       1.4864      2.00000
      6       2.4321      2.00000
      7       2.9885      2.00000
      8       4.5522      2.00000
      9       5.4372      2.00000
     10       6.8642      0.00000
     11       7.6984      0.00000
     12       8.7710      0.00000
     13      10.4683      0.00000
     14      11.0367      0.00000

 k-point    29 :       0.3333    0.2222    0.2500
  band No.  band energies     occupation 
      1      -6.5407      2.00000
      2      -5.3649      2.00000
      3      -4.1713      2.00000
      4       0.8461      2.00000
      5       1.1475      2.00000
      6       2.0966      2.00000
      7       3.1875      2.00000
      8       4.2006      2.00000
      9       5.2426      2.00000
     10       7.1161      0.00000
     11       8.2189      0.00000
     12       8.7953      0.00000
     13      10.4988      0.00000
     14      11.5847      0.00000

 k-point    30 :       0.4444    0.2222    0.2500
  band No.  band energies     occupation 
      1      -6.5339      2.00000
      2      -5.3958      2.00000
      3      -4.1318      2.00000
      4       0.7104      2.00000
      5       1.2121      2.00000
      6       2.1121      2.00000
      7       3.1494      2.00000
      8       4.4695      2.00000
      9       5.1260      2.00000
     10       7.2242      0.00000
     11       8.0221      0.00000
     12       8.6448      0.00000
     13      10.4499      0.00000
     14      11.7904      0.00000

 k-point    31 :       0.3333    0.3333    0.2500
  band No.  band energies     occupation 
      1      -6.4514      2.00000
      2      -5.3537      2.00000
      3      -4.2467      2.00000
      4       0.7895      2.00000
      5       1.1184      2.00000
      6       1.7838      2.00000
      7       3.3287      2.00000
      8       4.3957      2.00000
      9       4.8651      2.00000
     10       7.6673      0.00000
     11       8.3481      0.00000
     12       8.4247      0.00000
     13      11.2053      0.00000
     14      11.5014      0.00000

 k-point    32 :       0.0000    0.0000    0.5000
  band No.  band energies     occupation 
      1      -6.8617      2.00000
      2      -6.8617      2.00000
      3      -2.2529      2.00000
      4       1.8322      2.00000
      5       3.2415      2.00000
      6       3.2415      2.00000
      7       4.5633      2.00000
      8       4.8425      2.00000
      9       4.8425      2.00000
     10       6.4589      0.00000
     11       6.5303      0.00000
     12       6.5303      0.00000
     13       9.9295      0.00000
     14      11.2293      0.00000

 k-point    33 :       0.1111    0.0000    0.5000
  band No.  band energies     occupation 
      1      -6.8015      2.00000
      2      -6.7854      2.00000
      3      -2.4302      2.00000
      4       1.7851      2.00000
      5       3.0449      2.00000
      6       3.1358      2.00000
      7       4.1410      2.00000
      8       4.4708      2.00000
      9       4.7234      2.00000
     10       6.6982      0.00000
     11       6.9063      0.00000
     12       7.3010      0.00000
     13      10.1584      0.00000
     14      10.9113      0.00000

 k-point    34 :       0.2222    0.0000    0.5000
  band No.  band energies     occupation 
      1      -6.6395      2.00000
      2      -6.5675      2.00000
      3      -2.8875      2.00000
      4       1.4737      2.00000
      5       2.4642      2.00000
      6       2.8346      2.00000
      7       3.9482      2.00000
      8       4.0896      2.00000
      9       4.5901      2.00000
     10       7.1013      0.00000
     11       7.6199      0.00000
     12       8.0779      0.00000
     13      10.4167      0.00000
     14      11.0514      0.00000

 k-point    35 :       0.3333   -0.0000    0.5000
  band No.  band energies     occupation 
      1      -6.4350      2.00000
      2      -6.2528      2.00000
      3      -3.4515      2.00000
      4       0.7948      2.00000
      5       2.1915      2.00000
      6       2.5156      2.00000
      7       3.7103      2.00000
      8       3.9709      2.00000
      9       4.9036      2.00000
     10       7.3030      0.00000
     11       7.9429      0.00000
     12       8.2031      0.00000
     13      10.4480      0.00000
     14      11.3889      0.00000

 k-point    36 :       0.4444    0.0000    0.5000
  band No.  band energies     occupation 
      1      -6.2866      2.00000
      2      -5.9714      2.00000
      3      -3.8850      2.00000
      4       0.3056      2.00000
      5       2.1528      2.00000
      6       2.2882      2.00000
      7       3.5499      2.00000
      8       3.8852      2.00000
      9       5.5219      2.00000
     10       6.8561      0.00000
     11       7.8321      0.00000
     12       8.4528      0.00000
     13      10.4679      0.00000
     14      11.2862      0.00000

 k-point    37 :       0.1111    0.1111    0.5000
  band No.  band energies     occupation 
      1      -6.6868      2.00000
      2      -6.6414      2.00000
      3      -2.7446      2.00000
      4       1.6249      2.00000
      5       2.6820      2.00000
      6       2.7513      2.00000
      7       3.9161      2.00000
      8       4.1168      2.00000
      9       4.9392      2.00000
     10       6.6413      0.00000
     11       7.6925      0.00000
     12       7.8946      0.00000
     13      10.5755      0.00000
     14      10.6546      0.00000

 k-point    38 :       0.2222    0.1111    0.5000
  band No.  band energies     occupation 
      1      -6.4929      2.00000
      2      -6.3814      2.00000
      3      -3.2443      2.00000
      4       1.1524      2.00000
      5       2.0916      2.00000
      6       2.2916      2.00000
      7       3.9161      2.00000
      8       4.2754      2.00000
      9       4.9685      2.00000
     10       6.9383      0.00000
     11       8.0012      0.00000
     12       8.1849      0.00000
     13      10.4803      0.00000
     14      11.2638      0.00000

 k-point    39 :       0.3333    0.1111    0.5000
  band No.  band energies     occupation 
      1      -6.3022      2.00000
      2      -6.0796      2.00000
      3      -3.7390      2.00000
      4       0.5551      2.00000
      5       1.8170      2.00000
      6       1.9651      2.00000
      7       4.0025      2.00000
      8       4.3425      2.00000
      9       5.2805      2.00000
     10       7.0677      0.00000
     11       7.7097      0.00000
     12       8.2497      0.00000
     13      10.5140      0.00000
     14      11.4952      0.00000

 k-point    40 :       0.4444    0.1111    0.5000
  band No.  band energies     occupation 
      1      -6.2205      2.00000
      2      -5.9236      2.00000
      3      -3.9673      2.00000
      4       0.3051      2.00000
      5       1.7767      2.00000
      6       1.8122      2.00000
      7       4.1305      2.00000
      8       4.1960      2.00000
      9       5.7378      2.00000
     10       6.6766      0.00000
     11       7.6902      0.00000
     12       8.2697      0.00000
     13      10.5815      0.00000
     14      11.3233      0.00000

 k-point    41 :       0.2222    0.2222    0.5000
  band No.  band energies     occupation 
      1      -6.2878      2.00000
      2      -6.1466      2.00000
      3      -3.6635      2.00000
      4       0.8389      2.00000
      5       1.4348      2.00000
      6       1.7248      2.00000
      7       4.2977      2.00000
      8       4.7050      2.00000
      9       5.3736      2.00000
     10       6.7964      0.00000
     11       7.8859      0.00000
     12       7.9604      0.00000
     13      10.7208      0.00000
     14      11.5824      0.00000

 k-point    42 :       0.3333    0.2222    0.5000
  band No.  band energies     occupation 
      1      -6.1287      2.00000
      2      -5.9630      2.00000
      3      -3.9659      2.00000
      4       0.5471      2.00000
      5       1.1808      2.00000
      6       1.3382      2.00000
      7       4.6021      2.00000
      8       5.0775      2.00000
      9       5.7060      2.00000
     10       6.6433      0.00000
     11       7.4619      0.00000
     12       7.7770      0.00000
     13      11.0594      0.00000
     14      11.8025      0.00000

 k-point    43 :       0.3333    0.3333    0.5000
  band No.  band energies     occupation 
      1      -5.9863      2.00000
      2      -5.9863      2.00000
      3      -4.0477      2.00000
      4       0.7004      2.00000
      5       0.9369      2.00000
      6       0.9369      2.00000
      7       4.8356      2.00000
      8       5.8994      1.97815
      9       5.8994      1.97815
     10       6.0518      0.04369
     11       7.3850      0.00000
     12       7.3850      0.00000
     13      11.7507      0.00000
     14      12.4161      0.00000


--------------------------------------------------------------------------------------------------------


 soft charge-density along one line, spin component           1
         0         1         2         3         4         5         6         7         8         9
 total charge-density along one line
 
 pseudopotential strength for first ion, spin component:           1
 51.667  56.215  -0.000  -0.000  -0.057  -0.000  -0.000  -0.083
 56.215  61.167  -0.000  -0.000  -0.063  -0.000  -0.000  -0.091
 -0.000  -0.000  12.719   0.010   0.000  18.334   0.015   0.000
 -0.000  -0.000   0.010  12.737   0.000   0.015  18.360   0.000
 -0.057  -0.063   0.000   0.000  12.736   0.000   0.000  18.358
 -0.000  -0.000  18.334   0.015   0.000  26.437   0.021   0.000
 -0.000  -0.000   0.015  18.360   0.000   0.021  26.474   0.000
 -0.083  -0.091   0.000   0.000  18.358   0.000   0.000  26.472
  0.000   0.000  -0.011   0.000  -0.000  -0.017   0.000  -0.000
  0.016   0.017   0.000  -0.000   0.000   0.000  -0.000   0.000
  0.008   0.009   0.000  -0.000   0.007   0.000  -0.000   0.010
  0.000   0.000   0.000  -0.011  -0.000   0.000  -0.016  -0.000
  0.013   0.014   0.000  -0.000  -0.011   0.000  -0.000  -0.016
 total augmentation occupancy for first ion, spin component:           1
 13.483  -9.953   0.000  -0.000   2.496   0.000  -0.000  -0.688   0.000  -0.184  -0.115   0.000  -0.128
 -9.953   8.632   0.000  -0.000  -2.108   0.000  -0.000   0.594   0.000   0.167   0.104   0.000   0.115
  0.000   0.000   2.605   0.286   0.000  -0.510  -0.230   0.000  -0.064   0.000  -0.000  -0.056   0.000
 -0.000   0.000   0.286   3.071   0.000  -0.230  -0.892   0.000  -0.054   0.000   0.000  -0.144  -0.000
  2.496  -2.108   0.000   0.000   2.913   0.000   0.000  -0.798   0.000  -0.062  -0.020   0.000  -0.063
  0.000   0.000  -0.510  -0.230   0.000   0.185   0.091  -0.000   0.016   0.000   0.000   0.021   0.000
 -0.000  -0.000  -0.230  -0.892  -0.000   0.091   0.330   0.000   0.022   0.000   0.000   0.046   0.000
 -0.688   0.594   0.000   0.000  -0.798   0.000   0.000   0.284   0.000   0.019   0.005   0.000   0.017
  0.000   0.000  -0.064  -0.054   0.000   0.016   0.022   0.000   0.009   0.000   0.000   0.011   0.000
 -0.184   0.167   0.000   0.000  -0.062   0.000   0.000   0.019   0.000   0.015   0.005   0.000   0.003
 -0.115   0.104   0.000   0.000  -0.020   0.000   0.000   0.005   0.000   0.005   0.009   0.000  -0.001
  0.000   0.000  -0.056  -0.144   0.000   0.021   0.046   0.000   0.011   0.000   0.000   0.028   0.000
 -0.128   0.115   0.000   0.000  -0.063   0.000   0.000   0.017   0.000   0.003  -0.001   0.000   0.010


------------------------ aborting loop because EDIFF is reached ----------------------------------------


    CHARGE:  cpu time    0.0247: real time    0.0248
    FORLOC:  cpu time    0.0009: real time    0.0009
    FORNL :  cpu time    0.0948: real time    0.0950
    STRESS:  cpu time    0.2069: real time    0.2075
    FORCOR:  cpu time    0.0175: real time    0.0176
    FORHAR:  cpu time    0.0038: real time    0.0038
    MIXING:  cpu time    0.0008: real time    0.0008
    OFIELD:  cpu time    0.0000: real time    0.0000

  DFT-D2 method for vdW energy calculation
  -------------------------------------------------------------------

  Parameters of vdW forcefield:
         C6(Jnm^6/mol)     R0(A)
   -----------------------------
   Te      31.740          1.892

  IVDW =  10
  VDW_RADIUS =    50.000 A
  VDW_S6 =     0.750
  VDW_SR =     1.000
  VDW_D =    20.000
  LVDW_EWALD = F

  Number of pair interactions contributing to vdW energy:   30876
  Edisp (eV):   -0.92997
    FORVDW:  cpu time    0.0039: real time    0.0044

  FORCE on cell =-STRESS in cart. coord.  units (eV):
  Direction    XX          YY          ZZ          XY          YZ          ZX
  --------------------------------------------------------------------------------------
  Alpha Z     2.28965     2.28965     2.28965
  Ewald    -239.40015  -239.40015  -193.82453    -0.00000    -0.00001     0.00000
  Hartree    11.13509    11.13509    22.60612     0.00000     0.00000    -0.00000
  E(xc)     -70.58426   -70.58426   -70.09872    -0.00000     0.00000    -0.00000
  Local    -111.09594  -111.09598  -157.77533    -0.00004     0.00000    -0.00000
  n-local   333.12939   333.92495   329.33834    -1.25925    -0.73310    -1.24840
  augment   -81.13401   -81.13396   -78.67547     0.00004    -0.00000     0.00000
  Kinetic   153.21087   159.76972   147.78797    -7.45683     0.20489     1.50226
  Fock        0.00000     0.00000     0.00000     0.00000     0.00000     0.00000
  vdW        -1.03853    -1.03853    -0.88960     0.00000    -0.00000     0.00000
  -------------------------------------------------------------------------------------
  Total       0.18931     0.18931     0.75844     0.00000     0.00000    -0.00000
  in kB       2.97099     2.97099    11.90261     0.00000     0.00000    -0.00000
  external pressure =        5.95 kB  Pullay stress =        0.00 kB


 VOLUME and BASIS-vectors are now :
 -----------------------------------------------------------------------------
  energy-cutoff  :      520.00
  volume of cell :      102.09
      direct lattice vectors                 reciprocal lattice vectors
     4.459300041  0.000000000  0.000000000     0.224250441  0.129471052  0.000000000
    -2.229650021  3.861867119  0.000000000     0.000000000  0.258942105  0.000000000
     0.000000000  0.000000000  5.928199768     0.000000000  0.000000000  0.168685274

  length of vectors
     4.459300041  4.459300041  5.928199768     0.258942105  0.258942105  0.168685274


 FORCES acting on ions
    electron-ion (+dipol)            ewald-force                    non-local-force                 convergence-correction
 -----------------------------------------------------------------------------------------------
   -.137E+02 0.119E-04 -.129E-05   0.194E+02 0.150E-05 0.187E-05   -.531E+01 -.555E-16 0.555E-16   0.583E-02 -.261E-07 -.160E-07
   0.686E+01 -.119E+02 -.179E-04   -.969E+01 0.168E+02 -.875E-05   0.265E+01 -.460E+01 -.555E-16   -.291E-02 0.505E-02 0.414E-06
   0.686E+01 0.119E+02 0.188E-04   -.969E+01 -.168E+02 0.687E-05   0.265E+01 0.460E+01 0.000E+00   -.291E-02 -.505E-02 -.398E-06
 -----------------------------------------------------------------------------------------------
   0.251E-04 -.742E-05 -.345E-06   0.000E+00 -.355E-14 0.000E+00   0.000E+00 0.000E+00 0.000E+00   -.128E-07 0.223E-08 0.412E-10
 
 
 POSITION                                       TOTAL-FORCE (eV/Angst)
 -----------------------------------------------------------------------------------
      1.16820      0.00000      1.97607         0.244594      0.000000      0.000000
     -0.58410      1.01169      3.95213        -0.122297      0.211825     -0.000000
      1.64555      2.85018      0.00000        -0.122297     -0.211825     -0.000000
 -----------------------------------------------------------------------------------
    total drift:                                0.000025     -0.000007     -0.000000


--------------------------------------------------------------------------------------------------------



  FREE ENERGIE OF THE ION-ELECTRON SYSTEM (eV)
  ---------------------------------------------------
  free  energy   TOTEN  =       -10.32091478 eV

  energy  without entropy=      -10.32086688  energy(sigma->0) =      -10.32089083
 


--------------------------------------------------------------------------------------------------------


    POTLOK:  cpu time    0.0193: real time    0.0194


--------------------------------------------------------------------------------------------------------




--------------------------------------------------------------------------------------------------------


    WAVPRE:  cpu time    0.1420: real time    0.1734
    FEWALD:  cpu time    0.0002: real time    0.0001
    GENKIN:  cpu time    0.0058: real time    0.0059
    ORTHCH:  cpu time    0.0181: real time    0.0182
     LOOP+:  cpu time    4.7715: real time    4.8223


--------------------------------------- Iteration      2(   1)  ---------------------------------------


    POTLOK:  cpu time    0.0509: real time    0.0530
    SETDIJ:  cpu time    0.0054: real time    0.0054
     EDDAV:  cpu time    0.3852: real time    0.3864
       DOS:  cpu time    0.0006: real time    0.0006
    CHARGE:  cpu time    0.0250: real time    0.0251
    MIXING:  cpu time    0.0006: real time    0.0005
    --------------------------------------------
      LOOP:  cpu time    0.4677: real time    0.4710

 eigenvalue-minimisations  :  1222
 total energy-change (2. order) :-0.3527693E-01  (-0.5671007E-01)
 number of electron      17.9999990 magnetization 
 augmentation part       -3.6175571 magnetization 

 Broyden mixing:
  rms(total) = 0.10387E+00    rms(broyden)= 0.10387E+00
  rms(prec ) = 0.12462E+00
  weight for this iteration     100.00

 Free energy of the ion-electron system (eV)
  ---------------------------------------------------
  alpha Z        PSCENC =         2.24835393
  Ewald energy   TEWEN  =      -669.48408452
  -Hartree energ DENC   =       -44.08560646
  -exchange      EXHF   =         0.00000000
  -V(xc)+E(xc)   XCENC  =       -84.00111406
  PAW double counting   =      1574.57147525    -1459.24211895
  entropy T*S    EENTRO =        -0.00010316
  eigenvalues    EBANDS =         0.75266371
  atomic energy  EATOM  =       669.81430600
  Solvation  Ediel_sol  =         0.00000000
  ---------------------------------------------------
  free energy    TOTEN  =        -9.42622826 eV

  energy without entropy =       -9.42612510  energy(sigma->0) =       -9.42617668


--------------------------------------------------------------------------------------------------------




--------------------------------------- Iteration      2(   2)  ---------------------------------------


    POTLOK:  cpu time    0.0169: real time    0.0170
    SETDIJ:  cpu time    0.0022: real time    0.0023
     EDDAV:  cpu time    0.3404: real time    0.3415
       DOS:  cpu time    0.0006: real time    0.0006
    CHARGE:  cpu time    0.0249: real time    0.0250
    MIXING:  cpu time    0.0006: real time    0.0006
    --------------------------------------------
      LOOP:  cpu time    0.3857: real time    0.3870

 eigenvalue-minimisations  :  1318
 total energy-change (2. order) : 0.4393404E-02  (-0.2660354E-02)
 number of electron      17.9999990 magnetization 
 augmentation part       -3.6222436 magnetization 

 Broyden mixing:
  rms(total) = 0.43506E-01    rms(broyden)= 0.43505E-01
  rms(prec ) = 0.60727E-01
  weight for this iteration     100.00

 eigenvalues of (default mixing * dielectric matrix)
  average eigenvalue GAMMA=   0.8684
  0.8684

 Free energy of the ion-electron system (eV)
  ---------------------------------------------------
  alpha Z        PSCENC =         2.24835393
  Ewald energy   TEWEN  =      -669.48408452
  -Hartree energ DENC   =       -44.56051397
  -exchange      EXHF   =         0.00000000
  -V(xc)+E(xc)   XCENC  =       -84.01805469
  PAW double counting   =      1533.09718149    -1417.76548244
  entropy T*S    EENTRO =        -0.00010894
  eigenvalues    EBANDS =         1.24656827
  atomic energy  EATOM  =       669.81430600
  Solvation  Ediel_sol  =         0.00000000
  ---------------------------------------------------
  free energy    TOTEN  =        -9.42183486 eV

  energy without entropy =       -9.42172591  energy(sigma->0) =       -9.42178039


--------------------------------------------------------------------------------------------------------




--------------------------------------- Iteration      2(   3)  ---------------------------------------


    POTLOK:  cpu time    0.0174: real time    0.0175
    SETDIJ:  cpu time    0.0022: real time    0.0022
     EDDAV:  cpu time    0.3602: real time    0.3615
       DOS:  cpu time    0.0006: real time    0.0006
    CHARGE:  cpu time    0.0251: real time    0.0252
    MIXING:  cpu time    0.0007: real time    0.0007
    --------------------------------------------
      LOOP:  cpu time    0.4062: real time    0.4077

 eigenvalue-minimisations  :  1438
 total energy-change (2. order) : 0.2580645E-02  (-0.2083930E-03)
 number of electron      17.9999990 magnetization 
 augmentation part       -3.6164086 magnetization 

 Broyden mixing:
  rms(total) = 0.18187E-01    rms(broyden)= 0.18187E-01
  rms(prec ) = 0.30119E-01
  weight for this iteration     100.00

 eigenvalues of (default mixing * dielectric matrix)
  average eigenvalue GAMMA=   1.3619
  0.8798  1.8441

 Free energy of the ion-electron system (eV)
  ---------------------------------------------------
  alpha Z        PSCENC =         2.24835393
  Ewald energy   TEWEN  =      -669.48408452
  -Hartree energ DENC   =       -44.83000363
  -exchange      EXHF   =         0.00000000
  -V(xc)+E(xc)   XCENC  =       -84.03438438
  PAW double counting   =      1525.17238114    -1409.83589542
  entropy T*S    EENTRO =        -0.00011730
  eigenvalues    EBANDS =         1.53018997
  atomic energy  EATOM  =       669.81430600
  Solvation  Ediel_sol  =         0.00000000
  ---------------------------------------------------
  free energy    TOTEN  =        -9.41925421 eV

  energy without entropy =       -9.41913691  energy(sigma->0) =       -9.41919556


--------------------------------------------------------------------------------------------------------




--------------------------------------- Iteration      2(   4)  ---------------------------------------


    POTLOK:  cpu time    0.0175: real time    0.0176
    SETDIJ:  cpu time    0.0024: real time    0.0024
     EDDAV:  cpu time    0.3158: real time    0.3168
       DOS:  cpu time    0.0006: real time    0.0006
    CHARGE:  cpu time    0.0248: real time    0.0249
    MIXING:  cpu time    0.0007: real time    0.0007
    --------------------------------------------
      LOOP:  cpu time    0.3619: real time    0.3630

 eigenvalue-minimisations  :  1222
 total energy-change (2. order) : 0.1273061E-02  (-0.2359411E-03)
 number of electron      17.9999990 magnetization 
 augmentation part       -3.6090192 magnetization 

 Broyden mixing:
  rms(total) = 0.22619E-01    rms(broyden)= 0.22619E-01
  rms(prec ) = 0.22756E-01
  weight for this iteration     100.00

 eigenvalues of (default mixing * dielectric matrix)
  average eigenvalue GAMMA=   1.6641
  1.1747  1.9087  1.9087

 Free energy of the ion-electron system (eV)
  ---------------------------------------------------
  alpha Z        PSCENC =         2.24835393
  Ewald energy   TEWEN  =      -669.48408452
  -Hartree energ DENC   =       -45.14645425
  -exchange      EXHF   =         0.00000000
  -V(xc)+E(xc)   XCENC  =       -84.05571378
  PAW double counting   =      1515.34044015    -1399.99244595
  entropy T*S    EENTRO =        -0.00012731
  eigenvalues    EBANDS =         1.85774458
  atomic energy  EATOM  =       669.81430600
  Solvation  Ediel_sol  =         0.00000000
  ---------------------------------------------------
  free energy    TOTEN  =        -9.41798115 eV

  energy without entropy =       -9.41785384  energy(sigma->0) =       -9.41791749


--------------------------------------------------------------------------------------------------------




--------------------------------------- Iteration      2(   5)  ---------------------------------------


    POTLOK:  cpu time    0.0168: real time    0.0169
    SETDIJ:  cpu time    0.0023: real time    0.0023
     EDDAV:  cpu time    0.3873: real time    0.3886
       DOS:  cpu time    0.0006: real time    0.0006
    CHARGE:  cpu time    0.0247: real time    0.0248
    MIXING:  cpu time    0.0007: real time    0.0007
    --------------------------------------------
      LOOP:  cpu time    0.4324: real time    0.4338

 eigenvalue-minimisations  :  1610
 total energy-change (2. order) : 0.9888097E-05  (-0.1012069E-04)
 number of electron      17.9999990 magnetization 
 augmentation part       -3.6078195 magnetization 

 Broyden mixing:
  rms(total) = 0.98349E-02    rms(broyden)= 0.98349E-02
  rms(prec ) = 0.98439E-02
  weight for this iteration     100.00

 eigenvalues of (default mixing * dielectric matrix)
  average eigenvalue GAMMA=   1.7132
  0.8803  1.1811  2.1477  2.6436

 Free energy of the ion-electron system (eV)
  ---------------------------------------------------
  alpha Z        PSCENC =         2.24835393
  Ewald energy   TEWEN  =      -669.48408452
  -Hartree energ DENC   =       -45.17049138
  -exchange      EXHF   =         0.00000000
  -V(xc)+E(xc)   XCENC  =       -84.05963147
  PAW double counting   =      1510.15630937    -1394.79880992
  entropy T*S    EENTRO =        -0.00012710
  eigenvalues    EBANDS =         1.87620382
  atomic energy  EATOM  =       669.81430600
  Solvation  Ediel_sol  =         0.00000000
  ---------------------------------------------------
  free energy    TOTEN  =        -9.41797126 eV

  energy without entropy =       -9.41784416  energy(sigma->0) =       -9.41790771


--------------------------------------------------------------------------------------------------------




--------------------------------------- Iteration      2(   6)  ---------------------------------------


    POTLOK:  cpu time    0.0167: real time    0.0168
    SETDIJ:  cpu time    0.0022: real time    0.0022
     EDDAV:  cpu time    0.2194: real time    0.2201
       DOS:  cpu time    0.0006: real time    0.0006
    --------------------------------------------
      LOOP:  cpu time    0.2389: real time    0.2397

 eigenvalue-minimisations  :   644
 total energy-change (2. order) :-0.2513690E-05  (-0.1989642E-06)
 number of electron      17.9999990 magnetization 
 augmentation part       -3.6078195 magnetization 

 Free energy of the ion-electron system (eV)
  ---------------------------------------------------
  alpha Z        PSCENC =         2.24835393
  Ewald energy   TEWEN  =      -669.48408452
  -Hartree energ DENC   =       -45.17067269
  -exchange      EXHF   =         0.00000000
  -V(xc)+E(xc)   XCENC  =       -84.05964310
  PAW double counting   =      1507.67752264    -1392.31760872
  entropy T*S    EENTRO =        -0.00012694
  eigenvalues    EBANDS =         1.87397962
  atomic energy  EATOM  =       669.81430600
  Solvation  Ediel_sol  =         0.00000000
  ---------------------------------------------------
  free energy    TOTEN  =        -9.41797378 eV

  energy without entropy =       -9.41784684  energy(sigma->0) =       -9.41791031


--------------------------------------------------------------------------------------------------------




 average (electrostatic) potential at core
  the test charge radii are     1.1897
  (the norm of the test charge is              1.0000)
       1 -89.2543       2 -89.2543       3 -89.2543
 
 
 
 E-fermi :   5.7185     XC(G=0):  -8.9754     alpha+bet :-10.3435


 k-point     1 :       0.0000    0.0000    0.0000
  band No.  band energies     occupation 
      1      -7.8102      2.00000
      2      -4.6010      2.00000
      3      -4.6010      2.00000
      4       2.7127      2.00000
      5       2.9462      2.00000
      6       2.9462      2.00000
      7       4.0944      2.00000
      8       4.0944      2.00000
      9       4.9612      2.00000
     10       6.6681      0.00000
     11       6.6681      0.00000
     12       7.3400      0.00000
     13      10.6547      0.00000
     14      10.6547      0.00000

 k-point     2 :       0.1111    0.0000    0.0000
  band No.  band energies     occupation 
      1      -7.7303      2.00000
      2      -4.6241      2.00000
      3      -4.5783      2.00000
      4       2.0910      2.00000
      5       2.5517      2.00000
      6       2.8295      2.00000
      7       4.3164      2.00000
      8       4.6189      2.00000
      9       5.0689      2.00000
     10       6.4351      0.00000
     11       6.6207      0.00000
     12       7.2399      0.00000
     13      10.4542      0.00000
     14      10.6312      0.00000

 k-point     3 :       0.2222    0.0000    0.0000
  band No.  band energies     occupation 
      1      -7.5026      2.00000
      2      -4.7279      2.00000
      3      -4.5163      2.00000
      4       1.3273      2.00000
      5       2.0002      2.00000
      6       2.5015      2.00000
      7       4.3773      2.00000
      8       4.6914      2.00000
      9       4.8922      2.00000
     10       6.5587      0.00000
     11       6.7421      0.00000
     12       7.3954      0.00000
     13       9.7633      0.00000
     14      10.8848      0.00000

 k-point     4 :       0.3333   -0.0000    0.0000
  band No.  band energies     occupation 
      1      -7.1744      2.00000
      2      -4.9572      2.00000
      3      -4.4388      2.00000
      4       0.9467      2.00000
      5       1.5663      2.00000
      6       2.2183      2.00000
      7       3.3723      2.00000
      8       4.6949      2.00000
      9       4.8880      2.00000
     10       6.5637      0.00000
     11       6.7458      0.00000
     12       8.3936      0.00000
     13       9.1439      0.00000
     14      11.6658      0.00000

 k-point     5 :       0.4444    0.0000    0.0000
  band No.  band energies     occupation 
      1      -6.8796      2.00000
      2      -5.2151      2.00000
      3      -4.3840      2.00000
      4       0.9019      2.00000
      5       1.3687      2.00000
      6       2.1424      2.00000
      7       2.5131      2.00000
      8       4.6346      2.00000
      9       4.8683      2.00000
     10       6.5654      0.00000
     11       6.6794      0.00000
     12       8.8094      0.00000
     13       9.1794      0.00000
     14      12.7355      0.00000

 k-point     6 :       0.1111    0.1111    0.0000
  band No.  band energies     occupation 
      1      -7.5762      2.00000
      2      -4.6737      2.00000
      3      -4.5508      2.00000
      4       1.5757      2.00000
      5       1.9107      2.00000
      6       2.8677      2.00000
      7       4.1679      2.00000
      8       4.8740      2.00000
      9       4.9301      2.00000
     10       6.4729      0.00000
     11       6.7756      0.00000
     12       7.2999      0.00000
     13      10.2461      0.00000
     14      10.3447      0.00000

 k-point     7 :       0.2222    0.1111    0.0000
  band No.  band energies     occupation 
      1      -7.2951      2.00000
      2      -4.8177      2.00000
      3      -4.5144      2.00000
      4       1.1059      2.00000
      5       1.4845      2.00000
      6       2.5947      2.00000
      7       3.8870      2.00000
      8       4.2351      2.00000
      9       4.6300      2.00000
     10       6.9033      0.00000
     11       7.2039      0.00000
     12       7.7852      0.00000
     13       9.6935      0.00000
     14      10.6399      0.00000

 k-point     8 :       0.3333    0.1111    0.0000
  band No.  band energies     occupation 
      1      -6.9675      2.00000
      2      -5.0655      2.00000
      3      -4.4767      2.00000
      4       0.9516      2.00000
      5       1.3275      2.00000
      6       2.2741      2.00000
      7       2.9494      2.00000
      8       4.1779      2.00000
      9       4.3936      2.00000
     10       7.0162      0.00000
     11       7.2807      0.00000
     12       8.7608      0.00000
     13       9.2813      0.00000
     14      11.5499      0.00000

 k-point     9 :       0.4444    0.1111    0.0000
  band No.  band energies     occupation 
      1      -6.7959      2.00000
      2      -5.2171      2.00000
      3      -4.4603      2.00000
      4       0.9697      2.00000
      5       1.3250      2.00000
      6       2.3009      2.00000
      7       2.3323      2.00000
      8       4.1788      2.00000
      9       4.2974      2.00000
     10       7.0233      0.00000
     11       7.2959      0.00000
     12       9.1341      0.00000
     13       9.2098      0.00000
     14      12.4868      0.00000

 k-point    10 :       0.2222    0.2222    0.0000
  band No.  band energies     occupation 
      1      -7.0042      2.00000
      2      -4.9312      2.00000
      3      -4.5925      2.00000
      4       1.0677      2.00000
      5       1.1823      2.00000
      6       2.5538      2.00000
      7       3.4065      2.00000
      8       3.7221      2.00000
      9       3.7932      2.00000
     10       7.6330      0.00000
     11       7.9156      0.00000
     12       8.1346      0.00000
     13      10.0513      0.00000
     14      10.4505      0.00000

 k-point    11 :       0.3333    0.2222    0.0000
  band No.  band energies     occupation 
      1      -6.7565      2.00000
      2      -5.0649      2.00000
      3      -4.6666      2.00000
      4       1.1107      2.00000
      5       1.2495      2.00000
      6       2.4119      2.00000
      7       2.7256      2.00000
      8       3.4232      2.00000
      9       3.5213      2.00000
     10       7.8588      0.00000
     11       8.1791      0.00000
     12       8.8457      0.00000
     13       9.9999      0.00000
     14      11.3178      0.00000

 k-point    12 :       0.3333    0.3333    0.0000
  band No.  band energies     occupation 
      1      -6.6637      2.00000
      2      -4.9124      2.00000
      3      -4.9124      2.00000
      4       1.2529      2.00000
      5       1.2529      2.00000
      6       2.6859      2.00000
      7       2.6859      2.00000
      8       2.8480      2.00000
      9       3.1050      2.00000
     10       8.4782      0.00000
     11       8.4782      0.00000
     12       8.8056      0.00000
     13      10.5965      0.00000
     14      11.6023      0.00000

 k-point    13 :       0.0000    0.0000    0.2500
  band No.  band energies     occupation 
      1      -7.5910      2.00000
      2      -5.9153      2.00000
      3      -3.2538      2.00000
      4       2.2067      2.00000
      5       2.8379      2.00000
      6       3.2488      2.00000
      7       4.2582      2.00000
      8       4.2804      2.00000
      9       4.9098      2.00000
     10       6.3903      0.00000
     11       6.4174      0.00000
     12       6.8483      0.00000
     13      10.1148      0.00000
     14      11.2333      0.00000

 k-point    14 :       0.1111    0.0000    0.2500
  band No.  band energies     occupation 
      1      -7.5145      2.00000
      2      -5.8663      2.00000
      3      -3.3506      2.00000
      4       1.9597      2.00000
      5       2.6620      2.00000
      6       3.1035      2.00000
      7       4.0044      2.00000
      8       4.3796      2.00000
      9       4.5705      2.00000
     10       6.6543      0.00000
     11       6.7600      0.00000
     12       7.1832      0.00000
     13      10.2132      0.00000
     14      11.1871      0.00000

 k-point    15 :       0.2222    0.0000    0.2500
  band No.  band energies     occupation 
      1      -7.3002      2.00000
      2      -5.7268      2.00000
      3      -3.6546      2.00000
      4       1.6160      2.00000
      5       2.2544      2.00000
      6       2.8429      2.00000
      7       3.3561      2.00000
      8       3.9515      2.00000
      9       4.4813      2.00000
     10       6.9579      0.00000
     11       7.5354      0.00000
     12       7.9419      0.00000
     13      10.4905      0.00000
     14      10.9119      0.00000

 k-point    16 :       0.3333   -0.0000    0.2500
  band No.  band energies     occupation 
      1      -6.9987      2.00000
      2      -5.5547      2.00000
      3      -4.0736      2.00000
      4       1.3029      2.00000
      5       1.6962      2.00000
      6       2.5324      2.00000
      7       2.9120      2.00000
      8       3.9308      2.00000
      9       4.3745      2.00000
     10       7.0082      0.00000
     11       7.6875      0.00000
     12       8.7272      0.00000
     13      10.0725      0.00000
     14      11.3345      0.00000

 k-point    17 :       0.4444    0.0000    0.2500
  band No.  band energies     occupation 
      1      -6.7271      2.00000
      2      -5.5146      2.00000
      3      -4.3105      2.00000
      4       0.7772      2.00000
      5       1.3769      2.00000
      6       2.2595      2.00000
      7       3.3089      2.00000
      8       3.9560      2.00000
      9       4.2927      2.00000
     10       6.9190      0.00000
     11       7.6422      0.00000
     12       8.5654      0.00000
     13       9.6478      0.00000
     14      11.7026      0.00000

 k-point    18 :      -0.4444   -0.0000    0.2500
  band No.  band energies     occupation 
      1      -6.7009      2.00000
      2      -5.6270      2.00000
      3      -4.1622      2.00000
      4       0.4769      2.00000
      5       1.2819      2.00000
      6       2.2260      2.00000
      7       3.9650      2.00000
      8       4.0734      2.00000
      9       4.4020      2.00000
     10       6.8050      0.00000
     11       7.4575      0.00000
     12       7.8589      0.00000
     13       9.3724      0.00000
     14      12.1975      0.00000

 k-point    19 :      -0.3333    0.0000    0.2500
  band No.  band energies     occupation 
      1      -6.9703      2.00000
      2      -5.6924      2.00000
      3      -3.8455      2.00000
      4       0.6748      2.00000
      5       1.3750      2.00000
      6       2.3745      2.00000
      7       4.2583      2.00000
      8       4.3008      2.00000
      9       5.1124      2.00000
     10       6.4995      0.00000
     11       7.1011      0.00000
     12       7.2821      0.00000
     13       9.2867      0.00000
     14      12.2529      0.00000

 k-point    20 :      -0.2222   -0.0000    0.2500
  band No.  band energies     occupation 
      1      -7.2903      2.00000
      2      -5.7775      2.00000
      3      -3.5426      2.00000
      4       1.3489      2.00000
      5       1.6674      2.00000
      6       2.6603      2.00000
      7       4.4569      2.00000
      8       4.5985      2.00000
      9       5.2166      2.00000
     10       6.3080      0.00000
     11       6.7844      0.00000
     12       7.0481      0.00000
     13       9.4836      0.00000
     14      11.7431      0.00000

 k-point    21 :      -0.1111   -0.0000    0.2500
  band No.  band energies     occupation 
      1      -7.5132      2.00000
      2      -5.8729      2.00000
      3      -3.3328      2.00000
      4       1.9758      2.00000
      5       2.3704      2.00000
      6       3.0145      2.00000
      7       4.4359      2.00000
      8       4.5342      2.00000
      9       4.8466      2.00000
     10       6.3739      0.00000
     11       6.3916      0.00000
     12       7.1675      0.00000
     13       9.9402      0.00000
     14      11.2218      0.00000

 k-point    22 :       0.1111    0.1111    0.2500
  band No.  band energies     occupation 
      1      -7.3657      2.00000
      2      -5.7878      2.00000
      3      -3.5151      2.00000
      4       1.6508      2.00000
      5       1.9923      2.00000
      6       2.8715      2.00000
      7       3.8625      2.00000
      8       4.4417      2.00000
      9       4.8311      2.00000
     10       6.5790      0.00000
     11       7.1356      0.00000
     12       7.3550      0.00000
     13       9.9783      0.00000
     14      11.2027      0.00000

 k-point    23 :       0.2222    0.1111    0.2500
  band No.  band energies     occupation 
      1      -7.1035      2.00000
      2      -5.6334      2.00000
      3      -3.8833      2.00000
      4       1.3155      2.00000
      5       1.7113      2.00000
      6       2.6872      2.00000
      7       2.9679      2.00000
      8       4.0413      2.00000
      9       4.9417      2.00000
     10       6.7265      0.00000
     11       7.4868      0.00000
     12       8.3704      0.00000
     13      10.3046      0.00000
     14      10.7865      0.00000

 k-point    24 :       0.3333    0.1111    0.2500
  band No.  band energies     occupation 
      1      -6.8047      2.00000
      2      -5.5062      2.00000
      3      -4.2534      2.00000
      4       1.0235      2.00000
      5       1.2855      2.00000
      6       2.3601      2.00000
      7       2.9853      2.00000
      8       3.7148      2.00000
      9       4.9618      2.00000
     10       6.6642      0.00000
     11       7.7952      0.00000
     12       8.7178      0.00000
     13       9.9505      0.00000
     14      11.4366      0.00000

 k-point    25 :       0.4444    0.1111    0.2500
  band No.  band energies     occupation 
      1      -6.6361      2.00000
      2      -5.5512      2.00000
      3      -4.3147      2.00000
      4       0.6133      2.00000
      5       1.1640      2.00000
      6       2.2584      2.00000
      7       3.2113      2.00000
      8       3.8492      2.00000
      9       4.9699      2.00000
     10       6.5960      0.00000
     11       7.8480      0.00000
     12       8.2324      0.00000
     13       9.7103      0.00000
     14      12.0662      0.00000

 k-point    26 :      -0.4444    0.1111    0.2500
  band No.  band energies     occupation 
      1      -6.7780      2.00000
      2      -5.6285      2.00000
      3      -4.0816      2.00000
      4       0.5447      2.00000
      5       1.2880      2.00000
      6       2.2974      2.00000
      7       3.2674      2.00000
      8       4.5591      2.00000
      9       5.0425      2.00000
     10       6.4888      0.00000
     11       7.3497      0.00000
     12       7.8868      0.00000
     13       9.6101      0.00000
     14      12.0442      0.00000

 k-point    27 :      -0.3333    0.1111    0.2500
  band No.  band energies     occupation 
      1      -7.0919      2.00000
      2      -5.6912      2.00000
      3      -3.7771      2.00000
      4       0.9806      2.00000
      5       1.5312      2.00000
      6       2.5202      2.00000
      7       3.4788      2.00000
      8       4.7548      2.00000
      9       5.3572      2.00000
     10       6.2532      0.00000
     11       6.9981      0.00000
     12       7.7062      0.00000
     13       9.6630      0.00000
     14      11.4232      0.00000

 k-point    28 :       0.2222    0.2222    0.2500
  band No.  band energies     occupation 
      1      -6.8235      2.00000
      2      -5.5651      2.00000
      3      -4.1370      2.00000
      4       0.7874      2.00000
      5       1.3855      2.00000
      6       2.2859      2.00000
      7       2.8173      2.00000
      8       4.3540      2.00000
      9       5.2200      2.00000
     10       6.5604      0.00000
     11       7.4128      0.00000
     12       8.4731      0.00000
     13      10.2723      0.00000
     14      10.8429      0.00000

 k-point    29 :       0.3333    0.2222    0.2500
  band No.  band energies     occupation 
      1      -6.5977      2.00000
      2      -5.4974      2.00000
      3      -4.3946      2.00000
      4       0.7556      2.00000
      5       1.0448      2.00000
      6       1.9527      2.00000
      7       3.0242      2.00000
      8       3.9817      2.00000
      9       5.0240      2.00000
     10       6.8120      0.00000
     11       7.9271      0.00000
     12       8.4607      0.00000
     13      10.3149      0.00000
     14      11.3995      0.00000

 k-point    30 :       0.4444    0.2222    0.2500
  band No.  band energies     occupation 
      1      -6.5900      2.00000
      2      -5.5311      2.00000
      3      -4.3543      2.00000
      4       0.6153      2.00000
      5       1.1140      2.00000
      6       1.9690      2.00000
      7       2.9834      2.00000
      8       4.2584      2.00000
      9       4.9003      2.00000
     10       6.9303      0.00000
     11       7.6987      0.00000
     12       8.3490      0.00000
     13      10.2425      0.00000
     14      11.6226      0.00000

 k-point    31 :       0.3333    0.3333    0.2500
  band No.  band energies     occupation 
      1      -6.5058      2.00000
      2      -5.4882      2.00000
      3      -4.4699      2.00000
      4       0.7045      2.00000
      5       1.0191      2.00000
      6       1.6340      2.00000
      7       3.1748      2.00000
      8       4.1759      2.00000
      9       4.6245      2.00000
     10       7.3628      0.00000
     11       8.0241      0.00000
     12       8.1106      0.00000
     13      11.0466      0.00000
     14      11.3371      0.00000

 k-point    32 :       0.0000    0.0000    0.5000
  band No.  band energies     occupation 
      1      -6.9453      2.00000
      2      -6.9453      2.00000
      3      -2.5630      2.00000
      4       1.7129      2.00000
      5       3.1083      2.00000
      6       3.1083      2.00000
      7       4.3994      2.00000
      8       4.6923      2.00000
      9       4.6923      2.00000
     10       6.2141      0.00000
     11       6.2760      0.00000
     12       6.2760      0.00000
     13       9.7416      0.00000
     14      11.0506      0.00000

 k-point    33 :       0.1111    0.0000    0.5000
  band No.  band energies     occupation 
      1      -6.8858      2.00000
      2      -6.8698      2.00000
      3      -2.7282      2.00000
      4       1.6758      2.00000
      5       2.9164      2.00000
      6       3.0037      2.00000
      7       3.9546      2.00000
      8       4.3050      2.00000
      9       4.5488      2.00000
     10       6.4493      0.00000
     11       6.6640      0.00000
     12       7.0561      0.00000
     13       9.9727      0.00000
     14      10.7357      0.00000

 k-point    34 :       0.2222    0.0000    0.5000
  band No.  band energies     occupation 
      1      -6.7257      2.00000
      2      -6.6537      2.00000
      3      -3.1592      2.00000
      4       1.3867      2.00000
      5       2.3254      2.00000
      6       2.7097      2.00000
      7       3.7539      2.00000
      8       3.9124      2.00000
      9       4.3756      2.00000
     10       6.8562      0.00000
     11       7.3666      0.00000
     12       7.7996      0.00000
     13      10.2092      0.00000
     14      10.8825      0.00000

 k-point    35 :       0.3333   -0.0000    0.5000
  band No.  band energies     occupation 
      1      -6.5238      2.00000
      2      -6.3395      2.00000
      3      -3.7001      2.00000
      4       0.7092      2.00000
      5       2.0631      2.00000
      6       2.3947      2.00000
      7       3.5295      2.00000
      8       3.7795      2.00000
      9       4.6533      2.00000
     10       7.0534      0.00000
     11       7.6348      0.00000
     12       7.9337      0.00000
     13      10.2136      0.00000
     14      11.1780      0.00000

 k-point    36 :       0.4444    0.0000    0.5000
  band No.  band energies     occupation 
      1      -6.3776      2.00000
      2      -6.0545      2.00000
      3      -4.1247      2.00000
      4       0.2198      2.00000
      5       2.0366      2.00000
      6       2.1648      2.00000
      7       3.3694      2.00000
      8       3.6880      2.00000
      9       5.2631      2.00000
     10       6.5689      0.00000
     11       7.5453      0.00000
     12       8.1784      0.00000
     13      10.2367      0.00000
     14      11.0099      0.00000

 k-point    37 :       0.1111    0.1111    0.5000
  band No.  band energies     occupation 
      1      -6.7722      2.00000
      2      -6.7273      2.00000
      3      -3.0239      2.00000
      4       1.5327      2.00000
      5       2.5539      2.00000
      6       2.6216      2.00000
      7       3.7212      2.00000
      8       3.9101      2.00000
      9       4.7737      2.00000
     10       6.3783      0.00000
     11       7.4514      0.00000
     12       7.6276      0.00000
     13      10.3879      0.00000
     14      10.4711      0.00000

 k-point    38 :       0.2222    0.1111    0.5000
  band No.  band energies     occupation 
      1      -6.5803      2.00000
      2      -6.4689      2.00000
      3      -3.5006      2.00000
      4       1.0701      2.00000
      5       1.9622      2.00000
      6       2.1684      2.00000
      7       3.7173      2.00000
      8       4.0606      2.00000
      9       4.7712      2.00000
     10       6.6733      0.00000
     11       7.7289      0.00000
     12       7.8950      0.00000
     13      10.2825      0.00000
     14      11.0791      0.00000

 k-point    39 :       0.3333    0.1111    0.5000
  band No.  band energies     occupation 
      1      -6.3919      2.00000
      2      -6.1655      2.00000
      3      -3.9811      2.00000
      4       0.4694      2.00000
      5       1.6972      2.00000
      6       1.8477      2.00000
      7       3.8033      2.00000
      8       4.1528      2.00000
      9       5.0274      2.00000
     10       6.7987      0.00000
     11       7.4024      0.00000
     12       7.9655      0.00000
     13      10.3058      0.00000
     14      11.2570      0.00000

 k-point    40 :       0.4444    0.1111    0.5000
  band No.  band energies     occupation 
      1      -6.3113      2.00000
      2      -6.0061      2.00000
      3      -4.2074      2.00000
      4       0.2189      2.00000
      5       1.6556      2.00000
      6       1.7009      2.00000
      7       3.9342      2.00000
      8       4.0042      2.00000
      9       5.4778      2.00000
     10       6.3878      0.00000
     11       7.3926      0.00000
     12       7.9830      0.00000
     13      10.3763      0.00000
     14      11.0563      0.00000

 k-point    41 :       0.2222    0.2222    0.5000
  band No.  band energies     occupation 
      1      -6.3762      2.00000
      2      -6.2346      2.00000
      3      -3.9078      2.00000
      4       0.7596      2.00000
      5       1.3120      2.00000
      6       1.6092      2.00000
      7       4.1031      2.00000
      8       4.4594      2.00000
      9       5.1777      2.00000
     10       6.5097      0.00000
     11       7.5996      0.00000
     12       7.6478      0.00000
     13      10.5488      0.00000
     14      11.3944      0.00000

 k-point    42 :       0.3333    0.2222    0.5000
  band No.  band energies     occupation 
      1      -6.2180      2.00000
      2      -6.0484      2.00000
      3      -4.2071      2.00000
      4       0.4612      2.00000
      5       1.0690      2.00000
      6       1.2294      2.00000
      7       4.4156      2.00000
      8       4.8476      2.00000
      9       5.4560      2.00000
     10       6.3666      0.00000
     11       7.1423      0.00000
     12       7.4733      0.00000
     13      10.8819      0.00000
     14      11.5794      0.00000

 k-point    43 :       0.3333    0.3333    0.5000
  band No.  band energies     occupation 
      1      -6.0733      2.00000
      2      -6.0733      2.00000
      3      -4.2896      2.00000
      4       0.6198      2.00000
      5       0.8276      2.00000
      6       0.8276      2.00000
      7       4.6580      2.00000
      8       5.6545      1.92939
      9       5.6545      1.92939
     10       5.7705      0.14123
     11       7.0638      0.00000
     12       7.0638      0.00000
     13      11.5903      0.00000
     14      12.1965      0.00000


--------------------------------------------------------------------------------------------------------


 soft charge-density along one line, spin component           1
         0         1         2         3         4         5         6         7         8         9
 total charge-density along one line
 
 pseudopotential strength for first ion, spin component:           1
 51.746  56.300  -0.000  -0.000  -0.053  -0.000  -0.000  -0.077
 56.300  61.259  -0.000  -0.000  -0.058  -0.000  -0.000  -0.084
 -0.000  -0.000  12.735   0.010   0.000  18.357   0.014   0.000
 -0.000  -0.000   0.010  12.752   0.000   0.014  18.382   0.000
 -0.053  -0.058   0.000   0.000  12.752   0.000   0.000  18.381
 -0.000  -0.000  18.357   0.014   0.000  26.470   0.021   0.000
 -0.000  -0.000   0.014  18.382   0.000   0.021  26.506   0.000
 -0.077  -0.084   0.000   0.000  18.381   0.000   0.000  26.504
  0.000   0.000  -0.010   0.000  -0.000  -0.015   0.000  -0.000
  0.015   0.017   0.000  -0.000   0.000   0.000  -0.000   0.000
  0.008   0.009   0.000  -0.000   0.006   0.000  -0.000   0.009
  0.000   0.000   0.000  -0.010  -0.000   0.000  -0.014  -0.000
  0.013   0.014   0.000  -0.000  -0.010   0.000  -0.000  -0.015
 total augmentation occupancy for first ion, spin component:           1
 13.056  -9.529   0.000   0.000   2.297   0.000   0.000  -0.613   0.000  -0.170  -0.109   0.000  -0.118
 -9.529   8.215   0.000   0.000  -1.930   0.000   0.000   0.525   0.000   0.154   0.098   0.000   0.107
  0.000   0.000   2.528   0.249   0.000  -0.476  -0.209   0.000  -0.058   0.000   0.000  -0.052   0.000
  0.000   0.000   0.249   2.938   0.000  -0.209  -0.827   0.000  -0.050   0.000   0.000  -0.131   0.000
  2.297  -1.930   0.000   0.000   2.789  -0.000   0.000  -0.739   0.000  -0.057  -0.019   0.000  -0.057
  0.000   0.000  -0.476  -0.209   0.000   0.171   0.080   0.000   0.014   0.000   0.000   0.019   0.000
  0.000   0.000  -0.209  -0.827   0.000   0.080   0.301   0.000   0.019   0.000   0.000   0.040   0.000
 -0.613   0.525   0.000   0.000  -0.739   0.000   0.000   0.258   0.000   0.017   0.005   0.000   0.014
  0.000   0.000  -0.058  -0.050   0.000   0.014   0.019   0.000   0.009   0.000   0.000   0.010   0.000
 -0.170   0.154   0.000   0.000  -0.057   0.000   0.000   0.017   0.000   0.014   0.004   0.000   0.003
 -0.109   0.098   0.000   0.000  -0.019  -0.000   0.000   0.005   0.000   0.004   0.008   0.000  -0.001
  0.000   0.000  -0.052  -0.131   0.000   0.019   0.040   0.000   0.010   0.000  -0.000   0.026   0.000
 -0.118   0.107   0.000   0.000  -0.057   0.000   0.000   0.014   0.000   0.003  -0.001   0.000   0.010


------------------------ aborting loop because EDIFF is reached ----------------------------------------


    CHARGE:  cpu time    0.0246: real time    0.0247
    FORLOC:  cpu time    0.0009: real time    0.0009
    FORNL :  cpu time    0.0949: real time    0.0952
    STRESS:  cpu time    0.2082: real time    0.2088
    FORCOR:  cpu time    0.0173: real time    0.0173
    FORHAR:  cpu time    0.0037: real time    0.0037
    MIXING:  cpu time    0.0007: real time    0.0007
    OFIELD:  cpu time    0.0000: real time    0.0000

  Number of pair interactions contributing to vdW energy:   30144
  Edisp (eV):   -0.90911
    FORVDW:  cpu time    0.0016: real time    0.0016

  FORCE on cell =-STRESS in cart. coord.  units (eV):
  Direction    XX          YY          ZZ          XY          YZ          ZX
  --------------------------------------------------------------------------------------
  Alpha Z     2.24835     2.24835     2.24835
  Ewald    -237.73027  -237.73026  -194.02408    -0.00000    -0.00001     0.00000
  Hartree    11.32986    11.32986    22.51032     0.00000     0.00000    -0.00000
  E(xc)     -70.36672   -70.36672   -69.86123    -0.00000     0.00000    -0.00000
  Local    -112.21943  -112.21948  -157.09332    -0.00004     0.00000    -0.00000
  n-local   332.19135   332.95700   328.19619    -1.26249    -0.74086    -1.28251
  augment   -81.11840   -81.11836   -78.68936     0.00004    -0.00000     0.00000
  Kinetic   152.60325   158.99826   147.14029    -7.21981     0.11350     1.37815
  Fock        0.00000     0.00000     0.00000     0.00000     0.00000     0.00000
  vdW        -0.99797    -0.99797    -0.81932     0.00000    -0.00000     0.00000
  -------------------------------------------------------------------------------------
  Total      -0.47965    -0.47965    -0.39215     0.00000     0.00000     0.00000
  in kB      -7.39165    -7.39165    -6.04322     0.00000     0.00000     0.00000
  external pressure =       -6.94 kB  Pullay stress =        0.00 kB


 VOLUME and BASIS-vectors are now :
 -----------------------------------------------------------------------------
  energy-cutoff  :      520.00
  volume of cell :      103.97
      direct lattice vectors                 reciprocal lattice vectors
     4.472875473  0.000000000 -0.000000000     0.223569828  0.129078100  0.000000000
    -2.236437736  3.873623788  0.000000000     0.000000000  0.258156201  0.000000000
     0.000000000  0.000000000  6.000501934     0.000000000  0.000000000  0.166652725

  length of vectors
     4.472875473  4.472875473  6.000501934     0.258156201  0.258156201  0.166652725


 FORCES acting on ions
    electron-ion (+dipol)            ewald-force                    non-local-force                 convergence-correction
 -----------------------------------------------------------------------------------------------
   -.125E+02 0.120E-04 -.119E-05   0.179E+02 0.147E-05 0.176E-05   -.522E+01 0.278E-16 -.555E-16   -.230E-03 -.908E-08 -.112E-08
   0.627E+01 -.109E+02 -.184E-04   -.897E+01 0.155E+02 -.860E-05   0.261E+01 -.452E+01 0.555E-16   0.115E-03 -.199E-03 0.391E-07
   0.627E+01 0.109E+02 0.192E-04   -.897E+01 -.155E+02 0.684E-05   0.261E+01 0.452E+01 0.000E+00   0.115E-03 0.199E-03 -.380E-07
 -----------------------------------------------------------------------------------------------
   0.257E-04 -.745E-05 -.334E-06   0.000E+00 0.000E+00 0.000E+00   0.444E-15 0.000E+00 0.000E+00   -.364E-09 -.460E-09 0.100E-10
 
 
 POSITION                                       TOTAL-FORCE (eV/Angst)
 -----------------------------------------------------------------------------------
      1.18359      0.00000      2.00017         0.044683      0.000000     -0.000000
     -0.59180      1.02502      4.00033        -0.022341      0.038696      0.000000
      1.64464      2.84860     -0.00000        -0.022341     -0.038696      0.000000
 -----------------------------------------------------------------------------------
    total drift:                                0.000026     -0.000007     -0.000000


--------------------------------------------------------------------------------------------------------



  FREE ENERGIE OF THE ION-ELECTRON SYSTEM (eV)
  ---------------------------------------------------
  free  energy   TOTEN  =       -10.32708663 eV

  energy  without entropy=      -10.32695969  energy(sigma->0) =      -10.32702316
 
 d Force = 0.5135738E-02[ 0.159E-02, 0.868E-02]  d Energy = 0.6171849E-02-0.104E-02
 d Force = 0.6624445E+00[ 0.637E+00, 0.688E+00]  d Ewald  =-0.3140092E+01 0.380E+01


--------------------------------------------------------------------------------------------------------


    POTLOK:  cpu time    0.0193: real time    0.0193


--------------------------------------------------------------------------------------------------------


 Steepest descent step on ions:
 trial-energy change:   -0.006172  1 .order   -0.006470   -0.019061    0.006121
  (g-gl).g = 0.191E-01      g.g   = 0.191E-01  gl.gl    = 0.000E+00
 g(Force)  = 0.866E-02   g(Stress)= 0.104E-01 ortho     = 0.000E+00
 gamma     =   0.00000
 trial     =   1.00000
 opt step  =   0.74337  (harmonic =   0.75692) maximal distance =0.00877169
 next E    =   -10.327877   (d E  =  -0.00696)


--------------------------------------------------------------------------------------------------------


    WAVPRE:  cpu time    0.0038: real time    0.0067
    FEWALD:  cpu time    0.0002: real time    0.0001
    GENKIN:  cpu time    0.0058: real time    0.0059
    ORTHCH:  cpu time    0.0181: real time    0.0182
     LOOP+:  cpu time    2.7010: real time    2.7180


--------------------------------------- Iteration      3(   1)  ---------------------------------------


    POTLOK:  cpu time    0.0173: real time    0.0185
    SETDIJ:  cpu time    0.0023: real time    0.0022
     EDDAV:  cpu time    0.3204: real time    0.3216
       DOS:  cpu time    0.0006: real time    0.0006
    CHARGE:  cpu time    0.0247: real time    0.0248
    MIXING:  cpu time    0.0006: real time    0.0005
    --------------------------------------------
      LOOP:  cpu time    0.3658: real time    0.3682

 eigenvalue-minimisations  :  1222
 total energy-change (2. order) : 0.3904126E-02  (-0.3767769E-02)
 number of electron      17.9999992 magnetization 
 augmentation part       -3.6052412 magnetization 

 Broyden mixing:
  rms(total) = 0.25500E-01    rms(broyden)= 0.25500E-01
  rms(prec ) = 0.31101E-01
  weight for this iteration     100.00

 Free energy of the ion-electron system (eV)
  ---------------------------------------------------
  alpha Z        PSCENC =         2.25884527
  Ewald energy   TEWEN  =      -670.29123911
  -Hartree energ DENC   =       -45.36974178
  -exchange      EXHF   =         0.00000000
  -V(xc)+E(xc)   XCENC  =       -84.03466265
  PAW double counting   =      1507.43059288    -1392.07124544
  entropy T*S    EENTRO =        -0.00010866
  eigenvalues    EBANDS =         2.84918635
  atomic energy  EATOM  =       669.81430600
  Solvation  Ediel_sol  =         0.00000000
  ---------------------------------------------------
  free energy    TOTEN  =        -9.41406714 eV

  energy without entropy =       -9.41395847  energy(sigma->0) =       -9.41401280


--------------------------------------------------------------------------------------------------------




--------------------------------------- Iteration      3(   2)  ---------------------------------------


    POTLOK:  cpu time    0.0172: real time    0.0173
    SETDIJ:  cpu time    0.0022: real time    0.0022
     EDDAV:  cpu time    0.3370: real time    0.3381
       DOS:  cpu time    0.0005: real time    0.0005
    CHARGE:  cpu time    0.0248: real time    0.0249
    MIXING:  cpu time    0.0006: real time    0.0006
    --------------------------------------------
      LOOP:  cpu time    0.3824: real time    0.3836

 eigenvalue-minimisations  :  1324
 total energy-change (2. order) : 0.2979020E-03  (-0.1689546E-03)
 number of electron      17.9999992 magnetization 
 augmentation part       -3.6043458 magnetization 

 Broyden mixing:
  rms(total) = 0.11310E-01    rms(broyden)= 0.11310E-01
  rms(prec ) = 0.15682E-01
  weight for this iteration     100.00

 eigenvalues of (default mixing * dielectric matrix)
  average eigenvalue GAMMA=   0.8570
  0.8570

 Free energy of the ion-electron system (eV)
  ---------------------------------------------------
  alpha Z        PSCENC =         2.25884527
  Ewald energy   TEWEN  =      -670.29123911
  -Hartree energ DENC   =       -45.24571312
  -exchange      EXHF   =         0.00000000
  -V(xc)+E(xc)   XCENC  =       -84.03019855
  PAW double counting   =      1517.64425285    -1402.28541706
  entropy T*S    EENTRO =        -0.00010680
  eigenvalues    EBANDS =         2.72150129
  atomic energy  EATOM  =       669.81430600
  Solvation  Ediel_sol  =         0.00000000
  ---------------------------------------------------
  free energy    TOTEN  =        -9.41376923 eV

  energy without entropy =       -9.41366243  energy(sigma->0) =       -9.41371583


--------------------------------------------------------------------------------------------------------




--------------------------------------- Iteration      3(   3)  ---------------------------------------


    POTLOK:  cpu time    0.0167: real time    0.0167
    SETDIJ:  cpu time    0.0024: real time    0.0024
     EDDAV:  cpu time    0.3530: real time    0.3542
       DOS:  cpu time    0.0006: real time    0.0006
    CHARGE:  cpu time    0.0248: real time    0.0248
    MIXING:  cpu time    0.0006: real time    0.0006
    --------------------------------------------
      LOOP:  cpu time    0.3980: real time    0.3993

 eigenvalue-minimisations  :  1420
 total energy-change (2. order) : 0.1622966E-03  (-0.1357424E-04)
 number of electron      17.9999992 magnetization 
 augmentation part       -3.6058467 magnetization 

 Broyden mixing:
  rms(total) = 0.46522E-02    rms(broyden)= 0.46522E-02
  rms(prec ) = 0.77129E-02
  weight for this iteration     100.00

 eigenvalues of (default mixing * dielectric matrix)
  average eigenvalue GAMMA=   1.3480
  0.8868  1.8093

 Free energy of the ion-electron system (eV)
  ---------------------------------------------------
  alpha Z        PSCENC =         2.25884527
  Ewald energy   TEWEN  =      -670.29123911
  -Hartree energ DENC   =       -45.17674737
  -exchange      EXHF   =         0.00000000
  -V(xc)+E(xc)   XCENC  =       -84.02594606
  PAW double counting   =      1519.46445989    -1404.10684258
  entropy T*S    EENTRO =        -0.00010466
  eigenvalues    EBANDS =         2.64966168
  atomic energy  EATOM  =       669.81430600
  Solvation  Ediel_sol  =         0.00000000
  ---------------------------------------------------
  free energy    TOTEN  =        -9.41360694 eV

  energy without entropy =       -9.41350228  energy(sigma->0) =       -9.41355461


--------------------------------------------------------------------------------------------------------




--------------------------------------- Iteration      3(   4)  ---------------------------------------


    POTLOK:  cpu time    0.0167: real time    0.0167
    SETDIJ:  cpu time    0.0022: real time    0.0022
     EDDAV:  cpu time    0.3121: real time    0.3131
       DOS:  cpu time    0.0006: real time    0.0006
    CHARGE:  cpu time    0.0248: real time    0.0249
    MIXING:  cpu time    0.0007: real time    0.0006
    --------------------------------------------
      LOOP:  cpu time    0.3570: real time    0.3581

 eigenvalue-minimisations  :  1216
 total energy-change (2. order) : 0.7427160E-04  (-0.1510610E-04)
 number of electron      17.9999992 magnetization 
 augmentation part       -3.6077218 magnetization 

 Broyden mixing:
  rms(total) = 0.55329E-02    rms(broyden)= 0.55329E-02
  rms(prec ) = 0.55752E-02
  weight for this iteration     100.00

 eigenvalues of (default mixing * dielectric matrix)
  average eigenvalue GAMMA=   1.6717
  1.1729  1.9212  1.9212

 Free energy of the ion-electron system (eV)
  ---------------------------------------------------
  alpha Z        PSCENC =         2.25884527
  Ewald energy   TEWEN  =      -670.29123911
  -Hartree energ DENC   =       -45.09750676
  -exchange      EXHF   =         0.00000000
  -V(xc)+E(xc)   XCENC  =       -84.02034646
  PAW double counting   =      1521.62967426    -1406.27495680
  entropy T*S    EENTRO =        -0.00010232
  eigenvalues    EBANDS =         2.56779325
  atomic energy  EATOM  =       669.81430600
  Solvation  Ediel_sol  =         0.00000000
  ---------------------------------------------------
  free energy    TOTEN  =        -9.41353267 eV

  energy without entropy =       -9.41343034  energy(sigma->0) =       -9.41348150


--------------------------------------------------------------------------------------------------------




--------------------------------------- Iteration      3(   5)  ---------------------------------------


    POTLOK:  cpu time    0.0168: real time    0.0169
    SETDIJ:  cpu time    0.0022: real time    0.0022
     EDDAV:  cpu time    0.2158: real time    0.2165
       DOS:  cpu time    0.0006: real time    0.0006
    --------------------------------------------
      LOOP:  cpu time    0.2354: real time    0.2362

 eigenvalue-minimisations  :   626
 total energy-change (2. order) : 0.2219226E-06  (-0.5455595E-06)
 number of electron      17.9999992 magnetization 
 augmentation part       -3.6077218 magnetization 

 Free energy of the ion-electron system (eV)
  ---------------------------------------------------
  alpha Z        PSCENC =         2.25884527
  Ewald energy   TEWEN  =      -670.29123911
  -Hartree energ DENC   =       -45.09058314
  -exchange      EXHF   =         0.00000000
  -V(xc)+E(xc)   XCENC  =       -84.01921272
  PAW double counting   =      1522.84266323    -1407.49041565
  entropy T*S    EENTRO =        -0.00010238
  eigenvalues    EBANDS =         2.56220606
  atomic energy  EATOM  =       669.81430600
  Solvation  Ediel_sol  =         0.00000000
  ---------------------------------------------------
  free energy    TOTEN  =        -9.41353244 eV

  energy without entropy =       -9.41343006  energy(sigma->0) =       -9.41348125


--------------------------------------------------------------------------------------------------------




 average (electrostatic) potential at core
  the test charge radii are     1.1897
  (the norm of the test charge is              1.0000)
       1 -89.2023       2 -89.2023       3 -89.2023
 
 
 
 E-fermi :   5.7849     XC(G=0):  -8.9933     alpha+bet :-10.3918


 k-point     1 :       0.0000    0.0000    0.0000
  band No.  band energies     occupation 
      1      -7.7969      2.00000
      2      -4.5541      2.00000
      3      -4.5541      2.00000
      4       2.7381      2.00000
      5       2.9848      2.00000
      6       2.9848      2.00000
      7       4.1360      2.00000
      8       4.1360      2.00000
      9       5.0180      2.00000
     10       6.7369      0.00000
     11       6.7369      0.00000
     12       7.4017      0.00000
     13      10.7019      0.00000
     14      10.7019      0.00000

 k-point     2 :       0.1111    0.0000    0.0000
  band No.  band energies     occupation 
      1      -7.7169      2.00000
      2      -4.5775      2.00000
      3      -4.5309      2.00000
      4       2.1196      2.00000
      5       2.5890      2.00000
      6       2.8636      2.00000
      7       4.3587      2.00000
      8       4.6625      2.00000
      9       5.1196      2.00000
     10       6.5078      0.00000
     11       6.6903      0.00000
     12       7.3051      0.00000
     13      10.5032      0.00000
     14      10.6767      0.00000

 k-point     3 :       0.2222    0.0000    0.0000
  band No.  band energies     occupation 
      1      -7.4890      2.00000
      2      -4.6822      2.00000
      3      -4.4680      2.00000
      4       1.3540      2.00000
      5       2.0361      2.00000
      6       2.5343      2.00000
      7       4.4205      2.00000
      8       4.7355      2.00000
      9       4.9404      2.00000
     10       6.6299      0.00000
     11       6.8144      0.00000
     12       7.4718      0.00000
     13       9.8130      0.00000
     14      10.9256      0.00000

 k-point     4 :       0.3333   -0.0000    0.0000
  band No.  band energies     occupation 
      1      -7.1609      2.00000
      2      -4.9129      2.00000
      3      -4.3892      2.00000
      4       0.9719      2.00000
      5       1.6006      2.00000
      6       2.2515      2.00000
      7       3.4173      2.00000
      8       4.7344      2.00000
      9       4.9355      2.00000
     10       6.6380      0.00000
     11       6.8187      0.00000
     12       8.4811      0.00000
     13       9.1933      0.00000
     14      11.7054      0.00000

 k-point     5 :       0.4444    0.0000    0.0000
  band No.  band energies     occupation 
      1      -6.8670      2.00000
      2      -5.1711      2.00000
      3      -4.3336      2.00000
      4       0.9262      2.00000
      5       1.4002      2.00000
      6       2.1795      2.00000
      7       2.5566      2.00000
      8       4.6717      2.00000
      9       4.9154      2.00000
     10       6.6394      0.00000
     11       6.7549      0.00000
     12       8.8587      0.00000
     13       9.2756      0.00000
     14      12.7804      0.00000

 k-point     6 :       0.1111    0.1111    0.0000
  band No.  band energies     occupation 
      1      -7.5627      2.00000
      2      -4.6277      2.00000
      3      -4.5029      2.00000
      4       1.6026      2.00000
      5       1.9447      2.00000
      6       2.9030      2.00000
      7       4.2138      2.00000
      8       4.9175      2.00000
      9       4.9745      2.00000
     10       6.5493      0.00000
     11       6.8496      0.00000
     12       7.3680      0.00000
     13      10.2898      0.00000
     14      10.3945      0.00000

 k-point     7 :       0.2222    0.1111    0.0000
  band No.  band energies     occupation 
      1      -7.2815      2.00000
      2      -4.7727      2.00000
      3      -4.4655      2.00000
      4       1.1319      2.00000
      5       1.5159      2.00000
      6       2.6308      2.00000
      7       3.9312      2.00000
      8       4.2836      2.00000
      9       4.6747      2.00000
     10       6.9792      0.00000
     11       7.2727      0.00000
     12       7.8656      0.00000
     13       9.7424      0.00000
     14      10.6838      0.00000

 k-point     8 :       0.3333    0.1111    0.0000
  band No.  band energies     occupation 
      1      -6.9544      2.00000
      2      -5.0213      2.00000
      3      -4.4271      2.00000
      4       0.9763      2.00000
      5       1.3576      2.00000
      6       2.3117      2.00000
      7       2.9938      2.00000
      8       4.2238      2.00000
      9       4.4401      2.00000
     10       7.0863      0.00000
     11       7.3542      0.00000
     12       8.8506      0.00000
     13       9.3330      0.00000
     14      11.5926      0.00000

 k-point     9 :       0.4444    0.1111    0.0000
  band No.  band energies     occupation 
      1      -6.7838      2.00000
      2      -5.1725      2.00000
      3      -4.4105      2.00000
      4       0.9937      2.00000
      5       1.3532      2.00000
      6       2.3400      2.00000
      7       2.3774      2.00000
      8       4.2218      2.00000
      9       4.3465      2.00000
     10       7.0903      0.00000
     11       7.3720      0.00000
     12       9.1863      0.00000
     13       9.3052      0.00000
     14      12.5291      0.00000

 k-point    10 :       0.2222    0.2222    0.0000
  band No.  band energies     occupation 
      1      -6.9909      2.00000
      2      -4.8868      2.00000
      3      -4.5435      2.00000
      4       1.0931      2.00000
      5       1.2102      2.00000
      6       2.5927      2.00000
      7       3.4486      2.00000
      8       3.7723      2.00000
      9       3.8414      2.00000
     10       7.7010      0.00000
     11       7.9951      0.00000
     12       8.2165      0.00000
     13      10.0952      0.00000
     14      10.5044      0.00000

 k-point    11 :       0.3333    0.2222    0.0000
  band No.  band energies     occupation 
      1      -6.7444      2.00000
      2      -5.0197      2.00000
      3      -4.6181      2.00000
      4       1.1344      2.00000
      5       1.2749      2.00000
      6       2.4546      2.00000
      7       2.7697      2.00000
      8       3.4708      2.00000
      9       3.5704      2.00000
     10       7.9273      0.00000
     11       8.2596      0.00000
     12       8.9335      0.00000
     13      10.0505      0.00000
     14      11.3649      0.00000

 k-point    12 :       0.3333    0.3333    0.0000
  band No.  band energies     occupation 
      1      -6.6521      2.00000
      2      -4.8656      2.00000
      3      -4.8656      2.00000
      4       1.2757      2.00000
      5       1.2757      2.00000
      6       2.7297      2.00000
      7       2.7297      2.00000
      8       2.8980      2.00000
      9       3.1551      2.00000
     10       8.5565      0.00000
     11       8.5565      0.00000
     12       8.8933      0.00000
     13      10.6311      0.00000
     14      11.6581      0.00000

 k-point    13 :       0.0000    0.0000    0.2500
  band No.  band energies     occupation 
      1      -7.5757      2.00000
      2      -5.8831      2.00000
      3      -3.1883      2.00000
      4       2.2439      2.00000
      5       2.8658      2.00000
      6       3.2861      2.00000
      7       4.2998      2.00000
      8       4.3185      2.00000
      9       4.9607      2.00000
     10       6.4565      0.00000
     11       6.4808      0.00000
     12       6.9097      0.00000
     13      10.1678      0.00000
     14      11.2765      0.00000

 k-point    14 :       0.1111    0.0000    0.2500
  band No.  band energies     occupation 
      1      -7.4990      2.00000
      2      -5.8340      2.00000
      3      -3.2862      2.00000
      4       1.9922      2.00000
      5       2.6900      2.00000
      6       3.1404      2.00000
      7       4.0508      2.00000
      8       4.4182      2.00000
      9       4.6238      2.00000
     10       6.7185      0.00000
     11       6.8294      0.00000
     12       7.2440      0.00000
     13      10.2631      0.00000
     14      11.2321      0.00000

 k-point    15 :       0.2222    0.0000    0.2500
  band No.  band energies     occupation 
      1      -7.2843      2.00000
      2      -5.6941      2.00000
      3      -3.5935      2.00000
      4       1.6429      2.00000
      5       2.2821      2.00000
      6       2.8809      2.00000
      7       3.3991      2.00000
      8       4.0008      2.00000
      9       4.5371      2.00000
     10       7.0231      0.00000
     11       7.6007      0.00000
     12       8.0164      0.00000
     13      10.5387      0.00000
     14      10.9599      0.00000

 k-point    16 :       0.3333   -0.0000    0.2500
  band No.  band energies     occupation 
      1      -6.9824      2.00000
      2      -5.5220      2.00000
      3      -4.0156      2.00000
      4       1.3272      2.00000
      5       1.7241      2.00000
      6       2.5683      2.00000
      7       2.9592      2.00000
      8       3.9799      2.00000
      9       4.4300      2.00000
     10       7.0724      0.00000
     11       7.7580      0.00000
     12       8.8128      0.00000
     13      10.1314      0.00000
     14      11.3871      0.00000

 k-point    17 :       0.4444    0.0000    0.2500
  band No.  band energies     occupation 
      1      -6.7113      2.00000
      2      -5.4814      2.00000
      3      -4.2536      2.00000
      4       0.8034      2.00000
      5       1.4040      2.00000
      6       2.2931      2.00000
      7       3.3573      2.00000
      8       4.0035      2.00000
      9       4.3466      2.00000
     10       6.9807      0.00000
     11       7.7161      0.00000
     12       8.6560      0.00000
     13       9.7114      0.00000
     14      11.7592      0.00000

 k-point    18 :      -0.4444   -0.0000    0.2500
  band No.  band energies     occupation 
      1      -6.6859      2.00000
      2      -5.5918      2.00000
      3      -4.1055      2.00000
      4       0.5036      2.00000
      5       1.3096      2.00000
      6       2.2587      2.00000
      7       4.0083      2.00000
      8       4.1185      2.00000
      9       4.4600      2.00000
     10       6.8668      0.00000
     11       7.5323      0.00000
     12       7.9472      0.00000
     13       9.4343      0.00000
     14      12.2533      0.00000

 k-point    19 :      -0.3333    0.0000    0.2500
  band No.  band energies     occupation 
      1      -6.9547      2.00000
      2      -5.6580      2.00000
      3      -3.7866      2.00000
      4       0.7018      2.00000
      5       1.4039      2.00000
      6       2.4077      2.00000
      7       4.2986      2.00000
      8       4.3436      2.00000
      9       5.1707      2.00000
     10       6.5682      0.00000
     11       7.1757      0.00000
     12       7.3607      0.00000
     13       9.3411      0.00000
     14      12.2990      0.00000

 k-point    20 :      -0.2222   -0.0000    0.2500
  band No.  band energies     occupation 
      1      -7.2746      2.00000
      2      -5.7443      2.00000
      3      -3.4804      2.00000
      4       1.3768      2.00000
      5       1.6983      2.00000
      6       2.6950      2.00000
      7       4.4943      2.00000
      8       4.6414      2.00000
      9       5.2733      2.00000
     10       6.3773      0.00000
     11       6.8559      0.00000
     12       7.1204      0.00000
     13       9.5303      0.00000
     14      11.7926      0.00000

 k-point    21 :      -0.1111   -0.0000    0.2500
  band No.  band energies     occupation 
      1      -7.4977      2.00000
      2      -5.8405      2.00000
      3      -3.2681      2.00000
      4       2.0099      2.00000
      5       2.3986      2.00000
      6       3.0512      2.00000
      7       4.4862      2.00000
      8       4.5707      2.00000
      9       4.8908      2.00000
     10       6.4419      0.00000
     11       6.4606      0.00000
     12       7.2313      0.00000
     13       9.9880      0.00000
     14      11.2699      0.00000

 k-point    22 :       0.1111    0.1111    0.2500
  band No.  band energies     occupation 
      1      -7.3500      2.00000
      2      -5.7550      2.00000
      3      -3.4525      2.00000
      4       1.6792      2.00000
      5       2.0227      2.00000
      6       2.9081      2.00000
      7       3.9033      2.00000
      8       4.4874      2.00000
      9       4.8867      2.00000
     10       6.6452      0.00000
     11       7.2034      0.00000
     12       7.4239      0.00000
     13      10.0241      0.00000
     14      11.2507      0.00000

 k-point    23 :       0.2222    0.1111    0.2500
  band No.  band energies     occupation 
      1      -7.0874      2.00000
      2      -5.6004      2.00000
      3      -3.8241      2.00000
      4       1.3404      2.00000
      5       1.7398      2.00000
      6       2.7247      2.00000
      7       3.0115      2.00000
      8       4.0908      2.00000
      9       4.9978      2.00000
     10       6.7959      0.00000
     11       7.5544      0.00000
     12       8.4482      0.00000
     13      10.3519      0.00000
     14      10.8375      0.00000

 k-point    24 :       0.3333    0.1111    0.2500
  band No.  band energies     occupation 
      1      -6.7887      2.00000
      2      -5.4733      2.00000
      3      -4.1962      2.00000
      4       1.0477      2.00000
      5       1.3129      2.00000
      6       2.3956      2.00000
      7       3.0304      2.00000
      8       3.7673      2.00000
      9       5.0147      2.00000
     10       6.7356      0.00000
     11       7.8647      0.00000
     12       8.8053      0.00000
     13      10.0063      0.00000
     14      11.4868      0.00000

 k-point    25 :       0.4444    0.1111    0.2500
  band No.  band energies     occupation 
      1      -6.6210      2.00000
      2      -5.5167      2.00000
      3      -4.2582      2.00000
      4       0.6394      2.00000
      5       1.1900      2.00000
      6       2.2919      2.00000
      7       3.2550      2.00000
      8       3.9042      2.00000
      9       5.0199      2.00000
     10       6.6683      0.00000
     11       7.9175      0.00000
     12       8.3194      0.00000
     13       9.7723      0.00000
     14      12.1212      0.00000

 k-point    26 :      -0.4444    0.1111    0.2500
  band No.  band energies     occupation 
      1      -6.7627      2.00000
      2      -5.5936      2.00000
      3      -4.0244      2.00000
      4       0.5709      2.00000
      5       1.3149      2.00000
      6       2.3314      2.00000
      7       3.3107      2.00000
      8       4.6085      2.00000
      9       5.0949      2.00000
     10       6.5611      0.00000
     11       7.4325      0.00000
     12       7.9557      0.00000
     13       9.6707      0.00000
     14      12.0881      0.00000

 k-point    27 :      -0.3333    0.1111    0.2500
  band No.  band energies     occupation 
      1      -7.0760      2.00000
      2      -5.6575      2.00000
      3      -3.7172      2.00000
      4       1.0071      2.00000
      5       1.5603      2.00000
      6       2.5555      2.00000
      7       3.5207      2.00000
      8       4.7983      2.00000
      9       5.4131      2.00000
     10       6.3262      0.00000
     11       7.0731      0.00000
     12       7.7761      0.00000
     13       9.7144      0.00000
     14      11.4702      0.00000

 k-point    28 :       0.2222    0.2222    0.2500
  band No.  band energies     occupation 
      1      -6.8077      2.00000
      2      -5.5312      2.00000
      3      -4.0795      2.00000
      4       0.8121      2.00000
      5       1.4112      2.00000
      6       2.3230      2.00000
      7       2.8609      2.00000
      8       4.4045      2.00000
      9       5.2753      2.00000
     10       6.6375      0.00000
     11       7.4855      0.00000
     12       8.5495      0.00000
     13      10.3218      0.00000
     14      10.8921      0.00000

 k-point    29 :       0.3333    0.2222    0.2500
  band No.  band energies     occupation 
      1      -6.5827      2.00000
      2      -5.4634      2.00000
      3      -4.3378      2.00000
      4       0.7787      2.00000
      5       1.0710      2.00000
      6       1.9892      2.00000
      7       3.0658      2.00000
      8       4.0372      2.00000
      9       5.0795      2.00000
     10       6.8892      0.00000
     11       8.0015      0.00000
     12       8.5458      0.00000
     13      10.3616      0.00000
     14      11.4467      0.00000

 k-point    30 :       0.4444    0.2222    0.2500
  band No.  band energies     occupation 
      1      -6.5751      2.00000
      2      -5.4963      2.00000
      3      -4.2977      2.00000
      4       0.6395      2.00000
      5       1.1390      2.00000
      6       2.0053      2.00000
      7       3.0257      2.00000
      8       4.3120      2.00000
      9       4.9576      2.00000
     10       7.0048      0.00000
     11       7.7808      0.00000
     12       8.4248      0.00000
     13      10.2948      0.00000
     14      11.6655      0.00000

 k-point    31 :       0.3333    0.3333    0.2500
  band No.  band energies     occupation 
      1      -6.4914      2.00000
      2      -5.4536      2.00000
      3      -4.4132      2.00000
      4       0.7262      2.00000
      5       1.0443      2.00000
      6       1.6720      2.00000
      7       3.2140      2.00000
      8       4.2316      2.00000
      9       4.6856      2.00000
     10       7.4400      0.00000
     11       8.1065      0.00000
     12       8.1906      0.00000
     13      11.0871      0.00000
     14      11.3790      0.00000

 k-point    32 :       0.0000    0.0000    0.5000
  band No.  band energies     occupation 
      1      -6.9236      2.00000
      2      -6.9236      2.00000
      3      -2.4844      2.00000
      4       1.7435      2.00000
      5       3.1422      2.00000
      6       3.1422      2.00000
      7       4.4409      2.00000
      8       4.7308      2.00000
      9       4.7308      2.00000
     10       6.2764      0.00000
     11       6.3408      0.00000
     12       6.3408      0.00000
     13       9.7894      0.00000
     14      11.0959      0.00000

 k-point    33 :       0.1111    0.0000    0.5000
  band No.  band energies     occupation 
      1      -6.8640      2.00000
      2      -6.8479      2.00000
      3      -2.6526      2.00000
      4       1.7039      2.00000
      5       2.9491      2.00000
      6       3.0373      2.00000
      7       4.0019      2.00000
      8       4.3473      2.00000
      9       4.5934      2.00000
     10       6.5127      0.00000
     11       6.7258      0.00000
     12       7.1186      0.00000
     13      10.0201      0.00000
     14      10.7804      0.00000

 k-point    34 :       0.2222    0.0000    0.5000
  band No.  band energies     occupation 
      1      -6.7033      2.00000
      2      -6.6313      2.00000
      3      -3.0902      2.00000
      4       1.4089      2.00000
      5       2.3609      2.00000
      6       2.7414      2.00000
      7       3.8034      2.00000
      8       3.9574      2.00000
      9       4.4301      2.00000
     10       6.9187      0.00000
     11       7.4314      0.00000
     12       7.8706      0.00000
     13      10.2620      0.00000
     14      10.9256      0.00000

 k-point    35 :       0.3333   -0.0000    0.5000
  band No.  band energies     occupation 
      1      -6.5008      2.00000
      2      -6.3170      2.00000
      3      -3.6369      2.00000
      4       0.7311      2.00000
      5       2.0959      2.00000
      6       2.4254      2.00000
      7       3.5755      2.00000
      8       3.8281      2.00000
      9       4.7167      2.00000
     10       7.1172      0.00000
     11       7.7130      0.00000
     12       8.0025      0.00000
     13      10.2730      0.00000
     14      11.2317      0.00000

 k-point    36 :       0.4444    0.0000    0.5000
  band No.  band energies     occupation 
      1      -6.3540      2.00000
      2      -6.0328      2.00000
      3      -4.0638      2.00000
      4       0.2417      2.00000
      5       2.0663      2.00000
      6       2.1961      2.00000
      7       3.4153      2.00000
      8       3.7381      2.00000
      9       5.3287      2.00000
     10       6.6420      0.00000
     11       7.6180      0.00000
     12       8.2488      0.00000
     13      10.2950      0.00000
     14      11.0798      0.00000

 k-point    37 :       0.1111    0.1111    0.5000
  band No.  band energies     occupation 
      1      -6.7501      2.00000
      2      -6.7050      2.00000
      3      -2.9530      2.00000
      4       1.5564      2.00000
      5       2.5866      2.00000
      6       2.6547      2.00000
      7       3.7707      2.00000
      8       3.9625      2.00000
      9       4.8159      2.00000
     10       6.4453      0.00000
     11       7.5131      0.00000
     12       7.6958      0.00000
     13      10.4358      0.00000
     14      10.5178      0.00000

 k-point    38 :       0.2222    0.1111    0.5000
  band No.  band energies     occupation 
      1      -6.5576      2.00000
      2      -6.4462      2.00000
      3      -3.4355      2.00000
      4       1.0912      2.00000
      5       1.9952      2.00000
      6       2.1998      2.00000
      7       3.7678      2.00000
      8       4.1152      2.00000
      9       4.8213      2.00000
     10       6.7408      0.00000
     11       7.7987      0.00000
     12       7.9686      0.00000
     13      10.3328      0.00000
     14      11.1260      0.00000

 k-point    39 :       0.3333    0.1111    0.5000
  band No.  band energies     occupation 
      1      -6.3687      2.00000
      2      -6.1432      2.00000
      3      -3.9196      2.00000
      4       0.4913      2.00000
      5       1.7277      2.00000
      6       1.8776      2.00000
      7       3.8539      2.00000
      8       4.2010      2.00000
      9       5.0915      2.00000
     10       6.8672      0.00000
     11       7.4803      0.00000
     12       8.0380      0.00000
     13      10.3587      0.00000
     14      11.3175      0.00000

 k-point    40 :       0.4444    0.1111    0.5000
  band No.  band energies     occupation 
      1      -6.2878      2.00000
      2      -5.9845      2.00000
      3      -4.1464      2.00000
      4       0.2409      2.00000
      5       1.6864      2.00000
      6       1.7293      2.00000
      7       3.9841      2.00000
      8       4.0530      2.00000
      9       5.5437      2.00000
     10       6.4612      0.00000
     11       7.4680      0.00000
     12       8.0562      0.00000
     13      10.4282      0.00000
     14      11.1240      0.00000

 k-point    41 :       0.2222    0.2222    0.5000
  band No.  band energies     occupation 
      1      -6.3533      2.00000
      2      -6.2117      2.00000
      3      -3.8458      2.00000
      4       0.7798      2.00000
      5       1.3433      2.00000
      6       1.6387      2.00000
      7       4.1525      2.00000
      8       4.5216      2.00000
      9       5.2276      2.00000
     10       6.5825      0.00000
     11       7.6726      0.00000
     12       7.7272      0.00000
     13      10.5928      0.00000
     14      11.4421      0.00000

 k-point    42 :       0.3333    0.2222    0.5000
  band No.  band energies     occupation 
      1      -6.1948      2.00000
      2      -6.0262      2.00000
      3      -4.1459      2.00000
      4       0.4831      2.00000
      5       1.0974      2.00000
      6       1.2571      2.00000
      7       4.4631      2.00000
      8       4.9061      2.00000
      9       5.5194      2.00000
     10       6.4369      0.00000
     11       7.2234      0.00000
     12       7.5505      0.00000
     13      10.9273      0.00000
     14      11.6362      0.00000

 k-point    43 :       0.3333    0.3333    0.5000
  band No.  band energies     occupation 
      1      -6.0507      2.00000
      2      -6.0507      2.00000
      3      -4.2282      2.00000
      4       0.6404      2.00000
      5       0.8554      2.00000
      6       0.8554      2.00000
      7       4.7031      2.00000
      8       5.7168      1.94593
      9       5.7168      1.94593
     10       5.8417      0.10815
     11       7.1453      0.00000
     12       7.1453      0.00000
     13      11.6315      0.00000
     14      12.2525      0.00000


--------------------------------------------------------------------------------------------------------


 soft charge-density along one line, spin component           1
         0         1         2         3         4         5         6         7         8         9
 total charge-density along one line
 
 pseudopotential strength for first ion, spin component:           1
 51.726  56.279  -0.000  -0.000  -0.054  -0.000  -0.000  -0.078
 56.279  61.236  -0.000  -0.000  -0.059  -0.000  -0.000  -0.085
 -0.000  -0.000  12.731   0.010   0.000  18.351   0.014   0.000
 -0.000  -0.000   0.010  12.748   0.000   0.014  18.376   0.000
 -0.054  -0.059   0.000   0.000  12.748   0.000   0.000  18.375
 -0.000  -0.000  18.351   0.014   0.000  26.462   0.021   0.000
 -0.000  -0.000   0.014  18.376   0.000   0.021  26.498   0.000
 -0.078  -0.085   0.000   0.000  18.375   0.000   0.000  26.496
  0.000   0.000  -0.011   0.000  -0.000  -0.016   0.000  -0.000
  0.016   0.017   0.000  -0.000   0.000   0.000  -0.000   0.000
  0.008   0.009   0.000  -0.000   0.006   0.000  -0.000   0.009
  0.000   0.000   0.000  -0.010  -0.000   0.000  -0.015  -0.000
  0.013   0.014   0.000  -0.000  -0.010   0.000  -0.000  -0.015
 total augmentation occupancy for first ion, spin component:           1
 13.129  -9.612   0.000  -0.000   2.344   0.000   0.000  -0.631   0.000  -0.173  -0.110   0.000  -0.120
 -9.612   8.307   0.000  -0.000  -1.971   0.000   0.000   0.541   0.000   0.158   0.099   0.000   0.109
  0.000   0.000   2.549   0.258   0.000  -0.485  -0.214  -0.000  -0.059   0.000   0.000  -0.053   0.000
 -0.000   0.000   0.258   2.971   0.000  -0.214  -0.843   0.000  -0.051   0.000   0.000  -0.134   0.000
  2.344  -1.971   0.000   0.000   2.821   0.000   0.000  -0.754   0.000  -0.058  -0.019   0.000  -0.059
  0.000   0.000  -0.485  -0.214   0.000   0.174   0.083   0.000   0.014   0.000   0.000   0.020   0.000
  0.000   0.000  -0.214  -0.843   0.000   0.083   0.308   0.000   0.020   0.000   0.000   0.042   0.000
 -0.631   0.541   0.000   0.000  -0.754   0.000   0.000   0.264   0.000   0.017   0.005   0.000   0.015
  0.000   0.000  -0.059  -0.051   0.000   0.014   0.020   0.000   0.009   0.000   0.000   0.010   0.000
 -0.173   0.158   0.000   0.000  -0.058   0.000   0.000   0.017   0.000   0.014   0.004  -0.000   0.003
 -0.110   0.099   0.000   0.000  -0.019   0.000   0.000   0.005   0.000   0.004   0.008   0.000  -0.001
  0.000   0.000  -0.053  -0.134   0.000   0.020   0.042  -0.000   0.010  -0.000  -0.000   0.026   0.000
 -0.120   0.109   0.000   0.000  -0.059   0.000   0.000   0.015   0.000   0.003  -0.001   0.000   0.010


------------------------ aborting loop because EDIFF is reached ----------------------------------------


    CHARGE:  cpu time    0.0249: real time    0.0250
    FORLOC:  cpu time    0.0009: real time    0.0009
    FORNL :  cpu time    0.0948: real time    0.0950
    STRESS:  cpu time    0.2067: real time    0.2073
    FORCOR:  cpu time    0.0172: real time    0.0173
    FORHAR:  cpu time    0.0038: real time    0.0038
    MIXING:  cpu time    0.0007: real time    0.0007
    OFIELD:  cpu time    0.0000: real time    0.0000

  Number of pair interactions contributing to vdW energy:   30354
  Edisp (eV):   -0.91434
    FORVDW:  cpu time    0.0017: real time    0.0016

  FORCE on cell =-STRESS in cart. coord.  units (eV):
  Direction    XX          YY          ZZ          XY          YZ          ZX
  --------------------------------------------------------------------------------------
  Alpha Z     2.25885     2.25885     2.25885
  Ewald    -238.15314  -238.15314  -193.98563    -0.00000    -0.00001     0.00000
  Hartree    11.28033    11.28033    22.53113     0.00000     0.00000    -0.00000
  E(xc)     -70.42171   -70.42171   -69.92150    -0.00000     0.00000    -0.00000
  Local    -111.93569  -111.93574  -157.25519    -0.00004     0.00000    -0.00000
  n-local   332.42996   333.20288   328.48661    -1.26143    -0.73884    -1.27389
  augment   -81.12211   -81.12206   -78.68560     0.00004     0.00000     0.00000
  Kinetic   152.75482   159.19211   147.30270    -7.28041     0.13655     1.40989
  Fock        0.00000     0.00000     0.00000     0.00000     0.00000     0.00000
  vdW        -1.00834    -1.00834    -0.83759     0.00000    -0.00000     0.00000
  -------------------------------------------------------------------------------------
  Total      -0.31192    -0.31192    -0.10623     0.00000     0.00000    -0.00000
  in kB      -4.82931    -4.82931    -1.64472     0.00000     0.00000    -0.00000
  external pressure =       -3.77 kB  Pullay stress =        0.00 kB


 VOLUME and BASIS-vectors are now :
 -----------------------------------------------------------------------------
  energy-cutoff  :      520.00
  volume of cell :      103.48
      direct lattice vectors                 reciprocal lattice vectors
     4.469391625  0.000000000 -0.000000000     0.223744099  0.129178716  0.000000000
    -2.234695812  3.870606686  0.000000000     0.000000000  0.258357431  0.000000000
     0.000000000  0.000000000  5.981947108     0.000000000  0.000000000  0.167169649

  length of vectors
     4.469391625  4.469391625  5.981947108     0.258357431  0.258357431  0.167169649


 FORCES acting on ions
    electron-ion (+dipol)            ewald-force                    non-local-force                 convergence-correction
 -----------------------------------------------------------------------------------------------
   -.128E+02 0.119E-04 -.121E-05   0.183E+02 0.148E-05 0.179E-05   -.525E+01 -.555E-16 0.833E-16   0.364E-03 -.602E-09 -.197E-09
   0.642E+01 -.111E+02 -.182E-04   -.915E+01 0.158E+02 -.864E-05   0.263E+01 -.455E+01 -.555E-16   -.182E-03 0.315E-03 0.589E-08
   0.642E+01 0.111E+02 0.191E-04   -.915E+01 -.158E+02 0.685E-05   0.263E+01 0.455E+01 0.000E+00   -.182E-03 -.315E-03 -.570E-08
 -----------------------------------------------------------------------------------------------
   0.255E-04 -.749E-05 -.336E-06   0.000E+00 0.000E+00 0.000E+00   0.444E-15 0.888E-15 0.278E-16   -.671E-09 -.139E-08 -.860E-11
 
 
 POSITION                                       TOTAL-FORCE (eV/Angst)
 -----------------------------------------------------------------------------------
      1.17964      0.00000      1.99398         0.092690     -0.000000     -0.000000
     -0.58982      1.02160      3.98796        -0.046345      0.080272      0.000000
      1.64487      2.84901     -0.00000        -0.046345     -0.080272      0.000000
 -----------------------------------------------------------------------------------
    total drift:                                0.000026     -0.000007     -0.000000


--------------------------------------------------------------------------------------------------------



  FREE ENERGIE OF THE ION-ELECTRON SYSTEM (eV)
  ---------------------------------------------------
  free  energy   TOTEN  =       -10.32787032 eV

  energy  without entropy=      -10.32776794  energy(sigma->0) =      -10.32781913
 
 d Force =-0.6235003E-03[-0.841E-03,-0.406E-03]  d Energy = 0.7836950E-03-0.141E-02
 d Force =-0.1644265E+00[-0.166E+00,-0.163E+00]  d Ewald  = 0.8071546E+00-0.972E+00


--------------------------------------------------------------------------------------------------------


    POTLOK:  cpu time    0.0190: real time    0.0192


--------------------------------------------------------------------------------------------------------




--------------------------------------------------------------------------------------------------------


    WAVPRE:  cpu time    0.0038: real time    0.0066
    FEWALD:  cpu time    0.0001: real time    0.0001
    GENKIN:  cpu time    0.0058: real time    0.0059
    ORTHCH:  cpu time    0.0179: real time    0.0180
     LOOP+:  cpu time    2.1446: real time    2.1598


--------------------------------------- Iteration      4(   1)  ---------------------------------------


    POTLOK:  cpu time    0.0171: real time    0.0182
    SETDIJ:  cpu time    0.0021: real time    0.0021
     EDDAV:  cpu time    0.3090: real time    0.3101
       DOS:  cpu time    0.0006: real time    0.0005
    CHARGE:  cpu time    0.0248: real time    0.0249
    MIXING:  cpu time    0.0005: real time    0.0005
    --------------------------------------------
      LOOP:  cpu time    0.3541: real time    0.3564

 eigenvalue-minimisations  :  1204
 total energy-change (2. order) :-0.1360165E-02  (-0.1711042E-01)
 number of electron      17.9999990 magnetization 
 augmentation part       -3.6008512 magnetization 

 Broyden mixing:
  rms(total) = 0.28812E-01    rms(broyden)= 0.28812E-01
  rms(prec ) = 0.46882E-01
  weight for this iteration     100.00

 Free energy of the ion-electron system (eV)
  ---------------------------------------------------
  alpha Z        PSCENC =         2.27491563
  Ewald energy   TEWEN  =      -672.39867304
  -Hartree energ DENC   =       -44.90807645
  -exchange      EXHF   =         0.00000000
  -V(xc)+E(xc)   XCENC  =       -84.00862018
  PAW double counting   =      1523.23038103    -1407.87867844
  entropy T*S    EENTRO =        -0.00016050
  eigenvalues    EBANDS =         4.45971313
  atomic energy  EATOM  =       669.81430600
  Solvation  Ediel_sol  =         0.00000000
  ---------------------------------------------------
  free energy    TOTEN  =        -9.41489283 eV

  energy without entropy =       -9.41473233  energy(sigma->0) =       -9.41481258


--------------------------------------------------------------------------------------------------------




--------------------------------------- Iteration      4(   2)  ---------------------------------------


    POTLOK:  cpu time    0.0169: real time    0.0170
    SETDIJ:  cpu time    0.0023: real time    0.0022
     EDDAV:  cpu time    0.3299: real time    0.3310
       DOS:  cpu time    0.0006: real time    0.0006
    CHARGE:  cpu time    0.0252: real time    0.0253
    MIXING:  cpu time    0.0006: real time    0.0006
    --------------------------------------------
      LOOP:  cpu time    0.3754: real time    0.3766

 eigenvalue-minimisations  :  1300
 total energy-change (2. order) : 0.1303833E-02  (-0.7027648E-03)
 number of electron      17.9999990 magnetization 
 augmentation part       -3.6013100 magnetization 

 Broyden mixing:
  rms(total) = 0.14073E-01    rms(broyden)= 0.14073E-01
  rms(prec ) = 0.25948E-01
  weight for this iteration     100.00

 eigenvalues of (default mixing * dielectric matrix)
  average eigenvalue GAMMA=   1.0569
  1.0569

 Free energy of the ion-electron system (eV)
  ---------------------------------------------------
  alpha Z        PSCENC =         2.27491563
  Ewald energy   TEWEN  =      -672.39867304
  -Hartree energ DENC   =       -44.62885349
  -exchange      EXHF   =         0.00000000
  -V(xc)+E(xc)   XCENC  =       -84.00519257
  PAW double counting   =      1519.85600747    -1404.49984942
  entropy T*S    EENTRO =        -0.00016673
  eigenvalues    EBANDS =         4.17391716
  atomic energy  EATOM  =       669.81430600
  Solvation  Ediel_sol  =         0.00000000
  ---------------------------------------------------
  free energy    TOTEN  =        -9.41358900 eV

  energy without entropy =       -9.41342227  energy(sigma->0) =       -9.41350563


--------------------------------------------------------------------------------------------------------




--------------------------------------- Iteration      4(   3)  ---------------------------------------


    POTLOK:  cpu time    0.0175: real time    0.0175
    SETDIJ:  cpu time    0.0022: real time    0.0022
     EDDAV:  cpu time    0.3483: real time    0.3494
       DOS:  cpu time    0.0006: real time    0.0006
    CHARGE:  cpu time    0.0256: real time    0.0257
    MIXING:  cpu time    0.0007: real time    0.0007
    --------------------------------------------
      LOOP:  cpu time    0.3949: real time    0.3962

 eigenvalue-minimisations  :  1438
 total energy-change (2. order) : 0.8267611E-03  (-0.1231181E-03)
 number of electron      17.9999990 magnetization 
 augmentation part       -3.6058664 magnetization 

 Broyden mixing:
  rms(total) = 0.93892E-02    rms(broyden)= 0.93892E-02
  rms(prec ) = 0.11847E-01
  weight for this iteration     100.00

 eigenvalues of (default mixing * dielectric matrix)
  average eigenvalue GAMMA=   1.0019
  1.0019  1.0019

 Free energy of the ion-electron system (eV)
  ---------------------------------------------------
  alpha Z        PSCENC =         2.27491563
  Ewald energy   TEWEN  =      -672.39867304
  -Hartree energ DENC   =       -44.39699181
  -exchange      EXHF   =         0.00000000
  -V(xc)+E(xc)   XCENC  =       -83.99812516
  PAW double counting   =      1523.46801898    -1408.10971060
  entropy T*S    EENTRO =        -0.00017301
  eigenvalues    EBANDS =         3.93367078
  atomic energy  EATOM  =       669.81430600
  Solvation  Ediel_sol  =         0.00000000
  ---------------------------------------------------
  free energy    TOTEN  =        -9.41276224 eV

  energy without entropy =       -9.41258923  energy(sigma->0) =       -9.41267573


--------------------------------------------------------------------------------------------------------




--------------------------------------- Iteration      4(   4)  ---------------------------------------


    POTLOK:  cpu time    0.0171: real time    0.0171
    SETDIJ:  cpu time    0.0022: real time    0.0022
     EDDAV:  cpu time    0.3454: real time    0.3464
       DOS:  cpu time    0.0006: real time    0.0006
    CHARGE:  cpu time    0.0252: real time    0.0253
    MIXING:  cpu time    0.0009: real time    0.0009
    --------------------------------------------
      LOOP:  cpu time    0.3913: real time    0.3925

 eigenvalue-minimisations  :  1330
 total energy-change (2. order) : 0.7584253E-04  (-0.1252276E-04)
 number of electron      17.9999990 magnetization 
 augmentation part       -3.6075848 magnetization 

 Broyden mixing:
  rms(total) = 0.11378E-01    rms(broyden)= 0.11378E-01
  rms(prec ) = 0.11808E-01
  weight for this iteration     100.00

 eigenvalues of (default mixing * dielectric matrix)
  average eigenvalue GAMMA=   2.1968
  1.0564  2.7670  2.7670

 Free energy of the ion-electron system (eV)
  ---------------------------------------------------
  alpha Z        PSCENC =         2.27491563
  Ewald energy   TEWEN  =      -672.39867304
  -Hartree energ DENC   =       -44.33390287
  -exchange      EXHF   =         0.00000000
  -V(xc)+E(xc)   XCENC  =       -83.99557993
  PAW double counting   =      1525.55829306    -1410.20146636
  entropy T*S    EENTRO =        -0.00017305
  eigenvalues    EBANDS =         3.86959418
  atomic energy  EATOM  =       669.81430600
  Solvation  Ediel_sol  =         0.00000000
  ---------------------------------------------------
  free energy    TOTEN  =        -9.41268639 eV

  energy without entropy =       -9.41251334  energy(sigma->0) =       -9.41259987


--------------------------------------------------------------------------------------------------------




--------------------------------------- Iteration      4(   5)  ---------------------------------------


    POTLOK:  cpu time    0.0183: real time    0.0183
    SETDIJ:  cpu time    0.0026: real time    0.0026
     EDDAV:  cpu time    0.3302: real time    0.3314
       DOS:  cpu time    0.0006: real time    0.0006
    CHARGE:  cpu time    0.0258: real time    0.0259
    MIXING:  cpu time    0.0008: real time    0.0008
    --------------------------------------------
      LOOP:  cpu time    0.3783: real time    0.3796

 eigenvalue-minimisations  :  1210
 total energy-change (2. order) : 0.1508379E-04  (-0.3171328E-05)
 number of electron      17.9999990 magnetization 
 augmentation part       -3.6083846 magnetization 

 Broyden mixing:
  rms(total) = 0.69221E-02    rms(broyden)= 0.69221E-02
  rms(prec ) = 0.70424E-02
  weight for this iteration     100.00

 eigenvalues of (default mixing * dielectric matrix)
  average eigenvalue GAMMA=   1.7212
  2.8416  1.0015  1.0670  1.9747

 Free energy of the ion-electron system (eV)
  ---------------------------------------------------
  alpha Z        PSCENC =         2.27491563
  Ewald energy   TEWEN  =      -672.39867304
  -Hartree energ DENC   =       -44.30007009
  -exchange      EXHF   =         0.00000000
  -V(xc)+E(xc)   XCENC  =       -83.99469851
  PAW double counting   =      1529.61060461    -1414.26094687
  entropy T*S    EENTRO =        -0.00017046
  eigenvalues    EBANDS =         3.84206143
  atomic energy  EATOM  =       669.81430600
  Solvation  Ediel_sol  =         0.00000000
  ---------------------------------------------------
  free energy    TOTEN  =        -9.41267131 eV

  energy without entropy =       -9.41250085  energy(sigma->0) =       -9.41258608


--------------------------------------------------------------------------------------------------------




--------------------------------------- Iteration      4(   6)  ---------------------------------------


    POTLOK:  cpu time    0.0183: real time    0.0184
    SETDIJ:  cpu time    0.0023: real time    0.0023
     EDDAV:  cpu time    0.2301: real time    0.2309
       DOS:  cpu time    0.0005: real time    0.0005
    --------------------------------------------
      LOOP:  cpu time    0.2513: real time    0.2521

 eigenvalue-minimisations  :   668
 total energy-change (2. order) : 0.2332023E-05  (-0.9876612E-06)
 number of electron      17.9999990 magnetization 
 augmentation part       -3.6083846 magnetization 

 Free energy of the ion-electron system (eV)
  ---------------------------------------------------
  alpha Z        PSCENC =         2.27491563
  Ewald energy   TEWEN  =      -672.39867304
  -Hartree energ DENC   =       -44.28405937
  -exchange      EXHF   =         0.00000000
  -V(xc)+E(xc)   XCENC  =       -83.99415436
  PAW double counting   =      1529.27829949    -1413.92657912
  entropy T*S    EENTRO =        -0.00017195
  eigenvalues    EBANDS =         3.82344776
  atomic energy  EATOM  =       669.81430600
  Solvation  Ediel_sol  =         0.00000000
  ---------------------------------------------------
  free energy    TOTEN  =        -9.41266898 eV

  energy without entropy =       -9.41249703  energy(sigma->0) =       -9.41258300


--------------------------------------------------------------------------------------------------------




 average (electrostatic) potential at core
  the test charge radii are     1.1897
  (the norm of the test charge is              1.0000)
       1 -89.1282       2 -89.1282       3 -89.1282
 
 
 
 E-fermi :   5.8635     XC(G=0):  -9.0284     alpha+bet :-10.4657


 k-point     1 :       0.0000    0.0000    0.0000
  band No.  band energies     occupation 
      1      -7.7390      2.00000
      2      -4.4884      2.00000
      3      -4.4884      2.00000
      4       2.8351      2.00000
      5       3.0902      2.00000
      6       3.0902      2.00000
      7       4.2187      2.00000
      8       4.2187      2.00000
      9       5.0831      2.00000
     10       6.8190      0.00000
     11       6.8190      0.00000
     12       7.4989      0.00000
     13      10.7783      0.00000
     14      10.7783      0.00000

 k-point     2 :       0.1111    0.0000    0.0000
  band No.  band energies     occupation 
      1      -7.6572      2.00000
      2      -4.5103      2.00000
      3      -4.4640      2.00000
      4       2.1994      2.00000
      5       2.6794      2.00000
      6       2.9544      2.00000
      7       4.4553      2.00000
      8       4.7587      2.00000
      9       5.2055      2.00000
     10       6.5770      0.00000
     11       6.7674      0.00000
     12       7.3905      0.00000
     13      10.5709      0.00000
     14      10.7579      0.00000

 k-point     3 :       0.2222    0.0000    0.0000
  band No.  band energies     occupation 
      1      -7.4235      2.00000
      2      -4.6132      2.00000
      3      -4.3976      2.00000
      4       1.4145      2.00000
      5       2.1097      2.00000
      6       2.6113      2.00000
      7       4.5124      2.00000
      8       4.8350      2.00000
      9       5.0291      2.00000
     10       6.6986      0.00000
     11       6.8923      0.00000
     12       7.5474      0.00000
     13       9.8659      0.00000
     14      11.0204      0.00000

 k-point     4 :       0.3333   -0.0000    0.0000
  band No.  band energies     occupation 
      1      -7.0852      2.00000
      2      -4.8474      2.00000
      3      -4.3142      2.00000
      4       1.0249      2.00000
      5       1.6614      2.00000
      6       2.3176      2.00000
      7       3.4779      2.00000
      8       4.8422      2.00000
      9       5.0275      2.00000
     10       6.6996      0.00000
     11       6.8829      0.00000
     12       8.5715      0.00000
     13       9.2378      0.00000
     14      11.8204      0.00000

 k-point     5 :       0.4444    0.0000    0.0000
  band No.  band energies     occupation 
      1      -6.7788      2.00000
      2      -5.1154      2.00000
      3      -4.2552      2.00000
      4       0.9821      2.00000
      5       1.4590      2.00000
      6       2.2326      2.00000
      7       2.6019      2.00000
      8       4.7769      2.00000
      9       5.0101      2.00000
     10       6.7005      0.00000
     11       6.8095      0.00000
     12       8.8988      0.00000
     13       9.3694      0.00000
     14      12.9143      0.00000

 k-point     6 :       0.1111    0.1111    0.0000
  band No.  band energies     occupation 
      1      -7.4991      2.00000
      2      -4.5585      2.00000
      3      -4.4341      2.00000
      4       1.6699      2.00000
      5       2.0140      2.00000
      6       2.9966      2.00000
      7       4.2935      2.00000
      8       5.0223      2.00000
      9       5.0675      2.00000
     10       6.6174      0.00000
     11       6.9230      0.00000
     12       7.4503      0.00000
     13      10.3624      0.00000
     14      10.4589      0.00000

 k-point     7 :       0.2222    0.1111    0.0000
  band No.  band energies     occupation 
      1      -7.2099      2.00000
      2      -4.7035      2.00000
      3      -4.3937      2.00000
      4       1.1873      2.00000
      5       1.5759      2.00000
      6       2.7099      2.00000
      7       4.0059      2.00000
      8       4.3586      2.00000
      9       4.7636      2.00000
     10       7.0530      0.00000
     11       7.3617      0.00000
     12       7.9483      0.00000
     13       9.7993      0.00000
     14      10.7653      0.00000

 k-point     8 :       0.3333    0.1111    0.0000
  band No.  band energies     occupation 
      1      -6.8707      2.00000
      2      -4.9595      2.00000
      3      -4.3520      2.00000
      4       1.0314      2.00000
      5       1.4155      2.00000
      6       2.3725      2.00000
      7       3.0465      2.00000
      8       4.3042      2.00000
      9       4.5199      2.00000
     10       7.1643      0.00000
     11       7.4319      0.00000
     12       8.9434      0.00000
     13       9.3837      0.00000
     14      11.6962      0.00000

 k-point     9 :       0.4444    0.1111    0.0000
  band No.  band energies     occupation 
      1      -6.6915      2.00000
      2      -5.1183      2.00000
      3      -4.3340      2.00000
      4       1.0524      2.00000
      5       1.4161      2.00000
      6       2.3948      2.00000
      7       2.4137      2.00000
      8       4.3075      2.00000
      9       4.4192      2.00000
     10       7.1696      0.00000
     11       7.4456      0.00000
     12       9.2344      0.00000
     13       9.4006      0.00000
     14      12.6578      0.00000

 k-point    10 :       0.2222    0.2222    0.0000
  band No.  band energies     occupation 
      1      -6.9091      2.00000
      2      -4.8196      2.00000
      3      -4.4729      2.00000
      4       1.1490      2.00000
      5       1.2663      2.00000
      6       2.6651      2.00000
      7       3.5132      2.00000
      8       3.8389      2.00000
      9       3.8971      2.00000
     10       7.8008      0.00000
     11       8.0861      0.00000
     12       8.3012      0.00000
     13      10.1727      0.00000
     14      10.5692      0.00000

 k-point    11 :       0.3333    0.2222    0.0000
  band No.  band energies     occupation 
      1      -6.6510      2.00000
      2      -4.9603      2.00000
      3      -4.5485      2.00000
      4       1.1969      2.00000
      5       1.3391      2.00000
      6       2.5075      2.00000
      7       2.8184      2.00000
      8       3.5332      2.00000
      9       3.6204      2.00000
     10       8.0263      0.00000
     11       8.3515      0.00000
     12       9.0300      0.00000
     13      10.1213      0.00000
     14      11.4571      0.00000

 k-point    12 :       0.3333    0.3333    0.0000
  band No.  band energies     occupation 
      1      -6.5538      2.00000
      2      -4.8034      2.00000
      3      -4.8034      2.00000
      4       1.3455      2.00000
      5       1.3455      2.00000
      6       2.7808      2.00000
      7       2.7808      2.00000
      8       2.9513      2.00000
      9       3.1858      2.00000
     10       8.6609      0.00000
     11       8.6609      0.00000
     12       8.9883      0.00000
     13      10.7344      0.00000
     14      11.7393      0.00000

 k-point    13 :       0.0000    0.0000    0.2500
  band No.  band energies     occupation 
      1      -7.5177      2.00000
      2      -5.8225      2.00000
      3      -3.1119      2.00000
      4       2.3312      2.00000
      5       2.9609      2.00000
      6       3.3819      2.00000
      7       4.3827      2.00000
      8       4.4231      2.00000
      9       5.0386      2.00000
     10       6.5335      0.00000
     11       6.5582      0.00000
     12       7.0011      0.00000
     13      10.2170      0.00000
     14      11.3577      0.00000

 k-point    14 :       0.1111    0.0000    0.2500
  band No.  band energies     occupation 
      1      -7.4392      2.00000
      2      -5.7716      2.00000
      3      -3.2102      2.00000
      4       2.0711      2.00000
      5       2.7860      2.00000
      6       3.2360      2.00000
      7       4.1215      2.00000
      8       4.5169      2.00000
      9       4.6907      2.00000
     10       6.8031      0.00000
     11       6.9133      0.00000
     12       7.3432      0.00000
     13      10.3224      0.00000
     14      11.3140      0.00000

 k-point    15 :       0.2222    0.0000    0.2500
  band No.  band energies     occupation 
      1      -7.2190      2.00000
      2      -5.6262      2.00000
      3      -3.5221      2.00000
      4       1.7174      2.00000
      5       2.3728      2.00000
      6       2.9600      2.00000
      7       3.4624      2.00000
      8       4.0704      2.00000
      9       4.6005      2.00000
     10       7.1156      0.00000
     11       7.7011      0.00000
     12       8.1177      0.00000
     13      10.6146      0.00000
     14      11.0358      0.00000

 k-point    16 :       0.3333   -0.0000    0.2500
  band No.  band energies     occupation 
      1      -6.9081      2.00000
      2      -5.4456      2.00000
      3      -3.9552      2.00000
      4       1.3994      2.00000
      5       1.7995      2.00000
      6       2.6375      2.00000
      7       3.0064      2.00000
      8       4.0523      2.00000
      9       4.4908      2.00000
     10       7.1607      0.00000
     11       7.8500      0.00000
     12       8.9114      0.00000
     13      10.1834      0.00000
     14      11.4612      0.00000

 k-point    17 :       0.4444    0.0000    0.2500
  band No.  band energies     occupation 
      1      -6.6260      2.00000
      2      -5.4036      2.00000
      3      -4.1994      2.00000
      4       0.8556      2.00000
      5       1.4738      2.00000
      6       2.3606      2.00000
      7       3.4087      2.00000
      8       4.0796      2.00000
      9       4.4078      2.00000
     10       7.0633      0.00000
     11       7.8016      0.00000
     12       8.7357      0.00000
     13       9.7522      0.00000
     14      11.8338      0.00000

 k-point    18 :      -0.4444   -0.0000    0.2500
  band No.  band energies     occupation 
      1      -6.5983      2.00000
      2      -5.5228      2.00000
      3      -4.0414      2.00000
      4       0.5463      2.00000
      5       1.3729      2.00000
      6       2.3271      2.00000
      7       4.0830      2.00000
      8       4.2004      2.00000
      9       4.5156      2.00000
     10       6.9468      0.00000
     11       7.6137      0.00000
     12       8.0148      0.00000
     13       9.4733      0.00000
     14      12.3431      0.00000

 k-point    19 :      -0.3333    0.0000    0.2500
  band No.  band energies     occupation 
      1      -6.8786      2.00000
      2      -5.5897      2.00000
      3      -3.7137      2.00000
      4       0.7494      2.00000
      5       1.4646      2.00000
      6       2.4786      2.00000
      7       4.3846      2.00000
      8       4.4350      2.00000
      9       5.2442      2.00000
     10       6.6441      0.00000
     11       7.2385      0.00000
     12       7.4397      0.00000
     13       9.3848      0.00000
     14      12.4086      0.00000

 k-point    20 :      -0.2222   -0.0000    0.2500
  band No.  band energies     occupation 
      1      -7.2088      2.00000
      2      -5.6785      2.00000
      3      -3.4040      2.00000
      4       1.4425      2.00000
      5       1.7624      2.00000
      6       2.7711      2.00000
      7       4.5936      2.00000
      8       4.7375      2.00000
      9       5.3627      2.00000
     10       6.4474      0.00000
     11       6.9370      0.00000
     12       7.1861      0.00000
     13       9.5820      0.00000
     14      11.8805      0.00000

 k-point    21 :      -0.1111   -0.0000    0.2500
  band No.  band energies     occupation 
      1      -7.4379      2.00000
      2      -5.7783      2.00000
      3      -3.1915      2.00000
      4       2.0899      2.00000
      5       2.4826      2.00000
      6       3.1375      2.00000
      7       4.5637      2.00000
      8       4.6802      2.00000
      9       4.9859      2.00000
     10       6.5130      0.00000
     11       6.5310      0.00000
     12       7.3251      0.00000
     13      10.0438      0.00000
     14      11.3428      0.00000

 k-point    22 :       0.1111    0.1111    0.2500
  band No.  band energies     occupation 
      1      -7.2864      2.00000
      2      -5.6896      2.00000
      3      -3.3775      2.00000
      4       1.7537      2.00000
      5       2.0959      2.00000
      6       2.9904      2.00000
      7       3.9824      2.00000
      8       4.5744      2.00000
      9       4.9653      2.00000
     10       6.7273      0.00000
     11       7.2938      0.00000
     12       7.5123      0.00000
     13      10.0876      0.00000
     14      11.3338      0.00000

 k-point    23 :       0.2222    0.1111    0.2500
  band No.  band energies     occupation 
      1      -7.0164      2.00000
      2      -5.5282      2.00000
      3      -3.7569      2.00000
      4       1.4108      2.00000
      5       1.8125      2.00000
      6       2.7942      2.00000
      7       3.0692      2.00000
      8       4.1591      2.00000
      9       5.0786      2.00000
     10       6.8726      0.00000
     11       7.6466      0.00000
     12       8.5514      0.00000
     13      10.4241      0.00000
     14      10.9068      0.00000

 k-point    24 :       0.3333    0.1111    0.2500
  band No.  band energies     occupation 
      1      -6.7071      2.00000
      2      -5.3943      2.00000
      3      -4.1406      2.00000
      4       1.1112      2.00000
      5       1.3761      2.00000
      6       2.4625      2.00000
      7       3.0853      2.00000
      8       3.8206      2.00000
      9       5.1012      2.00000
     10       6.8021      0.00000
     11       7.9600      0.00000
     12       8.8962      0.00000
     13      10.0609      0.00000
     14      11.5717      0.00000

 k-point    25 :       0.4444    0.1111    0.2500
  band No.  band energies     occupation 
      1      -6.5309      2.00000
      2      -5.4431      2.00000
      3      -4.2013      2.00000
      4       0.6868      2.00000
      5       1.2519      2.00000
      6       2.3634      2.00000
      7       3.3128      2.00000
      8       3.9555      2.00000
      9       5.1113      2.00000
     10       6.7316      0.00000
     11       8.0087      0.00000
     12       8.3944      0.00000
     13       9.8221      0.00000
     14      12.2089      0.00000

 k-point    26 :      -0.4444    0.1111    0.2500
  band No.  band energies     occupation 
      1      -6.6791      2.00000
      2      -5.5235      2.00000
      3      -3.9579      2.00000
      4       0.6158      2.00000
      5       1.3778      2.00000
      6       2.4008      2.00000
      7       3.3700      2.00000
      8       4.6881      2.00000
      9       5.1817      2.00000
     10       6.6278      0.00000
     11       7.4951      0.00000
     12       8.0466      0.00000
     13       9.7221      0.00000
     14      12.1912      0.00000

 k-point    27 :      -0.3333    0.1111    0.2500
  band No.  band energies     occupation 
      1      -7.0044      2.00000
      2      -5.5884      2.00000
      3      -3.6447      2.00000
      4       1.0639      2.00000
      5       1.6252      2.00000
      6       2.6269      2.00000
      7       3.5883      2.00000
      8       4.8992      2.00000
      9       5.5036      2.00000
     10       6.3887      0.00000
     11       7.1361      0.00000
     12       7.8712      0.00000
     13       9.7712      0.00000
     14      11.5546      0.00000

 k-point    28 :       0.2222    0.2222    0.2500
  band No.  band energies     occupation 
      1      -6.7267      2.00000
      2      -5.4564      2.00000
      3      -4.0173      2.00000
      4       0.8655      2.00000
      5       1.4814      2.00000
      6       2.3853      2.00000
      7       2.9088      2.00000
      8       4.4821      2.00000
      9       5.3599      2.00000
     10       6.7007      0.00000
     11       7.5662      0.00000
     12       8.6493      0.00000
     13      10.3963      0.00000
     14      10.9632      0.00000

 k-point    29 :       0.3333    0.2222    0.2500
  band No.  band energies     occupation 
      1      -6.4914      2.00000
      2      -5.3856      2.00000
      3      -4.2853      2.00000
      4       0.8336      2.00000
      5       1.1299      2.00000
      6       2.0438      2.00000
      7       3.1249      2.00000
      8       4.0945      2.00000
      9       5.1582      2.00000
     10       6.9570      0.00000
     11       8.0944      0.00000
     12       8.6327      0.00000
     13      10.4337      0.00000
     14      11.5381      0.00000

 k-point    30 :       0.4444    0.2222    0.2500
  band No.  band energies     occupation 
      1      -6.4831      2.00000
      2      -5.4216      2.00000
      3      -4.2420      2.00000
      4       0.6885      2.00000
      5       1.2015      2.00000
      6       2.0614      2.00000
      7       3.0817      2.00000
      8       4.3785      2.00000
      9       5.0297      2.00000
     10       7.0827      0.00000
     11       7.8534      0.00000
     12       8.5205      0.00000
     13      10.3638      0.00000
     14      11.7636      0.00000

 k-point    31 :       0.3333    0.3333    0.2500
  band No.  band energies     occupation 
      1      -6.3951      2.00000
      2      -5.3762      2.00000
      3      -4.3633      2.00000
      4       0.7806      2.00000
      5       1.1066      2.00000
      6       1.7125      2.00000
      7       3.2820      2.00000
      8       4.2958      2.00000
      9       4.7403      2.00000
     10       7.5281      0.00000
     11       8.1880      0.00000
     12       8.2756      0.00000
     13      11.1826      0.00000
     14      11.4807      0.00000

 k-point    32 :       0.0000    0.0000    0.5000
  band No.  band energies     occupation 
      1      -6.8650      2.00000
      2      -6.8650      2.00000
      3      -2.3981      2.00000
      4       1.8150      2.00000
      5       3.2330      2.00000
      6       3.2330      2.00000
      7       4.5280      2.00000
      8       4.8376      2.00000
      9       4.8376      2.00000
     10       6.3467      0.00000
     11       6.4161      0.00000
     12       6.4161      0.00000
     13       9.8397      0.00000
     14      11.1692      0.00000

 k-point    33 :       0.1111    0.0000    0.5000
  band No.  band energies     occupation 
      1      -6.8036      2.00000
      2      -6.7875      2.00000
      3      -2.5689      2.00000
      4       1.7801      2.00000
      5       3.0373      2.00000
      6       3.1293      2.00000
      7       4.0675      2.00000
      8       4.4334      2.00000
      9       4.6823      2.00000
     10       6.5919      0.00000
     11       6.8167      0.00000
     12       7.2174      0.00000
     13      10.0766      0.00000
     14      10.8495      0.00000

 k-point    34 :       0.2222    0.0000    0.5000
  band No.  band energies     occupation 
      1      -6.6379      2.00000
      2      -6.5653      2.00000
      3      -3.0141      2.00000
      4       1.4886      2.00000
      5       2.4306      2.00000
      6       2.8331      2.00000
      7       3.8615      2.00000
      8       4.0246      2.00000
      9       4.4980      2.00000
     10       7.0110      0.00000
     11       7.5345      0.00000
     12       7.9694      0.00000
     13      10.3132      0.00000
     14      11.0130      0.00000

 k-point    35 :       0.3333   -0.0000    0.5000
  band No.  band energies     occupation 
      1      -6.4284      2.00000
      2      -6.2409      2.00000
      3      -3.5735      2.00000
      4       0.7909      2.00000
      5       2.1703      2.00000
      6       2.5143      2.00000
      7       3.6350      2.00000
      8       3.8824      2.00000
      9       4.7742      2.00000
     10       7.2125      0.00000
     11       7.7865      0.00000
     12       8.1069      0.00000
     13      10.3239      0.00000
     14      11.3052      0.00000

 k-point    36 :       0.4444    0.0000    0.5000
  band No.  band energies     occupation 
      1      -6.2760      2.00000
      2      -5.9439      2.00000
      3      -4.0150      2.00000
      4       0.2875      2.00000
      5       2.1487      2.00000
      6       2.2800      2.00000
      7       3.4707      2.00000
      8       3.7880      2.00000
      9       5.3945      2.00000
     10       6.7032      0.00000
     11       7.7009      0.00000
     12       8.3491      0.00000
     13      10.3535      0.00000
     14      11.1202      0.00000

 k-point    37 :       0.1111    0.1111    0.5000
  band No.  band energies     occupation 
      1      -6.6862      2.00000
      2      -6.6410      2.00000
      3      -2.8742      2.00000
      4       1.6378      2.00000
      5       2.6654      2.00000
      6       2.7396      2.00000
      7       3.8254      2.00000
      8       4.0217      2.00000
      9       4.9172      2.00000
     10       6.5179      0.00000
     11       7.6209      0.00000
     12       7.7975      0.00000
     13      10.5010      0.00000
     14      10.5832      0.00000

 k-point    38 :       0.2222    0.1111    0.5000
  band No.  band energies     occupation 
      1      -6.4874      2.00000
      2      -6.3746      2.00000
      3      -3.3666      2.00000
      4       1.1636      2.00000
      5       2.0624      2.00000
      6       2.2746      2.00000
      7       3.8212      2.00000
      8       4.1759      2.00000
      9       4.9082      2.00000
     10       6.8235      0.00000
     11       7.8945      0.00000
     12       8.0612      0.00000
     13      10.3933      0.00000
     14      11.2068      0.00000

 k-point    39 :       0.3333    0.1111    0.5000
  band No.  band energies     occupation 
      1      -6.2915      2.00000
      2      -6.0598      2.00000
      3      -3.8644      2.00000
      4       0.5439      2.00000
      5       1.7947      2.00000
      6       1.9487      2.00000
      7       3.9125      2.00000
      8       4.2733      2.00000
      9       5.1566      2.00000
     10       6.9515      0.00000
     11       7.5480      0.00000
     12       8.1314      0.00000
     13      10.4187      0.00000
     14      11.3767      0.00000

 k-point    40 :       0.4444    0.1111    0.5000
  band No.  band energies     occupation 
      1      -6.2074      2.00000
      2      -5.8927      2.00000
      3      -4.1005      2.00000
      4       0.2860      2.00000
      5       1.7510      2.00000
      6       1.8015      2.00000
      7       4.0526      2.00000
      8       4.1167      2.00000
      9       5.6173      2.00000
     10       6.5182      0.00000
     11       7.5449      0.00000
     12       8.1466      0.00000
     13      10.4930      0.00000
     14      11.1644      0.00000

 k-point    41 :       0.2222    0.2222    0.5000
  band No.  band energies     occupation 
      1      -6.2757      2.00000
      2      -6.1314      2.00000
      3      -3.7873      2.00000
      4       0.8445      2.00000
      5       1.3963      2.00000
      6       1.7007      2.00000
      7       4.2155      2.00000
      8       4.5833      2.00000
      9       5.3268      2.00000
     10       6.6557      0.00000
     11       7.7553      0.00000
     12       7.7978      0.00000
     13      10.6704      0.00000
     14      11.5189      0.00000

 k-point    42 :       0.3333    0.2222    0.5000
  band No.  band energies     occupation 
      1      -6.1111      2.00000
      2      -5.9365      2.00000
      3      -4.0981      2.00000
      4       0.5346      2.00000
      5       1.1489      2.00000
      6       1.3137      2.00000
      7       4.5396      2.00000
      8       4.9823      2.00000
      9       5.5993      2.00000
     10       6.5153      0.00000
     11       7.2769      0.00000
     12       7.6195      0.00000
     13      11.0091      0.00000
     14      11.6996      0.00000

 k-point    43 :       0.3333    0.3333    0.5000
  band No.  band energies     occupation 
      1      -5.9611      2.00000
      2      -5.9611      2.00000
      3      -4.1833      2.00000
      4       0.7002      2.00000
      5       0.8997      2.00000
      6       0.8997      2.00000
      7       4.7904      2.00000
      8       5.8061      1.89581
      9       5.8061      1.89581
     10       5.9080      0.20838
     11       7.1934      0.00000
     12       7.1934      0.00000
     13      11.7402      0.00000
     14      12.3278      0.00000


--------------------------------------------------------------------------------------------------------


 soft charge-density along one line, spin component           1
         0         1         2         3         4         5         6         7         8         9
 total charge-density along one line
 
 pseudopotential strength for first ion, spin component:           1
 51.694  56.245  -0.000  -0.000  -0.053  -0.000  -0.000  -0.077
 56.245  61.199  -0.000  -0.000  -0.058  -0.000  -0.000  -0.084
 -0.000  -0.000  12.725   0.010   0.000  18.342   0.014   0.000
 -0.000  -0.000   0.010  12.742   0.000   0.014  18.366   0.000
 -0.053  -0.058   0.000   0.000  12.741   0.000   0.000  18.365
 -0.000  -0.000  18.342   0.014   0.000  26.449   0.020   0.000
 -0.000  -0.000   0.014  18.366   0.000   0.020  26.484   0.000
 -0.077  -0.084   0.000   0.000  18.365   0.000   0.000  26.482
  0.000   0.000  -0.010   0.000  -0.000  -0.015   0.000  -0.000
  0.015   0.017   0.000  -0.000   0.000   0.000  -0.000   0.000
  0.008   0.009   0.000  -0.000   0.006   0.000  -0.000   0.009
  0.000   0.000   0.000  -0.010  -0.000   0.000  -0.014  -0.000
  0.013   0.014   0.000  -0.000  -0.010   0.000  -0.000  -0.015
 total augmentation occupancy for first ion, spin component:           1
 13.258  -9.717   0.000  -0.000   2.291   0.000   0.000  -0.613   0.000  -0.172  -0.111   0.000  -0.120
 -9.717   8.390   0.000   0.000  -1.926   0.000  -0.000   0.525   0.000   0.156   0.100   0.000   0.108
  0.000   0.000   2.554   0.251   0.000  -0.490  -0.209  -0.000  -0.058   0.000   0.000  -0.052   0.000
  0.000   0.000   0.251   2.970   0.000  -0.209  -0.843   0.000  -0.050   0.000   0.000  -0.131  -0.000
  2.291  -1.926   0.000   0.000   2.820   0.000   0.000  -0.753   0.000  -0.057  -0.019   0.000  -0.057
  0.000   0.000  -0.490  -0.209   0.000   0.176   0.080   0.000   0.014   0.000   0.000   0.019   0.000
  0.000  -0.000  -0.209  -0.843   0.000   0.080   0.308  -0.000   0.020   0.000   0.000   0.041   0.000
 -0.613   0.525   0.000   0.000  -0.753   0.000   0.000   0.264   0.000   0.017   0.005  -0.000   0.014
  0.000   0.000  -0.058  -0.050   0.000   0.014   0.020   0.000   0.009   0.000   0.000   0.010   0.000
 -0.172   0.156   0.000   0.000  -0.057   0.000   0.000   0.017   0.000   0.014   0.004   0.000   0.003
 -0.111   0.100   0.000   0.000  -0.019   0.000  -0.000   0.005  -0.000   0.004   0.008   0.000  -0.001
  0.000   0.000  -0.052  -0.131   0.000   0.019   0.041   0.000   0.010   0.000   0.000   0.027   0.000
 -0.120   0.108   0.000  -0.000  -0.057   0.000   0.000   0.014   0.000   0.003  -0.001   0.000   0.010


------------------------ aborting loop because EDIFF is reached ----------------------------------------


    CHARGE:  cpu time    0.0251: real time    0.0253
    FORLOC:  cpu time    0.0009: real time    0.0009
    FORNL :  cpu time    0.0960: real time    0.0963
    STRESS:  cpu time    0.2170: real time    0.2176
    FORCOR:  cpu time    0.0176: real time    0.0176
    FORHAR:  cpu time    0.0043: real time    0.0043
    MIXING:  cpu time    0.0008: real time    0.0008
    OFIELD:  cpu time    0.0000: real time    0.0000

  Number of pair interactions contributing to vdW energy:   30696
  Edisp (eV):   -0.91934
    FORVDW:  cpu time    0.0017: real time    0.0017

  FORCE on cell =-STRESS in cart. coord.  units (eV):
  Direction    XX          YY          ZZ          XY          YZ          ZX
  --------------------------------------------------------------------------------------
  Alpha Z     2.27492     2.27492     2.27492
  Ewald    -238.59429  -238.59429  -195.21061    -0.00000    -0.00001     0.00000
  Hartree    11.11561    11.11560    22.05081     0.00000     0.00000    -0.00000
  E(xc)     -70.43325   -70.43325   -69.93029    -0.00000     0.00000    -0.00000
  Local    -111.30488  -111.30493  -155.61057    -0.00004     0.00000    -0.00000
  n-local   332.44767   333.20990   328.47939    -1.29070    -0.74054    -1.28621
  augment   -81.13256   -81.13252   -78.70377     0.00004    -0.00000     0.00000
  Kinetic   152.73653   159.26941   147.41407    -7.35312     0.12040     1.40455
  Fock        0.00000     0.00000     0.00000     0.00000     0.00000     0.00000
  vdW        -1.03739    -1.03739    -0.85139     0.00000    -0.00000     0.00000
  -------------------------------------------------------------------------------------
  Total      -0.28010    -0.28010    -0.08746     0.00000     0.00000    -0.00000
  in kB      -4.36747    -4.36747    -1.36367     0.00000     0.00000    -0.00000
  external pressure =       -3.37 kB  Pullay stress =        0.00 kB


 VOLUME and BASIS-vectors are now :
 -----------------------------------------------------------------------------
  energy-cutoff  :      520.00
  volume of cell :      102.75
      direct lattice vectors                 reciprocal lattice vectors
     4.451149328  0.000000000 -0.000000000     0.224661077  0.129708133  0.000000000
    -2.225574664  3.854808394  0.000000000     0.000000000  0.259416266  0.000000000
    -0.000000000  0.000000000  5.988475131     0.000000000  0.000000000  0.166987418

  length of vectors
     4.451149328  4.451149328  5.988475131     0.259416266  0.259416266  0.166987418


 FORCES acting on ions
    electron-ion (+dipol)            ewald-force                    non-local-force                 convergence-correction
 -----------------------------------------------------------------------------------------------
   -.123E+02 0.118E-04 -.117E-05   0.177E+02 0.148E-05 0.174E-05   -.516E+01 0.000E+00 -.833E-16   -.671E-03 -.464E-08 0.976E-10
   0.616E+01 -.107E+02 -.183E-04   -.884E+01 0.153E+02 -.866E-05   0.258E+01 -.447E+01 0.111E-15   0.335E-03 -.581E-03 0.872E-09
   0.616E+01 0.107E+02 0.191E-04   -.884E+01 -.153E+02 0.692E-05   0.258E+01 0.447E+01 0.000E+00   0.335E-03 0.581E-03 -.966E-09
 -----------------------------------------------------------------------------------------------
   0.256E-04 -.750E-05 -.341E-06   0.000E+00 0.000E+00 -.174E-17   0.000E+00 0.000E+00 0.278E-16   -.123E-08 -.150E-08 0.353E-11
 
 
 POSITION                                       TOTAL-FORCE (eV/Angst)
 -----------------------------------------------------------------------------------
      1.18167      0.00000      1.99616         0.085518     -0.000000     -0.000000
     -0.59083      1.02335      3.99232        -0.042759      0.074061      0.000000
      1.63474      2.83146     -0.00000        -0.042759     -0.074061      0.000000
 -----------------------------------------------------------------------------------
    total drift:                                0.000026     -0.000008     -0.000000


--------------------------------------------------------------------------------------------------------



  FREE ENERGIE OF THE ION-ELECTRON SYSTEM (eV)
  ---------------------------------------------------
  free  energy   TOTEN  =       -10.33200565 eV

  energy  without entropy=      -10.33183370  energy(sigma->0) =      -10.33191967
 
 d Force = 0.1827836E-02[ 0.175E-02, 0.190E-02]  d Energy = 0.4135323E-02-0.231E-02
 d Force = 0.3690761E+00[ 0.363E+00, 0.375E+00]  d Ewald  = 0.2107434E+01-0.174E+01


--------------------------------------------------------------------------------------------------------


    POTLOK:  cpu time    0.0196: real time    0.0197


--------------------------------------------------------------------------------------------------------


 Conjugate gradient step on ions:
 trial-energy change:   -0.004135  1 .order   -0.004146   -0.004340   -0.003953
  (g-gl).g = 0.447E-02      g.g   = 0.455E-02  gl.gl    = 0.191E-01
 g(Force)  = 0.124E-02   g(Stress)= 0.331E-02 ortho     = 0.864E-04
 gamma     =   0.23438
 trial     =   0.94867
 opt step  =   3.79470  (harmonic =  10.63755) maximal distance =0.02746341
 next E    =   -10.352200   (d E  =  -0.02433)


--------------------------------------------------------------------------------------------------------


    WAVPRE:  cpu time    0.0038: real time    0.0065
    FEWALD:  cpu time    0.0001: real time    0.0001
    GENKIN:  cpu time    0.0059: real time    0.0059
    ORTHCH:  cpu time    0.0195: real time    0.0196
     LOOP+:  cpu time    2.5661: real time    2.5820


--------------------------------------- Iteration      5(   1)  ---------------------------------------


    POTLOK:  cpu time    0.0180: real time    0.0192
    SETDIJ:  cpu time    0.0026: real time    0.0026
     EDDAV:  cpu time    0.3306: real time    0.3317
       DOS:  cpu time    0.0006: real time    0.0006
    CHARGE:  cpu time    0.0245: real time    0.0246
    MIXING:  cpu time    0.0005: real time    0.0005
    --------------------------------------------
      LOOP:  cpu time    0.3769: real time    0.3792

 eigenvalue-minimisations  :  1204
 total energy-change (2. order) :-0.1281200E-01  (-0.1548411E+00)
 number of electron      17.9999996 magnetization 
 augmentation part       -3.5860484 magnetization 

 Broyden mixing:
  rms(total) = 0.85941E-01    rms(broyden)= 0.85940E-01
  rms(prec ) = 0.14046E+00
  weight for this iteration     100.00

 Free energy of the ion-electron system (eV)
  ---------------------------------------------------
  alpha Z        PSCENC =         2.32430352
  Ewald energy   TEWEN  =      -678.70775808
  -Hartree energ DENC   =       -43.79185806
  -exchange      EXHF   =         0.00000000
  -V(xc)+E(xc)   XCENC  =       -83.95946548
  PAW double counting   =      1529.68460261    -1414.33283575
  entropy T*S    EENTRO =        -0.00038154
  eigenvalues    EBANDS =         9.54360348
  atomic energy  EATOM  =       669.81430600
  Solvation  Ediel_sol  =         0.00000000
  ---------------------------------------------------
  free energy    TOTEN  =        -9.42548331 eV

  energy without entropy =       -9.42510176  energy(sigma->0) =       -9.42529253


--------------------------------------------------------------------------------------------------------




--------------------------------------- Iteration      5(   2)  ---------------------------------------


    POTLOK:  cpu time    0.0174: real time    0.0175
    SETDIJ:  cpu time    0.0024: real time    0.0024
     EDDAV:  cpu time    0.3289: real time    0.3299
       DOS:  cpu time    0.0006: real time    0.0006
    CHARGE:  cpu time    0.0241: real time    0.0242
    MIXING:  cpu time    0.0007: real time    0.0006
    --------------------------------------------
      LOOP:  cpu time    0.3741: real time    0.3752

 eigenvalue-minimisations  :  1294
 total energy-change (2. order) : 0.1189669E-01  (-0.6312914E-02)
 number of electron      17.9999996 magnetization 
 augmentation part       -3.5885095 magnetization 

 Broyden mixing:
  rms(total) = 0.42327E-01    rms(broyden)= 0.42327E-01
  rms(prec ) = 0.77639E-01
  weight for this iteration     100.00

 eigenvalues of (default mixing * dielectric matrix)
  average eigenvalue GAMMA=   1.1112
  1.1112

 Free energy of the ion-electron system (eV)
  ---------------------------------------------------
  alpha Z        PSCENC =         2.32430352
  Ewald energy   TEWEN  =      -678.70775808
  -Hartree energ DENC   =       -42.95937363
  -exchange      EXHF   =         0.00000000
  -V(xc)+E(xc)   XCENC  =       -83.94777189
  PAW double counting   =      1522.70860224    -1407.34381979
  entropy T*S    EENTRO =        -0.00040278
  eigenvalues    EBANDS =         8.69832780
  atomic energy  EATOM  =       669.81430600
  Solvation  Ediel_sol  =         0.00000000
  ---------------------------------------------------
  free energy    TOTEN  =        -9.41358661 eV

  energy without entropy =       -9.41318384  energy(sigma->0) =       -9.41338522


--------------------------------------------------------------------------------------------------------




--------------------------------------- Iteration      5(   3)  ---------------------------------------


    POTLOK:  cpu time    0.0171: real time    0.0172
    SETDIJ:  cpu time    0.0024: real time    0.0024
     EDDAV:  cpu time    0.3516: real time    0.3527
       DOS:  cpu time    0.0006: real time    0.0006
    CHARGE:  cpu time    0.0241: real time    0.0242
    MIXING:  cpu time    0.0007: real time    0.0007
    --------------------------------------------
      LOOP:  cpu time    0.3964: real time    0.3976

 eigenvalue-minimisations  :  1426
 total energy-change (2. order) : 0.7605434E-02  (-0.1191200E-02)
 number of electron      17.9999996 magnetization 
 augmentation part       -3.6027676 magnetization 

 Broyden mixing:
  rms(total) = 0.28795E-01    rms(broyden)= 0.28795E-01
  rms(prec ) = 0.34881E-01
  weight for this iteration     100.00

 eigenvalues of (default mixing * dielectric matrix)
  average eigenvalue GAMMA=   1.0039
  1.0039  1.0039

 Free energy of the ion-electron system (eV)
  ---------------------------------------------------
  alpha Z        PSCENC =         2.32430352
  Ewald energy   TEWEN  =      -678.70775808
  -Hartree energ DENC   =       -42.24695675
  -exchange      EXHF   =         0.00000000
  -V(xc)+E(xc)   XCENC  =       -83.92420586
  PAW double counting   =      1533.43562436    -1418.06499502
  entropy T*S    EENTRO =        -0.00042237
  eigenvalues    EBANDS =         7.96412302
  atomic energy  EATOM  =       669.81430600
  Solvation  Ediel_sol  =         0.00000000
  ---------------------------------------------------
  free energy    TOTEN  =        -9.40598118 eV

  energy without entropy =       -9.40555881  energy(sigma->0) =       -9.40576999


--------------------------------------------------------------------------------------------------------




--------------------------------------- Iteration      5(   4)  ---------------------------------------


    POTLOK:  cpu time    0.0171: real time    0.0172
    SETDIJ:  cpu time    0.0024: real time    0.0024
     EDDAV:  cpu time    0.3352: real time    0.3362
       DOS:  cpu time    0.0006: real time    0.0006
    CHARGE:  cpu time    0.0240: real time    0.0241
    MIXING:  cpu time    0.0007: real time    0.0007
    --------------------------------------------
      LOOP:  cpu time    0.3801: real time    0.3812

 eigenvalue-minimisations  :  1342
 total energy-change (2. order) : 0.5481261E-03  (-0.9744617E-04)
 number of electron      17.9999996 magnetization 
 augmentation part       -3.6074527 magnetization 

 Broyden mixing:
  rms(total) = 0.34622E-01    rms(broyden)= 0.34622E-01
  rms(prec ) = 0.35796E-01
  weight for this iteration     100.00

 eigenvalues of (default mixing * dielectric matrix)
  average eigenvalue GAMMA=   2.1386
  1.0614  2.6772  2.6772

 Free energy of the ion-electron system (eV)
  ---------------------------------------------------
  alpha Z        PSCENC =         2.32430352
  Ewald energy   TEWEN  =      -678.70775808
  -Hartree energ DENC   =       -42.08667633
  -exchange      EXHF   =         0.00000000
  -V(xc)+E(xc)   XCENC  =       -83.91696418
  PAW double counting   =      1538.75577270    -1423.38986130
  entropy T*S    EENTRO =        -0.00042213
  eigenvalues    EBANDS =         7.80186676
  atomic energy  EATOM  =       669.81430600
  Solvation  Ediel_sol  =         0.00000000
  ---------------------------------------------------
  free energy    TOTEN  =        -9.40543305 eV

  energy without entropy =       -9.40501092  energy(sigma->0) =       -9.40522199


--------------------------------------------------------------------------------------------------------




--------------------------------------- Iteration      5(   5)  ---------------------------------------


    POTLOK:  cpu time    0.0182: real time    0.0182
    SETDIJ:  cpu time    0.0024: real time    0.0024
     EDDAV:  cpu time    0.3388: real time    0.3399
       DOS:  cpu time    0.0006: real time    0.0006
    CHARGE:  cpu time    0.0239: real time    0.0239
    MIXING:  cpu time    0.0007: real time    0.0007
    --------------------------------------------
      LOOP:  cpu time    0.3844: real time    0.3856

 eigenvalue-minimisations  :  1376
 total energy-change (2. order) : 0.1054761E-03  (-0.2184420E-04)
 number of electron      17.9999996 magnetization 
 augmentation part       -3.6094395 magnetization 

 Broyden mixing:
  rms(total) = 0.18233E-01    rms(broyden)= 0.18233E-01
  rms(prec ) = 0.18746E-01
  weight for this iteration     100.00

 eigenvalues of (default mixing * dielectric matrix)
  average eigenvalue GAMMA=   1.7266
  2.8815  1.9595  0.9806  1.0848

 Free energy of the ion-electron system (eV)
  ---------------------------------------------------
  alpha Z        PSCENC =         2.32430352
  Ewald energy   TEWEN  =      -678.70775808
  -Hartree energ DENC   =       -42.00468964
  -exchange      EXHF   =         0.00000000
  -V(xc)+E(xc)   XCENC  =       -83.91479524
  PAW double counting   =      1549.10056657    -1433.75476193
  entropy T*S    EENTRO =        -0.00041555
  eigenvalues    EBANDS =         7.73791677
  atomic energy  EATOM  =       669.81430600
  Solvation  Ediel_sol  =         0.00000000
  ---------------------------------------------------
  free energy    TOTEN  =        -9.40532758 eV

  energy without entropy =       -9.40491203  energy(sigma->0) =       -9.40511980


--------------------------------------------------------------------------------------------------------




--------------------------------------- Iteration      5(   6)  ---------------------------------------


    POTLOK:  cpu time    0.0168: real time    0.0169
    SETDIJ:  cpu time    0.0024: real time    0.0024
     EDDAV:  cpu time    0.3163: real time    0.3172
       DOS:  cpu time    0.0005: real time    0.0006
    CHARGE:  cpu time    0.0240: real time    0.0240
    MIXING:  cpu time    0.0008: real time    0.0008
    --------------------------------------------
      LOOP:  cpu time    0.3609: real time    0.3619

 eigenvalue-minimisations  :  1234
 total energy-change (2. order) : 0.3544317E-04  (-0.1102879E-04)
 number of electron      17.9999996 magnetization 
 augmentation part       -3.6105473 magnetization 

 Broyden mixing:
  rms(total) = 0.16945E-02    rms(broyden)= 0.16945E-02
  rms(prec ) = 0.17552E-02
  weight for this iteration     100.00

 eigenvalues of (default mixing * dielectric matrix)
  average eigenvalue GAMMA=   1.6433
  3.0735  1.9526  0.9430  1.1237  1.1237

 Free energy of the ion-electron system (eV)
  ---------------------------------------------------
  alpha Z        PSCENC =         2.32430352
  Ewald energy   TEWEN  =      -678.70775808
  -Hartree energ DENC   =       -41.94593376
  -exchange      EXHF   =         0.00000000
  -V(xc)+E(xc)   XCENC  =       -83.91247701
  PAW double counting   =      1549.19491778    -1433.84458232
  entropy T*S    EENTRO =        -0.00041912
  eigenvalues    EBANDS =         7.67235086
  atomic energy  EATOM  =       669.81430600
  Solvation  Ediel_sol  =         0.00000000
  ---------------------------------------------------
  free energy    TOTEN  =        -9.40529213 eV

  energy without entropy =       -9.40487301  energy(sigma->0) =       -9.40508257


--------------------------------------------------------------------------------------------------------




--------------------------------------- Iteration      5(   7)  ---------------------------------------


    POTLOK:  cpu time    0.0179: real time    0.0180
    SETDIJ:  cpu time    0.0023: real time    0.0023
     EDDAV:  cpu time    0.2130: real time    0.2135
       DOS:  cpu time    0.0006: real time    0.0006
    --------------------------------------------
      LOOP:  cpu time    0.2337: real time    0.2344

 eigenvalue-minimisations  :   626
 total energy-change (2. order) :-0.7746754E-06  (-0.6726733E-06)
 number of electron      17.9999996 magnetization 
 augmentation part       -3.6105473 magnetization 

 Free energy of the ion-electron system (eV)
  ---------------------------------------------------
  alpha Z        PSCENC =         2.32430352
  Ewald energy   TEWEN  =      -678.70775808
  -Hartree energ DENC   =       -41.94358251
  -exchange      EXHF   =         0.00000000
  -V(xc)+E(xc)   XCENC  =       -83.91254186
  PAW double counting   =      1550.65513733    -1435.30484201
  entropy T*S    EENTRO =        -0.00041940
  eigenvalues    EBANDS =         7.67010411
  atomic energy  EATOM  =       669.81430600
  Solvation  Ediel_sol  =         0.00000000
  ---------------------------------------------------
  free energy    TOTEN  =        -9.40529291 eV

  energy without entropy =       -9.40487351  energy(sigma->0) =       -9.40508321


--------------------------------------------------------------------------------------------------------




 average (electrostatic) potential at core
  the test charge radii are     1.1897
  (the norm of the test charge is              1.0000)
       1 -88.9008       2 -88.9008       3 -88.9008
 
 
 
 E-fermi :   6.1049     XC(G=0):  -9.1343     alpha+bet :-10.6929


 k-point     1 :       0.0000    0.0000    0.0000
  band No.  band energies     occupation 
      1      -7.5669      2.00000
      2      -4.2900      2.00000
      3      -4.2900      2.00000
      4       3.1384      2.00000
      5       3.4139      2.00000
      6       3.4139      2.00000
      7       4.4713      2.00000
      8       4.4713      2.00000
      9       5.2823      2.00000
     10       7.0780      0.00000
     11       7.0780      0.00000
     12       7.8049      0.00000
     13      11.0103      0.00000
     14      11.0103      0.00000

 k-point     2 :       0.1111    0.0000    0.0000
  band No.  band energies     occupation 
      1      -7.4794      2.00000
      2      -4.3071      2.00000
      3      -4.2616      2.00000
      4       2.4453      2.00000
      5       2.9553      2.00000
      6       3.2338      2.00000
      7       4.7519      2.00000
      8       5.0464      2.00000
      9       5.4787      2.00000
     10       6.7941      0.00000
     11       7.0104      0.00000
     12       7.6595      0.00000
     13      10.7775      0.00000
     14      11.0047      0.00000

 k-point     3 :       0.2222    0.0000    0.0000
  band No.  band energies     occupation 
      1      -7.2282      2.00000
      2      -4.4028      2.00000
      3      -4.1837      2.00000
      4       1.5995      2.00000
      5       2.3325      2.00000
      6       2.8497      2.00000
      7       4.7870      2.00000
      8       5.1410      2.00000
      9       5.3064      2.00000
     10       6.9134      0.00000
     11       7.1378      0.00000
     12       7.7846      0.00000
     13      10.0301      0.00000
     14      11.3122      0.00000

 k-point     4 :       0.3333   -0.0000    0.0000
  band No.  band energies     occupation 
      1      -6.8589      2.00000
      2      -4.6460      2.00000
      3      -4.0851      2.00000
      4       1.1853      2.00000
      5       1.8430      2.00000
      6       2.5244      2.00000
      7       3.6623      2.00000
      8       5.1730      2.00000
      9       5.3116      2.00000
     10       6.8901      0.00000
     11       7.0855      0.00000
     12       8.8488      0.00000
     13       9.3773      0.00000
     14      12.1762      0.00000

 k-point     5 :       0.4444    0.0000    0.0000
  band No.  band energies     occupation 
      1      -6.5121      2.00000
      2      -4.9454      2.00000
      3      -4.0146      2.00000
      4       1.1515      2.00000
      5       1.6345      2.00000
      6       2.3957      2.00000
      7       2.7424      2.00000
      8       5.0998      2.00000
      9       5.3026      2.00000
     10       6.8896      0.00000
     11       6.9824      0.00000
     12       9.0248      0.00000
     13       9.6547      0.00000
     14      13.3261      0.00000

 k-point     6 :       0.1111    0.1111    0.0000
  band No.  band energies     occupation 
      1      -7.3097      2.00000
      2      -4.3475      2.00000
      3      -4.2255      2.00000
      4       1.8768      2.00000
      5       2.2246      2.00000
      6       3.2864      2.00000
      7       4.5315      2.00000
      8       5.3408      2.00000
      9       5.3605      2.00000
     10       6.8331      0.00000
     11       7.1486      0.00000
     12       7.7129      0.00000
     13      10.5855      0.00000
     14      10.6578      0.00000

 k-point     7 :       0.2222    0.1111    0.0000
  band No.  band energies     occupation 
      1      -6.9963      2.00000
      2      -4.4910      2.00000
      3      -4.1749      2.00000
      4       1.3558      2.00000
      5       1.7575      2.00000
      6       2.9543      2.00000
      7       4.2310      2.00000
      8       4.5874      2.00000
      9       5.0375      2.00000
     10       7.2829      0.00000
     11       7.6413      0.00000
     12       8.2063      0.00000
     13       9.9762      0.00000
     14      11.0184      0.00000

 k-point     8 :       0.3333    0.1111    0.0000
  band No.  band energies     occupation 
      1      -6.6193      2.00000
      2      -4.7695      2.00000
      3      -4.1223      2.00000
      4       1.1980      2.00000
      5       1.5887      2.00000
      6       2.5610      2.00000
      7       3.2066      2.00000
      8       4.5460      2.00000
      9       4.7669      2.00000
     10       7.4070      0.00000
     11       7.6774      0.00000
     12       9.2265      0.00000
     13       9.5435      0.00000
     14      12.0176      0.00000

 k-point     9 :       0.4444    0.1111    0.0000
  band No.  band energies     occupation 
      1      -6.4114      2.00000
      2      -4.9533      2.00000
      3      -4.0995      2.00000
      4       1.2299      2.00000
      5       1.6069      2.00000
      6       2.5229      2.00000
      7       2.5637      2.00000
      8       4.5672      2.00000
      9       4.6425      2.00000
     10       7.4179      0.00000
     11       7.6773      0.00000
     12       9.3850      0.00000
     13       9.6911      0.00000
     14      13.0565      0.00000

 k-point    10 :       0.2222    0.2222    0.0000
  band No.  band energies     occupation 
      1      -6.6637      2.00000
      2      -4.6123      2.00000
      3      -4.2576      2.00000
      4       1.3176      2.00000
      5       1.4357      2.00000
      6       2.8896      2.00000
      7       3.7072      2.00000
      8       4.0400      2.00000
      9       4.0706      2.00000
     10       8.1113      0.00000
     11       8.3676      0.00000
     12       8.5650      0.00000
     13      10.4139      0.00000
     14      10.7722      0.00000

 k-point    11 :       0.3333    0.2222    0.0000
  band No.  band energies     occupation 
      1      -6.3678      2.00000
      2      -4.7785      2.00000
      3      -4.3354      2.00000
      4       1.3864      2.00000
      5       1.5339      2.00000
      6       2.6689      2.00000
      7       2.9661      2.00000
      8       3.7178      2.00000
      9       3.7793      2.00000
     10       8.3335      0.00000
     11       8.6367      0.00000
     12       9.3266      0.00000
     13      10.3405      0.00000
     14      11.7456      0.00000

 k-point    12 :       0.3333    0.3333    0.0000
  band No.  band energies     occupation 
      1      -6.2540      2.00000
      2      -4.6137      2.00000
      3      -4.6137      2.00000
      4       1.5595      2.00000
      5       1.5595      2.00000
      6       2.9354      2.00000
      7       2.9354      2.00000
      8       3.1126      2.00000
      9       3.2789      2.00000
     10       8.9823      0.00000
     11       8.9823      0.00000
     12       9.2819      0.00000
     13      11.0569      0.00000
     14      11.9939      0.00000

 k-point    13 :       0.0000    0.0000    0.2500
  band No.  band energies     occupation 
      1      -7.3450      2.00000
      2      -5.6409      2.00000
      3      -2.8789      2.00000
      4       2.5927      2.00000
      5       3.2568      2.00000
      6       3.6730      2.00000
      7       4.6404      2.00000
      8       4.7504      2.00000
      9       5.2758      2.00000
     10       6.7753      0.00000
     11       6.8006      0.00000
     12       7.2908      0.00000
     13      10.3696      0.00000
     14      11.6093      0.00000

 k-point    14 :       0.1111    0.0000    0.2500
  band No.  band energies     occupation 
      1      -7.2610      2.00000
      2      -5.5844      2.00000
      3      -2.9778      2.00000
      4       2.3074      2.00000
      5       3.0837      2.00000
      6       3.5308      2.00000
      7       4.3387      2.00000
      8       4.8201      2.00000
      9       4.8958      2.00000
     10       7.0673      0.00000
     11       7.1789      0.00000
     12       7.6553      0.00000
     13      10.5072      0.00000
     14      11.5660      0.00000

 k-point    15 :       0.2222    0.0000    0.2500
  band No.  band energies     occupation 
      1      -7.0242      2.00000
      2      -5.4215      2.00000
      3      -3.3019      2.00000
      4       1.9414      2.00000
      5       2.6527      2.00000
      6       3.2008      2.00000
      7       3.6585      2.00000
      8       4.2841      2.00000
      9       4.7951      2.00000
     10       7.4040      0.00000
     11       8.0134      0.00000
     12       8.4336      0.00000
     13      10.8477      0.00000
     14      11.2718      0.00000

 k-point    16 :       0.3333   -0.0000    0.2500
  band No.  band energies     occupation 
      1      -6.6855      2.00000
      2      -5.2131      2.00000
      3      -3.7686      2.00000
      4       1.6188      2.00000
      5       2.0293      2.00000
      6       2.8488      2.00000
      7       3.1507      2.00000
      8       4.2749      2.00000
      9       4.6785      2.00000
     10       7.4354      0.00000
     11       8.1354      0.00000
     12       9.2133      0.00000
     13      10.3413      0.00000
     14      11.6805      0.00000

 k-point    17 :       0.4444    0.0000    0.2500
  band No.  band energies     occupation 
      1      -6.3687      2.00000
      2      -5.1663      2.00000
      3      -4.0323      2.00000
      4       1.0125      2.00000
      5       1.6862      2.00000
      6       2.5696      2.00000
      7       3.5608      2.00000
      8       4.3135      2.00000
      9       4.5988      2.00000
     10       7.3208      0.00000
     11       8.0669      0.00000
     12       8.9774      0.00000
     13       9.8778      0.00000
     14      12.0549      0.00000

 k-point    18 :      -0.4444   -0.0000    0.2500
  band No.  band energies     occupation 
      1      -6.3329      2.00000
      2      -5.3155      2.00000
      3      -3.8416      2.00000
      4       0.6745      2.00000
      5       1.5632      2.00000
      6       2.5388      2.00000
      7       4.3059      2.00000
      8       4.4518      2.00000
      9       4.6909      2.00000
     10       7.1963      0.00000
     11       7.8653      0.00000
     12       8.2221      0.00000
     13       9.5945      0.00000
     14      12.6095      0.00000

 k-point    19 :      -0.3333    0.0000    0.2500
  band No.  band energies     occupation 
      1      -6.6505      2.00000
      2      -5.3831      2.00000
      3      -3.4872      2.00000
      4       0.8937      2.00000
      5       1.6459      2.00000
      6       2.6977      2.00000
      7       4.6452      2.00000
      8       4.7191      2.00000
      9       5.4669      2.00000
     10       6.8797      0.00000
     11       7.4285      0.00000
     12       7.6921      0.00000
     13       9.5208      0.00000
     14      12.7461      0.00000

 k-point    20 :      -0.2222   -0.0000    0.2500
  band No.  band energies     occupation 
      1      -7.0127      2.00000
      2      -5.4803      2.00000
      3      -3.1683      2.00000
      4       1.6429      2.00000
      5       1.9552      2.00000
      6       3.0054      2.00000
      7       4.8960      2.00000
      8       5.0362      2.00000
      9       5.6348      2.00000
     10       6.6678      0.00000
     11       7.1918      0.00000
     12       7.3908      0.00000
     13       9.7439      0.00000
     14      12.1482      0.00000

 k-point    21 :      -0.1111   -0.0000    0.2500
  band No.  band energies     occupation 
      1      -7.2596      2.00000
      2      -5.5918      2.00000
      3      -2.9570      2.00000
      4       2.3292      2.00000
      5       2.7432      2.00000
      6       3.4020      2.00000
      7       4.7983      2.00000
      8       5.0181      2.00000
      9       5.2865      2.00000
     10       6.7356      0.00000
     11       6.7516      0.00000
     12       7.6188      0.00000
     13      10.2180      0.00000
     14      11.5634      0.00000

 k-point    22 :       0.1111    0.1111    0.2500
  band No.  band energies     occupation 
      1      -7.0967      2.00000
      2      -5.4927      2.00000
      3      -3.1467      2.00000
      4       1.9784      2.00000
      5       2.3193      2.00000
      6       3.2430      2.00000
      7       4.2256      2.00000
      8       4.8419      2.00000
      9       5.2063      2.00000
     10       6.9849      0.00000
     11       7.5751      0.00000
     12       7.7903      0.00000
     13      10.2864      0.00000
     14      11.5873      0.00000

 k-point    23 :       0.2222    0.1111    0.2500
  band No.  band energies     occupation 
      1      -6.8040      2.00000
      2      -5.3100      2.00000
      3      -3.5490      2.00000
      4       1.6254      2.00000
      5       2.0325      2.00000
      6       2.9977      2.00000
      7       3.2560      2.00000
      8       4.3687      2.00000
      9       5.3256      2.00000
     10       7.1103      0.00000
     11       7.9354      0.00000
     12       8.8707      0.00000
     13      10.6459      0.00000
     14      11.1221      0.00000

 k-point    24 :       0.3333    0.1111    0.2500
  band No.  band energies     occupation 
      1      -6.4619      2.00000
      2      -5.1528      2.00000
      3      -3.9695      2.00000
      4       1.3040      2.00000
      5       1.5671      2.00000
      6       2.6658      2.00000
      7       3.2554      2.00000
      8       3.9832      2.00000
      9       5.3671      2.00000
     10       7.0083      0.00000
     11       8.2566      0.00000
     12       9.1729      0.00000
     13      10.2290      0.00000
     14      11.8297      0.00000

 k-point    25 :       0.4444    0.1111    0.2500
  band No.  band energies     occupation 
      1      -6.2578      2.00000
      2      -5.2205      2.00000
      3      -4.0247      2.00000
      4       0.8294      2.00000
      5       1.4388      2.00000
      6       2.5851      2.00000
      7       3.4896      2.00000
      8       4.1083      2.00000
      9       5.3950      2.00000
     10       6.9272      0.00000
     11       8.2902      0.00000
     12       8.6236      0.00000
     13       9.9771      0.00000
     14      12.4698      0.00000

 k-point    26 :      -0.4444    0.1111    0.2500
  band No.  band energies     occupation 
      1      -6.4269      2.00000
      2      -5.3119      2.00000
      3      -3.7507      2.00000
      4       0.7514      2.00000
      5       1.5668      2.00000
      6       2.6147      2.00000
      7       3.5526      2.00000
      8       4.9218      2.00000
      9       5.4567      2.00000
     10       6.8343      0.00000
     11       7.6866      0.00000
     12       8.3294      0.00000
     13       9.8831      0.00000
     14      12.5093      0.00000

 k-point    27 :      -0.3333    0.1111    0.2500
  band No.  band energies     occupation 
      1      -6.7901      2.00000
      2      -5.3795      2.00000
      3      -3.4198      2.00000
      4       1.2368      2.00000
      5       1.8197      2.00000
      6       2.8465      2.00000
      7       3.7969      2.00000
      8       5.2100      2.00000
      9       5.7794      2.00000
     10       6.5825      0.00000
     11       7.3322      0.00000
     12       8.1681      0.00000
     13       9.9484      0.00000
     14      11.8135      0.00000

 k-point    28 :       0.2222    0.2222    0.2500
  band No.  band energies     occupation 
      1      -6.4833      2.00000
      2      -5.2293      2.00000
      3      -3.8243      2.00000
      4       1.0280      2.00000
      5       1.6942      2.00000
      6       2.5746      2.00000
      7       3.0564      2.00000
      8       4.7192      2.00000
      9       5.6170      2.00000
     10       6.8948      0.00000
     11       7.8205      0.00000
     12       8.9574      0.00000
     13      10.6277      0.00000
     14      11.1830      0.00000

 k-point    29 :       0.3333    0.2222    0.2500
  band No.  band energies     occupation 
      1      -6.2151      2.00000
      2      -5.1482      2.00000
      3      -4.1234      2.00000
      4       1.0013      2.00000
      5       1.3061      2.00000
      6       2.2114      2.00000
      7       3.3069      2.00000
      8       4.2671      2.00000
      9       5.3970      2.00000
     10       7.1674      0.00000
     11       8.3829      0.00000
     12       8.8985      0.00000
     13      10.6574      0.00000
     14      11.8220      0.00000

 k-point    30 :       0.4444    0.2222    0.2500
  band No.  band energies     occupation 
      1      -6.2039      2.00000
      2      -5.1956      2.00000
      3      -4.0691      2.00000
      4       0.8368      2.00000
      5       1.3896      2.00000
      6       2.2333      2.00000
      7       3.2540      2.00000
      8       4.5778      2.00000
      9       5.2496      2.00000
     10       7.3247      0.00000
     11       8.0768      0.00000
     12       8.8166      0.00000
     13      10.5783      0.00000
     14      12.0671      0.00000

 k-point    31 :       0.3333    0.3333    0.2500
  band No.  band energies     occupation 
      1      -6.1017      2.00000
      2      -5.1408      2.00000
      3      -4.2103      2.00000
      4       0.9479      2.00000
      5       1.2931      2.00000
      6       1.8354      2.00000
      7       3.4924      2.00000
      8       4.4886      2.00000
      9       4.9044      2.00000
     10       7.7992      0.00000
     11       8.4397      0.00000
     12       8.5377      0.00000
     13      11.4817      0.00000
     14      11.7956      0.00000

 k-point    32 :       0.0000    0.0000    0.5000
  band No.  band energies     occupation 
      1      -6.6901      2.00000
      2      -6.6901      2.00000
      3      -2.1324      2.00000
      4       2.0228      2.00000
      5       3.5127      2.00000
      6       3.5127      2.00000
      7       4.8035      2.00000
      8       5.1684      2.00000
      9       5.1684      2.00000
     10       6.5642      0.00000
     11       6.6538      0.00000
     12       6.6538      0.00000
     13       9.9960      0.00000
     14      11.3982      0.00000

 k-point    33 :       0.1111    0.0000    0.5000
  band No.  band energies     occupation 
      1      -6.6231      2.00000
      2      -6.6072      2.00000
      3      -2.3102      2.00000
      4       2.0038      2.00000
      5       3.3085      2.00000
      6       3.4117      2.00000
      7       4.2718      2.00000
      8       4.7001      2.00000
      9       4.9580      2.00000
     10       6.8388      0.00000
     11       7.1035      0.00000
     12       7.5270      0.00000
     13      10.2522      0.00000
     14      11.0640      0.00000

 k-point    34 :       0.2222    0.0000    0.5000
  band No.  band energies     occupation 
      1      -6.4417      2.00000
      2      -6.3679      2.00000
      3      -2.7778      2.00000
      4       1.7302      2.00000
      5       2.6383      2.00000
      6       3.1151      2.00000
      7       4.0412      2.00000
      8       4.2354      2.00000
      9       4.7066      2.00000
     10       7.2981      0.00000
     11       7.8558      0.00000
     12       8.2745      0.00000
     13      10.4705      0.00000
     14      11.2845      0.00000

 k-point    35 :       0.3333   -0.0000    0.5000
  band No.  band energies     occupation 
      1      -6.2102      2.00000
      2      -6.0124      2.00000
      3      -3.3754      2.00000
      4       0.9721      2.00000
      5       2.3944      2.00000
      6       2.7887      2.00000
      7       3.8205      2.00000
      8       4.0511      2.00000
      9       4.9467      2.00000
     10       7.5055      0.00000
     11       8.0142      0.00000
     12       8.4291      0.00000
     13      10.4768      0.00000
     14      11.5293      0.00000

 k-point    36 :       0.4444    0.0000    0.5000
  band No.  band energies     occupation 
      1      -6.0399      2.00000
      2      -5.6742      2.00000
      3      -3.8634      2.00000
      4       0.4253      2.00000
      5       2.3987      2.00000
      6       2.5394      2.00000
      7       3.6433      2.00000
      8       3.9421      2.00000
      9       5.5912      2.00000
     10       6.8847      0.00000
     11       7.9646      0.00000
     12       8.6579      0.00000
     13      10.5289      0.00000
     14      11.2431      0.00000

 k-point    37 :       0.1111    0.1111    0.5000
  band No.  band energies     occupation 
      1      -6.4948      2.00000
      2      -6.4497      2.00000
      3      -2.6301      2.00000
      4       1.8821      2.00000
      5       2.9054      2.00000
      6       2.9993      2.00000
      7       3.9961      2.00000
      8       4.2036      2.00000
      9       5.2327      2.00000
     10       6.7436      0.00000
     11       7.9554      0.00000
     12       8.1136      0.00000
     13      10.7027      0.00000
     14      10.7850      0.00000

 k-point    38 :       0.2222    0.1111    0.5000
  band No.  band energies     occupation 
      1      -6.2760      2.00000
      2      -6.1600      2.00000
      3      -3.1516      2.00000
      4       1.3836      2.00000
      5       2.2653      2.00000
      6       2.5026      2.00000
      7       3.9864      2.00000
      8       4.3612      2.00000
      9       5.1775      2.00000
     10       7.0809      0.00000
     11       8.1833      0.00000
     12       8.3517      0.00000
     13      10.5775      0.00000
     14      11.4584      0.00000

 k-point    39 :       0.3333    0.1111    0.5000
  band No.  band energies     occupation 
      1      -6.0582      2.00000
      2      -5.8083      2.00000
      3      -3.6920      2.00000
      4       0.7028      2.00000
      5       1.9985      2.00000
      6       2.1657      2.00000
      7       4.0936      2.00000
      8       4.4975      2.00000
      9       5.3524      2.00000
     10       7.2065      0.00000
     11       7.7620      0.00000
     12       8.4186      0.00000
     13      10.5994      0.00000
     14      11.5562      0.00000

 k-point    40 :       0.4444    0.1111    0.5000
  band No.  band energies     occupation 
      1      -5.9639      2.00000
      2      -5.6130      2.00000
      3      -3.9585      2.00000
      4       0.4214      2.00000
      5       1.9487      2.00000
      6       2.0204      2.00000
      7       4.2647      2.00000
      8       4.3145      2.00000
      9       5.8388      2.00000
     10       6.6843      0.00000
     11       7.7905      0.00000
     12       8.4245      0.00000
     13      10.6892      0.00000
     14      11.2876      0.00000

 k-point    41 :       0.2222    0.2222    0.5000
  band No.  band energies     occupation 
      1      -6.0411      2.00000
      2      -5.8899      2.00000
      3      -3.6044      2.00000
      4       1.0409      2.00000
      5       1.5580      2.00000
      6       1.8885      2.00000
      7       4.4078      2.00000
      8       4.7716      2.00000
      9       5.6331      2.00000
     10       6.8799      0.00000
     11       8.0084      0.00000
     12       8.0153      0.00000
     13      10.9088      0.00000
     14      11.7570      0.00000

 k-point    42 :       0.3333    0.2222    0.5000
  band No.  band energies     occupation 
      1      -5.8570      2.00000
      2      -5.6639      2.00000
      3      -3.9497      2.00000
      4       0.6885      2.00000
      5       1.3065      2.00000
      6       1.4863      2.00000
      7       4.7746      2.00000
      8       5.2149      2.00000
      9       5.8408      2.00000
     10       6.7540      0.00000
     11       7.4441      0.00000
     12       7.8317      0.00000
     13      11.2579      0.00000
     14      11.8944      0.00000

 k-point    43 :       0.3333    0.3333    0.5000
  band No.  band energies     occupation 
      1      -5.6884      2.00000
      2      -5.6884      2.00000
      3      -4.0445      2.00000
      4       0.8791      2.00000
      5       1.0350      2.00000
      6       1.0350      2.00000
      7       5.0602      2.00000
      8       6.0760      1.58631
      9       6.0760      1.58630
     10       6.1126      0.82739
     11       7.3400      0.00000
     12       7.3400      0.00000
     13      12.0741      0.00000
     14      12.5633      0.00000


--------------------------------------------------------------------------------------------------------


 soft charge-density along one line, spin component           1
         0         1         2         3         4         5         6         7         8         9
 total charge-density along one line
 
 pseudopotential strength for first ion, spin component:           1
 51.597  56.139  -0.000  -0.000  -0.049  -0.000  -0.000  -0.072
 56.139  61.085  -0.000  -0.000  -0.054  -0.000  -0.000  -0.078
 -0.000  -0.000  12.705   0.009   0.000  18.314   0.013   0.000
 -0.000  -0.000   0.009  12.722   0.000   0.013  18.337   0.000
 -0.049  -0.054   0.000   0.000  12.721   0.000   0.000  18.336
 -0.000  -0.000  18.314   0.013   0.000  26.408   0.019   0.000
 -0.000  -0.000   0.013  18.337   0.000   0.019  26.442   0.000
 -0.072  -0.078   0.000   0.000  18.336   0.000   0.000  26.439
  0.000   0.000  -0.010   0.000  -0.000  -0.014   0.000  -0.000
  0.014   0.016   0.000  -0.000   0.000   0.000  -0.000   0.000
  0.008   0.008   0.000  -0.000   0.006   0.000  -0.000   0.009
  0.000   0.000   0.000  -0.009  -0.000   0.000  -0.013  -0.000
  0.012   0.013   0.000  -0.000  -0.010   0.000  -0.000  -0.014
 total augmentation occupancy for first ion, spin component:           1
 13.625 -10.024   0.000   0.000   2.130   0.000   0.000  -0.559   0.000  -0.167  -0.115   0.000  -0.119
-10.024   8.647   0.000  -0.000  -1.793   0.000  -0.000   0.481   0.000   0.151   0.103   0.000   0.107
  0.000   0.000   2.570   0.231   0.000  -0.504  -0.194   0.000  -0.053   0.000   0.000  -0.050   0.000
  0.000   0.000   0.231   2.969  -0.000  -0.194  -0.844   0.000  -0.048   0.000   0.000  -0.123   0.000
  2.130  -1.793   0.000  -0.000   2.821   0.000   0.000  -0.753   0.000  -0.055  -0.018   0.000  -0.053
  0.000   0.000  -0.504  -0.194   0.000   0.183   0.074   0.000   0.013   0.000   0.000   0.018  -0.000
  0.000  -0.000  -0.194  -0.844   0.000   0.074   0.310  -0.000   0.018   0.000   0.000   0.037  -0.000
 -0.559   0.481   0.000   0.000  -0.753   0.000  -0.000   0.266   0.000   0.016   0.005  -0.000   0.013
 -0.000   0.000  -0.053  -0.048   0.000   0.013   0.018   0.000   0.009   0.000  -0.000   0.011   0.000
 -0.167   0.151   0.000   0.000  -0.055   0.000   0.000   0.016   0.000   0.015   0.004   0.000   0.004
 -0.115   0.103   0.000   0.000  -0.018   0.000   0.000   0.005  -0.000   0.004   0.008  -0.000  -0.000
  0.000   0.000  -0.050  -0.123   0.000   0.018   0.037  -0.000   0.011   0.000   0.000   0.027   0.000
 -0.119   0.107   0.000   0.000  -0.053  -0.000   0.000   0.013   0.000   0.004  -0.000   0.000   0.010


------------------------ aborting loop because EDIFF is reached ----------------------------------------


    CHARGE:  cpu time    0.0238: real time    0.0239
    FORLOC:  cpu time    0.0009: real time    0.0009
    FORNL :  cpu time    0.0953: real time    0.0956
    STRESS:  cpu time    0.2125: real time    0.2131
    FORCOR:  cpu time    0.0180: real time    0.0180
    FORHAR:  cpu time    0.0038: real time    0.0038
    MIXING:  cpu time    0.0008: real time    0.0008
    OFIELD:  cpu time    0.0000: real time    0.0000

  Number of pair interactions contributing to vdW energy:   31350
  Edisp (eV):   -0.93631
    FORVDW:  cpu time    0.0018: real time    0.0017

  FORCE on cell =-STRESS in cart. coord.  units (eV):
  Direction    XX          YY          ZZ          XY          YZ          ZX
  --------------------------------------------------------------------------------------
  Alpha Z     2.32430     2.32430     2.32430
  Ewald    -240.01115  -240.01114  -198.68613    -0.00000    -0.00001     0.00000
  Hartree    10.61531    10.61531    20.71268     0.00000     0.00000    -0.00000
  E(xc)     -70.47722   -70.47722   -69.96588    -0.00000     0.00000    -0.00000
  Local    -109.35331  -109.35336  -151.00337    -0.00004     0.00000    -0.00000
  n-local   332.56413   333.28585   328.51776    -1.37754    -0.74215    -1.32087
  augment   -81.16872   -81.16868   -78.75561     0.00004    -0.00000     0.00000
  Kinetic   152.73349   159.54427   147.76788    -7.55240     0.06342     1.37177
  Fock        0.00000     0.00000     0.00000     0.00000     0.00000     0.00000
  vdW        -1.12323    -1.12323    -0.89842     0.00000    -0.00000     0.00000
  -------------------------------------------------------------------------------------
  Total      -0.13014    -0.13014     0.01322     0.00000     0.00000     0.00000
  in kB      -2.07323    -2.07323     0.21068     0.00000     0.00000     0.00000
  external pressure =       -1.31 kB  Pullay stress =        0.00 kB


 VOLUME and BASIS-vectors are now :
 -----------------------------------------------------------------------------
  energy-cutoff  :      520.00
  volume of cell :      100.57
      direct lattice vectors                 reciprocal lattice vectors
     4.396422437  0.000000000 -0.000000000     0.227457669  0.131322747  0.000000000
    -2.198211218  3.807413516  0.000000000     0.000000000  0.262645493  0.000000000
    -0.000000000  0.000000000  6.008059200     0.000000000  0.000000000  0.166443100

  length of vectors
     4.396422437  4.396422437  6.008059200     0.262645493  0.262645493  0.166443100


 FORCES acting on ions
    electron-ion (+dipol)            ewald-force                    non-local-force                 convergence-correction
 -----------------------------------------------------------------------------------------------
   -.109E+02 0.112E-04 -.108E-05   0.159E+02 0.148E-05 0.160E-05   -.483E+01 0.000E+00 0.000E+00   -.669E-03 -.890E-08 0.250E-09
   0.545E+01 -.945E+01 -.186E-04   -.796E+01 0.138E+02 -.873E-05   0.242E+01 -.419E+01 0.555E-16   0.335E-03 -.580E-03 0.101E-08
   0.545E+01 0.945E+01 0.193E-04   -.796E+01 -.138E+02 0.712E-05   0.242E+01 0.419E+01 0.000E+00   0.335E-03 0.580E-03 -.125E-08
 -----------------------------------------------------------------------------------------------
   0.257E-04 -.784E-05 -.349E-06   0.000E+00 0.000E+00 -.521E-17   -.444E-15 0.000E+00 0.555E-16   -.268E-08 -.395E-08 0.618E-11
 
 
 POSITION                                       TOTAL-FORCE (eV/Angst)
 -----------------------------------------------------------------------------------
      1.18748      0.00000      2.00269         0.063626     -0.000000     -0.000000
     -0.59374      1.02839      4.00537        -0.031813      0.055102      0.000000
      1.60447      2.77902     -0.00000        -0.031813     -0.055102      0.000000
 -----------------------------------------------------------------------------------
    total drift:                                0.000026     -0.000008     -0.000000


--------------------------------------------------------------------------------------------------------



  FREE ENERGIE OF THE ION-ELECTRON SYSTEM (eV)
  ---------------------------------------------------
  free  energy   TOTEN  =       -10.34160011 eV

  energy  without entropy=      -10.34118071  energy(sigma->0) =      -10.34139041
 
 d Force = 0.4551358E-02[ 0.388E-02, 0.522E-02]  d Energy = 0.9594465E-02-0.504E-02
 d Force = 0.1025431E+01[ 0.971E+00, 0.108E+01]  d Ewald  = 0.6309085E+01-0.528E+01


--------------------------------------------------------------------------------------------------------


    POTLOK:  cpu time    0.0196: real time    0.0196


--------------------------------------------------------------------------------------------------------




--------------------------------------------------------------------------------------------------------


    WAVPRE:  cpu time    0.0034: real time    0.0064
    FEWALD:  cpu time    0.0002: real time    0.0002
    GENKIN:  cpu time    0.0058: real time    0.0058
    ORTHCH:  cpu time    0.0185: real time    0.0186
     LOOP+:  cpu time    2.9192: real time    2.9359


--------------------------------------- Iteration      6(   1)  ---------------------------------------


    POTLOK:  cpu time    0.0173: real time    0.0186
    SETDIJ:  cpu time    0.0023: real time    0.0023
     EDDAV:  cpu time    0.3129: real time    0.3137
       DOS:  cpu time    0.0005: real time    0.0005
    CHARGE:  cpu time    0.0241: real time    0.0241
    MIXING:  cpu time    0.0006: real time    0.0006
    --------------------------------------------
      LOOP:  cpu time    0.3577: real time    0.3599

 eigenvalue-minimisations  :  1216
 total energy-change (2. order) :-0.4030382E-01  (-0.6241424E+00)
 number of electron      17.9999996 magnetization 
 augmentation part       -3.5622151 magnetization 

 Broyden mixing:
  rms(total) = 0.17075E+00    rms(broyden)= 0.17075E+00
  rms(prec ) = 0.27977E+00
  weight for this iteration     100.00

 Free energy of the ion-electron system (eV)
  ---------------------------------------------------
  alpha Z        PSCENC =         2.42867254
  Ewald energy   TEWEN  =      -691.31353325
  -Hartree energ DENC   =       -41.19181950
  -exchange      EXHF   =         0.00000000
  -V(xc)+E(xc)   XCENC  =       -83.82758932
  PAW double counting   =      1551.21566180    -1435.86476810
  entropy T*S    EENTRO =        -0.00040951
  eigenvalues    EBANDS =        19.29388338
  atomic energy  EATOM  =       669.81430600
  Solvation  Ediel_sol  =         0.00000000
  ---------------------------------------------------
  free energy    TOTEN  =        -9.44559596 eV

  energy without entropy =       -9.44518644  energy(sigma->0) =       -9.44539120


--------------------------------------------------------------------------------------------------------




--------------------------------------- Iteration      6(   2)  ---------------------------------------


    POTLOK:  cpu time    0.0177: real time    0.0177
    SETDIJ:  cpu time    0.0024: real time    0.0024
     EDDAV:  cpu time    0.3250: real time    0.3261
       DOS:  cpu time    0.0005: real time    0.0005
    CHARGE:  cpu time    0.0244: real time    0.0245
    MIXING:  cpu time    0.0006: real time    0.0006
    --------------------------------------------
      LOOP:  cpu time    0.3707: real time    0.3718

 eigenvalue-minimisations  :  1294
 total energy-change (2. order) : 0.4817383E-01  (-0.2520720E-01)
 number of electron      17.9999996 magnetization 
 augmentation part       -3.5699721 magnetization 

 Broyden mixing:
  rms(total) = 0.84421E-01    rms(broyden)= 0.84421E-01
  rms(prec ) = 0.15420E+00
  weight for this iteration     100.00

 eigenvalues of (default mixing * dielectric matrix)
  average eigenvalue GAMMA=   1.1926
  1.1926

 Free energy of the ion-electron system (eV)
  ---------------------------------------------------
  alpha Z        PSCENC =         2.42867254
  Ewald energy   TEWEN  =      -691.31353325
  -Hartree energ DENC   =       -39.56323537
  -exchange      EXHF   =         0.00000000
  -V(xc)+E(xc)   XCENC  =       -83.79875279
  PAW double counting   =      1549.90390292    -1434.52897093
  entropy T*S    EENTRO =        -0.00038321
  eigenvalues    EBANDS =        17.66057196
  atomic energy  EATOM  =       669.81430600
  Solvation  Ediel_sol  =         0.00000000
  ---------------------------------------------------
  free energy    TOTEN  =        -9.39742212 eV

  energy without entropy =       -9.39703892  energy(sigma->0) =       -9.39723052


--------------------------------------------------------------------------------------------------------




--------------------------------------- Iteration      6(   3)  ---------------------------------------


    POTLOK:  cpu time    0.0169: real time    0.0170
    SETDIJ:  cpu time    0.0024: real time    0.0025
     EDDAV:  cpu time    0.3416: real time    0.3426
       DOS:  cpu time    0.0005: real time    0.0005
    CHARGE:  cpu time    0.0243: real time    0.0243
    MIXING:  cpu time    0.0006: real time    0.0006
    --------------------------------------------
      LOOP:  cpu time    0.3864: real time    0.3875

 eigenvalue-minimisations  :  1390
 total energy-change (2. order) : 0.3114341E-01  (-0.5161745E-02)
 number of electron      17.9999996 magnetization 
 augmentation part       -3.5999892 magnetization 

 Broyden mixing:
  rms(total) = 0.60710E-01    rms(broyden)= 0.60710E-01
  rms(prec ) = 0.69695E-01
  weight for this iteration     100.00

 eigenvalues of (default mixing * dielectric matrix)
  average eigenvalue GAMMA=   1.0130
  1.2169  0.8092

 Free energy of the ion-electron system (eV)
  ---------------------------------------------------
  alpha Z        PSCENC =         2.42867254
  Ewald energy   TEWEN  =      -691.31353325
  -Hartree energ DENC   =       -38.12064046
  -exchange      EXHF   =         0.00000000
  -V(xc)+E(xc)   XCENC  =       -83.74315664
  PAW double counting   =      1571.89441258    -1456.51074366
  entropy T*S    EENTRO =        -0.00036333
  eigenvalues    EBANDS =        16.18476751
  atomic energy  EATOM  =       669.81430600
  Solvation  Ediel_sol  =         0.00000000
  ---------------------------------------------------
  free energy    TOTEN  =        -9.36627871 eV

  energy without entropy =       -9.36591539  energy(sigma->0) =       -9.36609705


--------------------------------------------------------------------------------------------------------




--------------------------------------- Iteration      6(   4)  ---------------------------------------


    POTLOK:  cpu time    0.0168: real time    0.0168
    SETDIJ:  cpu time    0.0024: real time    0.0024
     EDDAV:  cpu time    0.3406: real time    0.3416
       DOS:  cpu time    0.0006: real time    0.0006
    CHARGE:  cpu time    0.0243: real time    0.0244
    MIXING:  cpu time    0.0007: real time    0.0007
    --------------------------------------------
      LOOP:  cpu time    0.3854: real time    0.3865

 eigenvalue-minimisations  :  1378
 total energy-change (2. order) : 0.1578303E-02  (-0.3365157E-03)
 number of electron      17.9999996 magnetization 
 augmentation part       -3.6082844 magnetization 

 Broyden mixing:
  rms(total) = 0.72750E-01    rms(broyden)= 0.72750E-01
  rms(prec ) = 0.74647E-01
  weight for this iteration     100.00

 eigenvalues of (default mixing * dielectric matrix)
  average eigenvalue GAMMA=   1.8989
  1.0753  2.3108  2.3108

 Free energy of the ion-electron system (eV)
  ---------------------------------------------------
  alpha Z        PSCENC =         2.42867254
  Ewald energy   TEWEN  =      -691.31353325
  -Hartree energ DENC   =       -37.86790123
  -exchange      EXHF   =         0.00000000
  -V(xc)+E(xc)   XCENC  =       -83.72949019
  PAW double counting   =      1580.35749533    -1464.98372197
  entropy T*S    EENTRO =        -0.00036338
  eigenvalues    EBANDS =        15.92983574
  atomic energy  EATOM  =       669.81430600
  Solvation  Ediel_sol  =         0.00000000
  ---------------------------------------------------
  free energy    TOTEN  =        -9.36470041 eV

  energy without entropy =       -9.36433703  energy(sigma->0) =       -9.36451872


--------------------------------------------------------------------------------------------------------




--------------------------------------- Iteration      6(   5)  ---------------------------------------


    POTLOK:  cpu time    0.0166: real time    0.0167
    SETDIJ:  cpu time    0.0024: real time    0.0023
     EDDAV:  cpu time    0.3817: real time    0.3829
       DOS:  cpu time    0.0005: real time    0.0005
    CHARGE:  cpu time    0.0245: real time    0.0246
    MIXING:  cpu time    0.0007: real time    0.0007
    --------------------------------------------
      LOOP:  cpu time    0.4265: real time    0.4278

 eigenvalue-minimisations  :  1590
 total energy-change (2. order) : 0.2538568E-03  (-0.4628866E-04)
 number of electron      17.9999996 magnetization 
 augmentation part       -3.6106551 magnetization 

 Broyden mixing:
  rms(total) = 0.20168E-01    rms(broyden)= 0.20168E-01
  rms(prec ) = 0.22937E-01
  weight for this iteration     100.00

 eigenvalues of (default mixing * dielectric matrix)
  average eigenvalue GAMMA=   1.7377
  2.9584  1.9269  0.9417  1.1237

 Free energy of the ion-electron system (eV)
  ---------------------------------------------------
  alpha Z        PSCENC =         2.42867254
  Ewald energy   TEWEN  =      -691.31353325
  -Hartree energ DENC   =       -37.77572831
  -exchange      EXHF   =         0.00000000
  -V(xc)+E(xc)   XCENC  =       -83.72757609
  PAW double counting   =      1595.81509933    -1480.47355631
  entropy T*S    EENTRO =        -0.00036709
  eigenvalues    EBANDS =        15.86823664
  atomic energy  EATOM  =       669.81430600
  Solvation  Ediel_sol  =         0.00000000
  ---------------------------------------------------
  free energy    TOTEN  =        -9.36444655 eV

  energy without entropy =       -9.36407946  energy(sigma->0) =       -9.36426301


--------------------------------------------------------------------------------------------------------




--------------------------------------- Iteration      6(   6)  ---------------------------------------


    POTLOK:  cpu time    0.0169: real time    0.0170
    SETDIJ:  cpu time    0.0025: real time    0.0024
     EDDAV:  cpu time    0.3162: real time    0.3173
       DOS:  cpu time    0.0006: real time    0.0005
    CHARGE:  cpu time    0.0246: real time    0.0247
    MIXING:  cpu time    0.0008: real time    0.0008
    --------------------------------------------
      LOOP:  cpu time    0.3615: real time    0.3627

 eigenvalue-minimisations  :  1228
 total energy-change (2. order) : 0.2369925E-03  (-0.6307285E-04)
 number of electron      17.9999996 magnetization 
 augmentation part       -3.6140734 magnetization 

 Broyden mixing:
  rms(total) = 0.57130E-02    rms(broyden)= 0.57130E-02
  rms(prec ) = 0.57868E-02
  weight for this iteration     100.00

 eigenvalues of (default mixing * dielectric matrix)
  average eigenvalue GAMMA=   1.7879
  3.2090  1.9552  0.9677  1.4038  1.4038

 Free energy of the ion-electron system (eV)
  ---------------------------------------------------
  alpha Z        PSCENC =         2.42867254
  Ewald energy   TEWEN  =      -691.31353325
  -Hartree energ DENC   =       -37.61685063
  -exchange      EXHF   =         0.00000000
  -V(xc)+E(xc)   XCENC  =       -83.72016907
  PAW double counting   =      1600.47421910    -1485.13260588
  entropy T*S    EENTRO =        -0.00036542
  eigenvalues    EBANDS =        15.70211705
  atomic energy  EATOM  =       669.81430600
  Solvation  Ediel_sol  =         0.00000000
  ---------------------------------------------------
  free energy    TOTEN  =        -9.36420956 eV

  energy without entropy =       -9.36384414  energy(sigma->0) =       -9.36402685


--------------------------------------------------------------------------------------------------------




--------------------------------------- Iteration      6(   7)  ---------------------------------------


    POTLOK:  cpu time    0.0171: real time    0.0172
    SETDIJ:  cpu time    0.0023: real time    0.0023
     EDDAV:  cpu time    0.3401: real time    0.3413
       DOS:  cpu time    0.0005: real time    0.0006
    --------------------------------------------
      LOOP:  cpu time    0.3602: real time    0.3615

 eigenvalue-minimisations  :  1348
 total energy-change (2. order) :-0.5011155E-05  (-0.2866064E-05)
 number of electron      17.9999996 magnetization 
 augmentation part       -3.6140734 magnetization 

 Free energy of the ion-electron system (eV)
  ---------------------------------------------------
  alpha Z        PSCENC =         2.42867254
  Ewald energy   TEWEN  =      -691.31353325
  -Hartree energ DENC   =       -37.61594077
  -exchange      EXHF   =         0.00000000
  -V(xc)+E(xc)   XCENC  =       -83.71972480
  PAW double counting   =      1604.01541710    -1488.67362944
  entropy T*S    EENTRO =        -0.00036522
  eigenvalues    EBANDS =        15.70058327
  atomic energy  EATOM  =       669.81430600
  Solvation  Ediel_sol  =         0.00000000
  ---------------------------------------------------
  free energy    TOTEN  =        -9.36421457 eV

  energy without entropy =       -9.36384935  energy(sigma->0) =       -9.36403196


--------------------------------------------------------------------------------------------------------




 average (electrostatic) potential at core
  the test charge radii are     1.1897
  (the norm of the test charge is              1.0000)
       1 -88.4173       2 -88.4173       3 -88.4174
 
 
 
 E-fermi :   6.6252     XC(G=0):  -9.3490     alpha+bet :-11.1730


 k-point     1 :       0.0000    0.0000    0.0000
  band No.  band energies     occupation 
      1      -7.2267      2.00000
      2      -3.8867      2.00000
      3      -3.8867      2.00000
      4       3.8032      2.00000
      5       4.0995      2.00000
      6       4.0995      2.00000
      7       5.0025      2.00000
      8       5.0025      2.00000
      9       5.7049      2.00000
     10       7.6558      0.00000
     11       7.6558      0.00000
     12       8.4836      0.00000
     13      11.4852      0.00000
     14      11.4852      0.00000

 k-point     2 :       0.1111    0.0000    0.0000
  band No.  band energies     occupation 
      1      -7.1279      2.00000
      2      -3.8910      2.00000
      3      -3.8487      2.00000
      4       2.9701      2.00000
      5       3.5325      2.00000
      6       3.8277      2.00000
      7       5.3787      2.00000
      8       5.6214      2.00000
      9       6.1036      2.00000
     10       7.2728      0.00000
     11       7.5526      0.00000
     12       8.2587      0.00000
     13      11.2100      0.00000
     14      11.5140      0.00000

 k-point     3 :       0.2222    0.0000    0.0000
  band No.  band energies     occupation 
      1      -6.8412      2.00000
      2      -3.9639      2.00000
      3      -3.7430      2.00000
      4       1.9895      2.00000
      5       2.7928      2.00000
      6       3.3642      2.00000
      7       5.3380      2.00000
      8       5.7840      2.00000
      9       5.9158      2.00000
     10       7.3838      0.00000
     11       7.6864      0.00000
     12       8.3076      0.00000
     13      10.3873      0.00000
     14      11.9332      0.00000

 k-point     4 :       0.3333   -0.0000    0.0000
  band No.  band energies     occupation 
      1      -6.4077      2.00000
      2      -4.2175      2.00000
      3      -3.6062      2.00000
      4       1.5154      2.00000
      5       2.2075      2.00000
      6       2.9799      2.00000
      7       4.0461      2.00000
      8       5.8689      2.00000
      9       5.9195      2.00000
     10       7.3016      0.00000
     11       7.5394      0.00000
     12       9.4237      0.00000
     13       9.6930      0.00000
     14      12.9403      0.00000

 k-point     5 :       0.4444    0.0000    0.0000
  band No.  band energies     occupation 
      1      -5.9687      2.00000
      2      -4.5867      2.00000
      3      -3.5064      2.00000
      4       1.4999      2.00000
      5       1.9799      2.00000
      6       2.7397      2.00000
      7       3.0571      2.00000
      8       5.7802      2.00000
      9       5.9280      2.00000
     10       7.2935      0.00000
     11       7.3753      0.00000
     12       9.3053      0.00000
     13      10.2396      0.00000
     14      14.1862      0.00000

 k-point     6 :       0.1111    0.1111    0.0000
  band No.  band energies     occupation 
      1      -6.9348      2.00000
      2      -3.9098      2.00000
      3      -3.7974      2.00000
      4       2.3183      2.00000
      5       2.6628      2.00000
      6       3.9101      2.00000
      7       5.0126      2.00000
      8       5.9945      2.00000
      9       6.0063      2.00000
     10       7.3191      0.00000
     11       7.6283      0.00000
     12       8.3110      0.00000
     13      11.0598      0.00000
     14      11.0862      0.00000

 k-point     7 :       0.2222    0.1111    0.0000
  band No.  band energies     occupation 
      1      -6.5717      2.00000
      2      -4.0410      2.00000
      3      -3.7202      2.00000
      4       1.7063      2.00000
      5       2.1324      2.00000
      6       3.4774      2.00000
      7       4.6935      2.00000
      8       5.0671      2.00000
      9       5.6155      2.00000
     10       7.7853      0.00000
     11       8.2582      0.00000
     12       8.7666      0.00000
     13      10.3624      0.00000
     14      11.5685      0.00000

 k-point     8 :       0.3333    0.1111    0.0000
  band No.  band energies     occupation 
      1      -6.1135      2.00000
      2      -4.3636      2.00000
      3      -3.6387      2.00000
      4       1.5392      2.00000
      5       1.9351      2.00000
      6       2.9713      2.00000
      7       3.5416      2.00000
      8       5.0411      2.00000
      9       5.2934      2.00000
     10       7.9354      0.00000
     11       8.2276      0.00000
     12       9.7888      0.00000
     13       9.9228      0.00000
     14      12.7115      0.00000

 k-point     9 :       0.4444    0.1111    0.0000
  band No.  band energies     occupation 
      1      -5.8343      2.00000
      2      -4.6097      2.00000
      3      -3.6033      2.00000
      4       1.5936      2.00000
      5       1.9994      2.00000
      6       2.7457      2.00000
      7       2.9274      2.00000
      8       5.1016      2.00000
      9       5.1160      2.00000
     10       7.9656      0.00000
     11       8.1923      0.00000
     12       9.7186      0.00000
     13      10.2885      0.00000
     14      13.9115      0.00000

 k-point    10 :       0.2222    0.2222    0.0000
  band No.  band energies     occupation 
      1      -6.1720      2.00000
      2      -4.1659      2.00000
      3      -3.8080      2.00000
      4       1.6608      2.00000
      5       1.7816      2.00000
      6       3.3757      2.00000
      7       4.1028      2.00000
      8       4.4485      2.00000
      9       4.4513      2.00000
     10       8.7831      0.00000
     11       8.9673      0.00000
     12       9.1394      0.00000
     13      10.9394      0.00000
     14      11.2220      0.00000

 k-point    11 :       0.3333    0.2222    0.0000
  band No.  band energies     occupation 
      1      -5.7865      2.00000
      2      -4.3943      2.00000
      3      -3.8868      2.00000
      4       1.7753      2.00000
      5       1.9342      2.00000
      6       3.0083      2.00000
      7       3.2733      2.00000
      8       4.0715      2.00000
      9       4.1497      2.00000
     10       8.9960      0.00000
     11       9.2515      0.00000
     12       9.9493      0.00000
     13      10.8151      0.00000
     14      12.3816      0.00000

 k-point    12 :       0.3333    0.3333    0.0000
  band No.  band energies     occupation 
      1      -5.6292      2.00000
      2      -4.2176      2.00000
      3      -4.2176      2.00000
      4       2.0104      2.00000
      5       2.0104      2.00000
      6       3.2552      2.00000
      7       3.2552      2.00000
      8       3.4425      2.00000
      9       3.4737      2.00000
     10       9.6622      0.00000
     11       9.6622      0.00000
     12       9.9092      0.00000
     13      11.7638      0.00000
     14      12.5573      0.00000

 k-point    13 :       0.0000    0.0000    0.2500
  band No.  band energies     occupation 
      1      -7.0033      2.00000
      2      -5.2761      2.00000
      3      -2.3957      2.00000
      4       3.1143      2.00000
      5       3.9003      2.00000
      6       4.2789      2.00000
      7       5.2045      2.00000
      8       5.4681      2.00000
      9       5.7731      2.00000
     10       7.3112      0.00000
     11       7.3350      0.00000
     12       7.9444      0.00000
     13      10.7011      0.00000
     14      12.1522      0.00000

 k-point    14 :       0.1111    0.0000    0.2500
  band No.  band energies     occupation 
      1      -6.9080      2.00000
      2      -5.2075      2.00000
      3      -2.4916      2.00000
      4       2.7838      2.00000
      5       3.7260      2.00000
      6       4.1607      2.00000
      7       4.8024      2.00000
      8       5.3322      2.00000
      9       5.4586      2.00000
     10       7.6505      0.00000
     11       7.7734      0.00000
     12       8.3452      0.00000
     13      10.9113      0.00000
     14      12.1022      0.00000

 k-point    15 :       0.2222    0.0000    0.2500
  band No.  band energies     occupation 
      1      -6.6370      2.00000
      2      -5.0064      2.00000
      3      -2.8320      2.00000
      4       2.3931      2.00000
      5       3.2510      2.00000
      6       3.7019      2.00000
      7       4.0855      2.00000
      8       4.7360      2.00000
      9       5.2113      2.00000
     10       8.0316      0.00000
     11       8.6903      0.00000
     12       9.1220      0.00000
     13      11.3328      0.00000
     14      11.7936      0.00000

 k-point    16 :       0.3333   -0.0000    0.2500
  band No.  band energies     occupation 
      1      -6.2405      2.00000
      2      -4.7325      2.00000
      3      -3.3671      2.00000
      4       2.0737      2.00000
      5       2.5041      2.00000
      6       3.2827      2.00000
      7       3.4676      2.00000
      8       4.7469      2.00000
      9       5.0841      2.00000
     10       8.0324      0.00000
     11       8.7503      0.00000
     12       9.8419      0.00000
     13      10.6700      0.00000
     14      12.1028      0.00000

 k-point    17 :       0.4444    0.0000    0.2500
  band No.  band energies     occupation 
      1      -5.8469      2.00000
      2      -4.6697      2.00000
      3      -3.6751      2.00000
      4       1.3317      2.00000
      5       2.1264      2.00000
      6       3.0204      2.00000
      7       3.8593      2.00000
      8       4.8101      2.00000
      9       5.0193      2.00000
     10       7.8831      0.00000
     11       8.6387      0.00000
     12       9.4709      0.00000
     13      10.1479      0.00000
     14      12.4826      0.00000

 k-point    18 :      -0.4444   -0.0000    0.2500
  band No.  band energies     occupation 
      1      -5.7887      2.00000
      2      -4.8967      2.00000
      3      -3.4028      2.00000
      4       0.9364      2.00000
      5       1.9465      2.00000
      6       2.9957      2.00000
      7       4.7358      2.00000
      8       4.9761      2.00000
      9       5.1044      2.00000
     10       7.7420      0.00000
     11       8.3953      0.00000
     12       8.6637      0.00000
     13       9.8599      0.00000
     14      13.1234      0.00000

 k-point    19 :      -0.3333    0.0000    0.2500
  band No.  band energies     occupation 
      1      -6.1938      2.00000
      2      -4.9593      2.00000
      3      -2.9952      2.00000
      4       1.1942      2.00000
      5       2.0071      2.00000
      6       3.1692      2.00000
      7       5.1909      2.00000
      8       5.3255      2.00000
      9       5.9258      2.00000
     10       7.3805      0.00000
     11       7.8362      0.00000
     12       8.2570      0.00000
     13       9.8201      0.00000
     14      13.4621      0.00000

 k-point    20 :      -0.2222   -0.0000    0.2500
  band No.  band energies     occupation 
      1      -6.6230      2.00000
      2      -5.0774      2.00000
      3      -2.6659      2.00000
      4       2.0646      2.00000
      5       2.3446      2.00000
      6       3.5070      2.00000
      7       5.5240      2.00000
      8       5.6799      2.00000
      9       6.1985      2.00000
     10       7.1593      0.00000
     11       7.7489      0.00000
     12       7.8464      0.00000
     13      10.1014      0.00000
     14      12.7136      0.00000

 k-point    21 :      -0.1111   -0.0000    0.2500
  band No.  band energies     occupation 
      1      -6.9063      2.00000
      2      -5.2160      2.00000
      3      -2.4667      2.00000
      4       2.8074      2.00000
      5       3.3071      2.00000
      6       3.9602      2.00000
      7       5.2878      2.00000
      8       5.7334      2.00000
      9       5.9611      2.00000
     10       7.2256      0.00000
     11       7.2421      0.00000
     12       8.2622      0.00000
     13      10.6019      0.00000
     14      12.0223      0.00000

 k-point    22 :       0.1111    0.1111    0.2500
  band No.  band energies     occupation 
      1      -6.7202      2.00000
      2      -5.0942      2.00000
      3      -2.6573      2.00000
      4       2.4344      2.00000
      5       2.7886      2.00000
      6       3.7778      2.00000
      7       4.7437      2.00000
      8       5.4100      2.00000
      9       5.7148      2.00000
     10       7.5540      0.00000
     11       8.1839      0.00000
     12       8.4111      0.00000
     13      10.7260      0.00000
     14      12.1119      0.00000

 k-point    23 :       0.2222    0.1111    0.2500
  band No.  band energies     occupation 
      1      -6.3807      2.00000
      2      -4.8631      2.00000
      3      -3.1007      2.00000
      4       2.0748      2.00000
      5       2.4801      2.00000
      6       3.3799      2.00000
      7       3.7022      2.00000
      8       4.8165      2.00000
      9       5.8415      2.00000
     10       7.6229      0.00000
     11       8.5699      0.00000
     12       9.5532      0.00000
     13      11.1111      0.00000
     14      11.5942      0.00000

 k-point    24 :       0.3333    0.1111    0.2500
  band No.  band energies     occupation 
      1      -5.9684      2.00000
      2      -4.6458      2.00000
      3      -3.6038      2.00000
      4       1.7045      2.00000
      5       1.9596      2.00000
      6       3.0793      2.00000
      7       3.6300      2.00000
      8       4.3268      2.00000
      9       5.9291      2.00000
     10       7.4534      0.00000
     11       8.9000      0.00000
     12       9.7427      0.00000
     13      10.5887      0.00000
     14      12.3497      0.00000

 k-point    25 :       0.4444    0.1111    0.2500
  band No.  band energies     occupation 
      1      -5.6965      2.00000
      2      -4.7658      2.00000
      3      -3.6390      2.00000
      4       1.1199      2.00000
      5       1.8221      2.00000
      6       3.0626      2.00000
      7       3.8632      2.00000
      8       4.4143      2.00000
      9       6.0050      2.00000
     10       7.3475      0.00000
     11       8.8813      0.00000
     12       9.1085      0.00000
     13      10.3180      0.00000
     14      12.9757      0.00000

 k-point    26 :      -0.4444    0.1111    0.2500
  band No.  band energies     occupation 
      1      -5.9164      2.00000
      2      -4.8786      2.00000
      3      -3.2966      2.00000
      4       1.0309      2.00000
      5       1.9474      2.00000
      6       3.0700      2.00000
      7       3.9441      2.00000
      8       5.3714      2.00000
      9       6.0750      2.00000
     10       7.2790      0.00000
     11       8.0854      0.00000
     12       8.9406      0.00000
     13      10.2389      0.00000
     14      13.1881      0.00000

 k-point    27 :      -0.3333    0.1111    0.2500
  band No.  band energies     occupation 
      1      -6.3629      2.00000
      2      -4.9518      2.00000
      3      -2.9343      2.00000
      4       1.5994      2.00000
      5       2.2084      2.00000
      6       3.3133      2.00000
      7       4.2448      2.00000
      8       5.8710      2.00000
      9       6.3503      2.00000
     10       6.9992      0.00000
     11       7.7613      0.00000
     12       8.8170      0.00000
     13      10.3379      0.00000
     14      12.3632      0.00000

 k-point    28 :       0.2222    0.2222    0.2500
  band No.  band energies     occupation 
      1      -5.9939      2.00000
      2      -4.7591      2.00000
      3      -3.4039      2.00000
      4       1.3661      2.00000
      5       2.1328      2.00000
      6       2.9619      2.00000
      7       3.3763      2.00000
      8       5.2180      2.00000
      9       6.1457      2.00000
     10       7.3048      0.00000
     11       8.3865      0.00000
     12       9.6120      0.00000
     13      11.1299      0.00000
     14      11.6593      0.00000

 k-point    29 :       0.3333    0.2222    0.2500
  band No.  band energies     occupation 
      1      -5.6489      2.00000
      2      -4.6516      2.00000
      3      -3.7765      2.00000
      4       1.3526      2.00000
      5       1.6586      2.00000
      6       2.5659      2.00000
      7       3.6937      2.00000
      8       4.6223      2.00000
      9       5.8870      2.00000
     10       7.6232      0.00000
     11       9.0053      0.00000
     12       9.4511      0.00000
     13      11.1412      0.00000
     14      12.4373      0.00000

 k-point    30 :       0.4444    0.2222    0.2500
  band No.  band energies     occupation 
      1      -5.6289      2.00000
      2      -4.7321      2.00000
      3      -3.6914      2.00000
      4       1.1423      2.00000
      5       1.7722      2.00000
      6       2.5959      2.00000
      7       3.6220      2.00000
      8       4.9783      2.00000
      9       5.7076      2.00000
     10       7.8507      0.00000
     11       8.5486      0.00000
     12       9.4494      0.00000
     13      11.0439      0.00000
     14      12.7224      0.00000

 k-point    31 :       0.3333    0.3333    0.2500
  band No.  band energies     occupation 
      1      -5.4904      2.00000
      2      -4.6521      2.00000
      3      -3.8847      2.00000
      4       1.3033      2.00000
      5       1.6684      2.00000
      6       2.0907      2.00000
      7       3.9463      2.00000
      8       4.8785      2.00000
      9       5.2341      2.00000
     10       8.3749      0.00000
     11       8.9756      0.00000
     12       9.0905      0.00000
     13      12.1417      0.00000
     14      12.4733      0.00000

 k-point    32 :       0.0000    0.0000    0.5000
  band No.  band energies     occupation 
      1      -6.3420      2.00000
      2      -6.3420      2.00000
      3      -1.5686      2.00000
      4       2.4095      2.00000
      5       4.1089      2.00000
      6       4.1089      2.00000
      7       5.4256      2.00000
      8       5.8763      2.00000
      9       5.8763      2.00000
     10       7.0324      0.00000
     11       7.1909      0.00000
     12       7.1909      0.00000
     13      10.3389      0.00000
     14      11.9006      0.00000

 k-point    33 :       0.1111    0.0000    0.5000
  band No.  band energies     occupation 
      1      -6.2632      2.00000
      2      -6.2480      2.00000
      3      -1.7577      2.00000
      4       2.4271      2.00000
      5       3.8867      2.00000
      6       4.0075      2.00000
      7       4.7215      2.00000
      8       5.2721      2.00000
      9       5.5539      2.00000
     10       7.3790      0.00000
     11       7.7471      0.00000
     12       8.2092      0.00000
     13      10.6367      0.00000
     14      11.5299      0.00000

 k-point    34 :       0.2222    0.0000    0.5000
  band No.  band energies     occupation 
      1      -6.0477      2.00000
      2      -5.9738      2.00000
      3      -2.2654      2.00000
      4       2.2269      2.00000
      5       3.0453      2.00000
      6       3.7131      2.00000
      7       4.4309      2.00000
      8       4.7013      2.00000
      9       5.1513      2.00000
     10       7.9236      0.00000
     11       8.5568      0.00000
     12       8.9226      0.00000
     13      10.8069      0.00000
     14      11.8765      0.00000

 k-point    35 :       0.3333   -0.0000    0.5000
  band No.  band energies     occupation 
      1      -5.7673      2.00000
      2      -5.5538      2.00000
      3      -2.9394      2.00000
      4       1.3464      2.00000
      5       2.8446      2.00000
      6       3.3742      2.00000
      7       4.2283      2.00000
      8       4.4225      2.00000
      9       5.2934      2.00000
     10       8.1148      0.00000
     11       8.5154      0.00000
     12       9.1165      0.00000
     13      10.7902      0.00000
     14      11.9866      0.00000

 k-point    36 :       0.4444    0.0000    0.5000
  band No.  band energies     occupation 
      1      -5.5560      2.00000
      2      -5.1196      2.00000
      3      -3.5333      2.00000
      4       0.7072      2.00000
      5       2.9140      2.00000
      6       3.0942      2.00000
      7       4.0215      2.00000
      8       4.2765      2.00000
      9       5.9814      2.00000
     10       7.2439      0.00000
     11       8.5589      0.00000
     12       9.3117      0.00000
     13      10.8822      0.00000
     14      11.5026      0.00000

 k-point    37 :       0.1111    0.1111    0.5000
  band No.  band energies     occupation 
      1      -6.1112      2.00000
      2      -6.0682      2.00000
      3      -2.1029      2.00000
      4       2.3674      2.00000
      5       3.4063      2.00000
      6       3.5436      2.00000
      7       4.3776      2.00000
      8       4.5906      2.00000
      9       5.9204      2.00000
     10       7.2349      0.00000
     11       8.6764      0.00000
     12       8.7984      0.00000
     13      11.1404      0.00000
     14      11.2182      0.00000

 k-point    38 :       0.2222    0.1111    0.5000
  band No.  band energies     occupation 
      1      -5.8486      2.00000
      2      -5.7308      2.00000
      3      -2.6803      2.00000
      4       1.8412      2.00000
      5       2.6771      2.00000
      6       2.9780      2.00000
      7       4.3458      2.00000
      8       4.7466      2.00000
      9       5.7572      2.00000
     10       7.6431      0.00000
     11       8.7675      0.00000
     12       8.9917      0.00000
     13      10.9643      0.00000
     14      12.0096      0.00000

 k-point    39 :       0.3333    0.1111    0.5000
  band No.  band energies     occupation 
      1      -5.5815      2.00000
      2      -5.2983      2.00000
      3      -3.3109      2.00000
      4       1.0289      2.00000
      5       2.4228      2.00000
      6       2.6165      2.00000
      7       4.4829      2.00000
      8       4.9799      2.00000
      9       5.7484      2.00000
     10       7.7151      0.00000
     11       8.2546      0.00000
     12       9.0268      0.00000
     13      10.9682      0.00000
     14      11.9271      0.00000

 k-point    40 :       0.4444    0.1111    0.5000
  band No.  band energies     occupation 
      1      -5.4634      2.00000
      2      -5.0313      2.00000
      3      -3.6534      2.00000
      4       0.6972      2.00000
      5       2.3662      2.00000
      6       2.4708      2.00000
      7       4.7214      2.00000
      8       4.7443      2.00000
      9       6.2871      2.00000
     10       7.0005      0.00000
     11       8.3484      0.00000
     12       9.0114      0.00000
     13      11.0925      0.00000
     14      11.5479      0.00000

 k-point    41 :       0.2222    0.2222    0.5000
  band No.  band energies     occupation 
      1      -5.5618      2.00000
      2      -5.4026      2.00000
      3      -3.1989      2.00000
      4       1.4504      2.00000
      5       1.8960      2.00000
      6       2.2749      2.00000
      7       4.8109      2.00000
      8       5.1628      2.00000
      9       6.2870      2.00000
     10       7.3527      0.00000
     11       8.4777      0.00000
     12       8.5362      0.00000
     13      11.4157      0.00000
     14      12.2756      0.00000

 k-point    42 :       0.3333    0.2222    0.5000
  band No.  band energies     occupation 
      1      -5.3334      2.00000
      2      -5.1007      2.00000
      3      -3.6257      2.00000
      4       1.0003      2.00000
      5       1.6398      2.00000
      6       1.8461      2.00000
      7       5.2702      2.00000
      8       5.6987      2.00000
      9       6.3314      2.00000
     10       7.2416      0.00000
     11       7.8165      0.00000
     12       8.2809      0.00000
     13      11.7746      0.00000
     14      12.3157      0.00000

 k-point    43 :       0.3333    0.3333    0.5000
  band No.  band energies     occupation 
      1      -5.1214      2.00000
      2      -5.1214      2.00000
      3      -3.7454      2.00000
      4       1.2398      2.00000
      5       1.3208      2.00000
      6       1.3208      2.00000
      7       5.6398      2.00000
      8       6.5490      1.96896
      9       6.6245      1.01553
     10       6.6245      1.01552
     11       7.6461      0.00000
     12       7.6461      0.00000
     13      12.7799      0.00000
     14      13.0878      0.00000


--------------------------------------------------------------------------------------------------------


 soft charge-density along one line, spin component           1
         0         1         2         3         4         5         6         7         8         9
 total charge-density along one line
 
 pseudopotential strength for first ion, spin component:           1
 51.394  55.918  -0.000  -0.000  -0.042  -0.000  -0.000  -0.061
 55.918  60.844  -0.000  -0.000  -0.046  -0.000  -0.000  -0.067
 -0.000  -0.000  12.665   0.008  -0.000  18.255   0.012  -0.000
 -0.000  -0.000   0.008  12.680   0.000   0.012  18.276   0.000
 -0.042  -0.046  -0.000   0.000  12.678  -0.000   0.000  18.274
 -0.000  -0.000  18.255   0.012  -0.000  26.322   0.017  -0.000
 -0.000  -0.000   0.012  18.276   0.000   0.017  26.353   0.000
 -0.061  -0.067  -0.000   0.000  18.274  -0.000   0.000  26.350
 -0.000  -0.000  -0.008   0.000  -0.000  -0.012   0.000  -0.000
  0.013   0.014   0.000  -0.000   0.000   0.000  -0.000   0.000
  0.007   0.008   0.000  -0.000   0.005   0.000  -0.000   0.007
  0.000   0.000   0.000  -0.008  -0.000   0.000  -0.011  -0.000
  0.010   0.011   0.000  -0.000  -0.008   0.000  -0.000  -0.012
 total augmentation occupancy for first ion, spin component:           1
 14.373 -10.663   0.000   0.000   1.792   0.000   0.000  -0.451  -0.000  -0.156  -0.125   0.000  -0.112
-10.663   9.195   0.000   0.000  -1.510   0.000  -0.000   0.389  -0.000   0.140   0.111   0.000   0.100
  0.000   0.000   2.622   0.192   0.000  -0.543  -0.164   0.000  -0.044   0.000   0.000  -0.045   0.000
  0.000   0.000   0.192   2.991  -0.000  -0.164  -0.859   0.000  -0.043   0.000   0.000  -0.105   0.000
  1.792  -1.510   0.000  -0.000   2.841   0.000   0.000  -0.759   0.000  -0.048  -0.017   0.000  -0.044
  0.000   0.000  -0.543  -0.164   0.000   0.202   0.060   0.000   0.010   0.000  -0.000   0.016  -0.000
  0.000  -0.000  -0.164  -0.859   0.000   0.060   0.320  -0.000   0.016   0.000  -0.000   0.031  -0.000
 -0.451   0.389   0.000   0.000  -0.759   0.000  -0.000   0.272   0.000   0.014   0.005   0.000   0.010
  0.000   0.000  -0.044  -0.043   0.000   0.010   0.016   0.000   0.010  -0.000  -0.000   0.011   0.000
 -0.156   0.140   0.000   0.000  -0.048   0.000   0.000   0.014  -0.000   0.017   0.004   0.000   0.005
 -0.125   0.111   0.000   0.000  -0.017   0.000  -0.000   0.005  -0.000   0.004   0.008  -0.000  -0.000
  0.000   0.000  -0.045  -0.105   0.000   0.016   0.031  -0.000   0.011   0.000  -0.000   0.029  -0.000
 -0.112   0.100   0.000   0.000  -0.044  -0.000  -0.000   0.010   0.000   0.005  -0.000  -0.000   0.011


------------------------ aborting loop because EDIFF is reached ----------------------------------------


    CHARGE:  cpu time    0.0246: real time    0.0246
    FORLOC:  cpu time    0.0009: real time    0.0009
    FORNL :  cpu time    0.0956: real time    0.0959
    STRESS:  cpu time    0.2150: real time    0.2157
    FORCOR:  cpu time    0.0171: real time    0.0171
    FORHAR:  cpu time    0.0036: real time    0.0036
    MIXING:  cpu time    0.0008: real time    0.0008
    OFIELD:  cpu time    0.0000: real time    0.0000

  Number of pair interactions contributing to vdW energy:   32742
  Edisp (eV):   -0.97880
    FORVDW:  cpu time    0.0018: real time    0.0018

  FORCE on cell =-STRESS in cart. coord.  units (eV):
  Direction    XX          YY          ZZ          XY          YZ          ZX
  --------------------------------------------------------------------------------------
  Alpha Z     2.42867     2.42867     2.42867
  Ewald    -243.25155  -243.25154  -204.81088    -0.00000    -0.00000     0.00000
  Hartree     9.59392     9.59392    18.42750     0.00000     0.00000    -0.00000
  E(xc)     -70.61238   -70.61238   -70.07839    -0.00000     0.00000    -0.00000
  Local    -105.17549  -105.17553  -143.03359    -0.00003     0.00000    -0.00000
  n-local   332.98491   333.58914   328.74199    -1.54887    -0.72700    -1.37805
  augment   -81.23835   -81.23831   -78.82027     0.00003     0.00000     0.00000
  Kinetic   152.96286   160.28256   148.47794    -7.86055    -0.09233     1.22110
  Fock        0.00000     0.00000     0.00000     0.00000     0.00000     0.00000
  vdW        -1.26383    -1.26383    -1.00926     0.00000    -0.00000     0.00000
  -------------------------------------------------------------------------------------
  Total       0.39072     0.39072     0.32372     0.00000     0.00000     0.00000
  in kB       6.50417     6.50417     5.38873     0.00000     0.00000     0.00000
  external pressure =        6.13 kB  Pullay stress =        0.00 kB


 VOLUME and BASIS-vectors are now :
 -----------------------------------------------------------------------------
  energy-cutoff  :      520.00
  volume of cell :       96.25
      direct lattice vectors                 reciprocal lattice vectors
     4.286968655  0.000000000 -0.000000000     0.233265060  0.134675645  0.000000000
    -2.143484327  3.712623760  0.000000000     0.000000000  0.269351290  0.000000000
    -0.000000000  0.000000000  6.047227337     0.000000000  0.000000000  0.165365042

  length of vectors
     4.286968655  4.286968655  6.047227337     0.269351290  0.269351290  0.165365042


 FORCES acting on ions
    electron-ion (+dipol)            ewald-force                    non-local-force                 convergence-correction
 -----------------------------------------------------------------------------------------------
   -.830E+01 0.102E-04 -.854E-06   0.126E+02 0.146E-05 0.135E-05   -.416E+01 0.000E+00 0.000E+00   -.160E-02 -.685E-08 0.284E-09
   0.415E+01 -.719E+01 -.190E-04   -.629E+01 0.109E+02 -.895E-05   0.208E+01 -.360E+01 -.555E-16   0.798E-03 -.138E-02 0.183E-08
   0.415E+01 0.719E+01 0.195E-04   -.629E+01 -.109E+02 0.760E-05   0.208E+01 0.360E+01 0.000E+00   0.798E-03 0.138E-02 -.211E-08
 -----------------------------------------------------------------------------------------------
   0.257E-04 -.872E-05 -.366E-06   0.000E+00 0.000E+00 -.113E-16   0.444E-15 0.444E-15 -.555E-16   -.346E-08 -.540E-08 0.745E-11
 
 
 POSITION                                       TOTAL-FORCE (eV/Angst)
 -----------------------------------------------------------------------------------
      1.19809      0.00000      2.01574         0.026002      0.000000     -0.000000
     -0.59904      1.03757      4.03149        -0.013001      0.022519      0.000000
      1.54444      2.67505     -0.00000        -0.013001     -0.022519      0.000000
 -----------------------------------------------------------------------------------
    total drift:                                0.000026     -0.000009     -0.000000


--------------------------------------------------------------------------------------------------------



  FREE ENERGIE OF THE ION-ELECTRON SYSTEM (eV)
  ---------------------------------------------------
  free  energy   TOTEN  =       -10.34301395 eV

  energy  without entropy=      -10.34264873  energy(sigma->0) =      -10.34283134
 
 d Force = 0.5400487E-02[ 0.313E-02, 0.767E-02]  d Energy = 0.1413837E-02 0.399E-02
 d Force = 0.1716295E+01[ 0.151E+01, 0.192E+01]  d Ewald  = 0.1260578E+02-0.109E+02


--------------------------------------------------------------------------------------------------------


    POTLOK:  cpu time    0.0191: real time    0.0191


--------------------------------------------------------------------------------------------------------




--------------------------------------------------------------------------------------------------------


    WAVPRE:  cpu time    0.0036: real time    0.0158
    FEWALD:  cpu time    0.0001: real time    0.0001
    GENKIN:  cpu time    0.0058: real time    0.0058
    ORTHCH:  cpu time    0.0190: real time    0.0191
     LOOP+:  cpu time    3.0649: real time    3.0906


--------------------------------------- Iteration      7(   1)  ---------------------------------------


    POTLOK:  cpu time    0.0163: real time    0.0220
    SETDIJ:  cpu time    0.0022: real time    0.0022
     EDDAV:  cpu time    0.3176: real time    0.3186
       DOS:  cpu time    0.0005: real time    0.0005
    CHARGE:  cpu time    0.0247: real time    0.0248
    MIXING:  cpu time    0.0006: real time    0.0006
    --------------------------------------------
      LOOP:  cpu time    0.3620: real time    0.3687

 eigenvalue-minimisations  :  1210
 total energy-change (2. order) :-0.4329270E-01  (-0.1431454E+00)
 number of electron      17.9999994 magnetization 
 augmentation part       -3.6323404 magnetization 

 Broyden mixing:
  rms(total) = 0.82509E-01    rms(broyden)= 0.82508E-01
  rms(prec ) = 0.13377E+00
  weight for this iteration     100.00

 Free energy of the ion-electron system (eV)
  ---------------------------------------------------
  alpha Z        PSCENC =         2.37648903
  Ewald energy   TEWEN  =      -685.10692143
  -Hartree energ DENC   =       -37.96967515
  -exchange      EXHF   =         0.00000000
  -V(xc)+E(xc)   XCENC  =       -83.76799476
  PAW double counting   =      1604.48084202    -1489.13802372
  entropy T*S    EENTRO =        -0.00045215
  eigenvalues    EBANDS =         9.90392791
  atomic energy  EATOM  =       669.81430600
  Solvation  Ediel_sol  =         0.00000000
  ---------------------------------------------------
  free energy    TOTEN  =        -9.40750226 eV

  energy without entropy =       -9.40705010  energy(sigma->0) =       -9.40727618


--------------------------------------------------------------------------------------------------------




--------------------------------------- Iteration      7(   2)  ---------------------------------------


    POTLOK:  cpu time    0.0180: real time    0.0181
    SETDIJ:  cpu time    0.0025: real time    0.0025
     EDDAV:  cpu time    0.3348: real time    0.3359
       DOS:  cpu time    0.0006: real time    0.0006
    CHARGE:  cpu time    0.0246: real time    0.0247
    MIXING:  cpu time    0.0006: real time    0.0006
    --------------------------------------------
      LOOP:  cpu time    0.3811: real time    0.3824

 eigenvalue-minimisations  :  1318
 total energy-change (2. order) : 0.1014451E-01  (-0.6130625E-02)
 number of electron      17.9999994 magnetization 
 augmentation part       -3.6345778 magnetization 

 Broyden mixing:
  rms(total) = 0.48499E-01    rms(broyden)= 0.48499E-01
  rms(prec ) = 0.80230E-01
  weight for this iteration     100.00

 eigenvalues of (default mixing * dielectric matrix)
  average eigenvalue GAMMA=   0.9530
  0.9530

 Free energy of the ion-electron system (eV)
  ---------------------------------------------------
  alpha Z        PSCENC =         2.37648903
  Ewald energy   TEWEN  =      -685.10692143
  -Hartree energ DENC   =       -38.71503162
  -exchange      EXHF   =         0.00000000
  -V(xc)+E(xc)   XCENC  =       -83.78255930
  PAW double counting   =      1610.82892651    -1495.49637083
  entropy T*S    EENTRO =        -0.00045271
  eigenvalues    EBANDS =        10.68425661
  atomic energy  EATOM  =       669.81430600
  Solvation  Ediel_sol  =         0.00000000
  ---------------------------------------------------
  free energy    TOTEN  =        -9.39735775 eV

  energy without entropy =       -9.39690503  energy(sigma->0) =       -9.39713139


--------------------------------------------------------------------------------------------------------




--------------------------------------- Iteration      7(   3)  ---------------------------------------


    POTLOK:  cpu time    0.0167: real time    0.0168
    SETDIJ:  cpu time    0.0024: real time    0.0024
     EDDAV:  cpu time    0.3522: real time    0.3534
       DOS:  cpu time    0.0006: real time    0.0006
    CHARGE:  cpu time    0.0246: real time    0.0247
    MIXING:  cpu time    0.0008: real time    0.0008
    --------------------------------------------
      LOOP:  cpu time    0.3973: real time    0.3986

 eigenvalue-minimisations  :  1414
 total energy-change (2. order) : 0.7084335E-02  (-0.8969905E-03)
 number of electron      17.9999994 magnetization 
 augmentation part       -3.6219210 magnetization 

 Broyden mixing:
  rms(total) = 0.25212E-01    rms(broyden)= 0.25212E-01
  rms(prec ) = 0.34910E-01
  weight for this iteration     100.00

 eigenvalues of (default mixing * dielectric matrix)
  average eigenvalue GAMMA=   1.0490
  0.8682  1.2298

 Free energy of the ion-electron system (eV)
  ---------------------------------------------------
  alpha Z        PSCENC =         2.37648903
  Ewald energy   TEWEN  =      -685.10692143
  -Hartree energ DENC   =       -39.32277723
  -exchange      EXHF   =         0.00000000
  -V(xc)+E(xc)   XCENC  =       -83.80580365
  PAW double counting   =      1600.85090646    -1485.52272525
  entropy T*S    EENTRO =        -0.00045575
  eigenvalues    EBANDS =        11.32670841
  atomic energy  EATOM  =       669.81430600
  Solvation  Ediel_sol  =         0.00000000
  ---------------------------------------------------
  free energy    TOTEN  =        -9.39027341 eV

  energy without entropy =       -9.38981766  energy(sigma->0) =       -9.39004554


--------------------------------------------------------------------------------------------------------




--------------------------------------- Iteration      7(   4)  ---------------------------------------


    POTLOK:  cpu time    0.0182: real time    0.0183
    SETDIJ:  cpu time    0.0024: real time    0.0024
     EDDAV:  cpu time    0.3340: real time    0.3351
       DOS:  cpu time    0.0006: real time    0.0006
    CHARGE:  cpu time    0.0247: real time    0.0248
    MIXING:  cpu time    0.0008: real time    0.0008
    --------------------------------------------
      LOOP:  cpu time    0.3808: real time    0.3820

 eigenvalue-minimisations  :  1312
 total energy-change (2. order) : 0.1037218E-02  (-0.1627301E-03)
 number of electron      17.9999994 magnetization 
 augmentation part       -3.6155563 magnetization 

 Broyden mixing:
  rms(total) = 0.38668E-01    rms(broyden)= 0.38668E-01
  rms(prec ) = 0.39429E-01
  weight for this iteration     100.00

 eigenvalues of (default mixing * dielectric matrix)
  average eigenvalue GAMMA=   2.0080
  1.0294  2.4973  2.4973

 Free energy of the ion-electron system (eV)
  ---------------------------------------------------
  alpha Z        PSCENC =         2.37648903
  Ewald energy   TEWEN  =      -685.10692143
  -Hartree energ DENC   =       -39.57478964
  -exchange      EXHF   =         0.00000000
  -V(xc)+E(xc)   XCENC  =       -83.81654446
  PAW double counting   =      1593.29929918    -1477.96691035
  entropy T*S    EENTRO =        -0.00045563
  eigenvalues    EBANDS =        11.58629111
  atomic energy  EATOM  =       669.81430600
  Solvation  Ediel_sol  =         0.00000000
  ---------------------------------------------------
  free energy    TOTEN  =        -9.38923619 eV

  energy without entropy =       -9.38878057  energy(sigma->0) =       -9.38900838


--------------------------------------------------------------------------------------------------------




--------------------------------------- Iteration      7(   5)  ---------------------------------------


    POTLOK:  cpu time    0.0171: real time    0.0172
    SETDIJ:  cpu time    0.0024: real time    0.0025
     EDDAV:  cpu time    0.3760: real time    0.3774
       DOS:  cpu time    0.0005: real time    0.0005
    CHARGE:  cpu time    0.0244: real time    0.0245
    MIXING:  cpu time    0.0008: real time    0.0008
    --------------------------------------------
      LOOP:  cpu time    0.4213: real time    0.4228

 eigenvalue-minimisations  :  1554
 total energy-change (2. order) : 0.3914716E-04  (-0.1567526E-04)
 number of electron      17.9999994 magnetization 
 augmentation part       -3.6143075 magnetization 

 Broyden mixing:
  rms(total) = 0.19907E-01    rms(broyden)= 0.19907E-01
  rms(prec ) = 0.20481E-01
  weight for this iteration     100.00

 eigenvalues of (default mixing * dielectric matrix)
  average eigenvalue GAMMA=   1.7215
  2.8359  1.9746  0.9935  1.0817

 Free energy of the ion-electron system (eV)
  ---------------------------------------------------
  alpha Z        PSCENC =         2.37648903
  Ewald energy   TEWEN  =      -685.10692143
  -Hartree energ DENC   =       -39.62264367
  -exchange      EXHF   =         0.00000000
  -V(xc)+E(xc)   XCENC  =       -83.81751967
  PAW double counting   =      1577.29018649    -1461.93795114
  entropy T*S    EENTRO =        -0.00045309
  eigenvalues    EBANDS =        11.61531045
  atomic energy  EATOM  =       669.81430600
  Solvation  Ediel_sol  =         0.00000000
  ---------------------------------------------------
  free energy    TOTEN  =        -9.38919705 eV

  energy without entropy =       -9.38874396  energy(sigma->0) =       -9.38897050


--------------------------------------------------------------------------------------------------------




--------------------------------------- Iteration      7(   6)  ---------------------------------------


    POTLOK:  cpu time    0.0170: real time    0.0170
    SETDIJ:  cpu time    0.0025: real time    0.0024
     EDDAV:  cpu time    0.3151: real time    0.3161
       DOS:  cpu time    0.0006: real time    0.0006
    CHARGE:  cpu time    0.0246: real time    0.0247
    MIXING:  cpu time    0.0008: real time    0.0008
    --------------------------------------------
      LOOP:  cpu time    0.3605: real time    0.3617

 eigenvalue-minimisations  :  1222
 total energy-change (2. order) : 0.5197261E-04  (-0.1330038E-04)
 number of electron      17.9999994 magnetization 
 augmentation part       -3.6128579 magnetization 

 Broyden mixing:
  rms(total) = 0.15450E-02    rms(broyden)= 0.15450E-02
  rms(prec ) = 0.15749E-02
  weight for this iteration     100.00

 eigenvalues of (default mixing * dielectric matrix)
  average eigenvalue GAMMA=   1.6619
  2.7580  2.0433  0.9682  1.2701  1.2701

 Free energy of the ion-electron system (eV)
  ---------------------------------------------------
  alpha Z        PSCENC =         2.37648903
  Ewald energy   TEWEN  =      -685.10692143
  -Hartree energ DENC   =       -39.69322513
  -exchange      EXHF   =         0.00000000
  -V(xc)+E(xc)   XCENC  =       -83.82022077
  PAW double counting   =      1578.24834011    -1462.90008298
  entropy T*S    EENTRO =        -0.00045413
  eigenvalues    EBANDS =        11.69262423
  atomic energy  EATOM  =       669.81430600
  Solvation  Ediel_sol  =         0.00000000
  ---------------------------------------------------
  free energy    TOTEN  =        -9.38914507 eV

  energy without entropy =       -9.38869095  energy(sigma->0) =       -9.38891801


--------------------------------------------------------------------------------------------------------




--------------------------------------- Iteration      7(   7)  ---------------------------------------


    POTLOK:  cpu time    0.0168: real time    0.0169
    SETDIJ:  cpu time    0.0023: real time    0.0023
     EDDAV:  cpu time    0.2245: real time    0.2252
       DOS:  cpu time    0.0006: real time    0.0006
    --------------------------------------------
      LOOP:  cpu time    0.2441: real time    0.2449

 eigenvalue-minimisations  :   668
 total energy-change (2. order) :-0.5317429E-06  (-0.4040165E-06)
 number of electron      17.9999994 magnetization 
 augmentation part       -3.6128579 magnetization 

 Free energy of the ion-electron system (eV)
  ---------------------------------------------------
  alpha Z        PSCENC =         2.37648903
  Ewald energy   TEWEN  =      -685.10692143
  -Hartree energ DENC   =       -39.69421844
  -exchange      EXHF   =         0.00000000
  -V(xc)+E(xc)   XCENC  =       -83.82002370
  PAW double counting   =      1577.66420220    -1462.31625498
  entropy T*S    EENTRO =        -0.00045434
  eigenvalues    EBANDS =        11.69373006
  atomic energy  EATOM  =       669.81430600
  Solvation  Ediel_sol  =         0.00000000
  ---------------------------------------------------
  free energy    TOTEN  =        -9.38914561 eV

  energy without entropy =       -9.38869127  energy(sigma->0) =       -9.38891844


--------------------------------------------------------------------------------------------------------




 average (electrostatic) potential at core
  the test charge radii are     1.1897
  (the norm of the test charge is              1.0000)
       1 -88.6592       2 -88.6592       3 -88.6592
 
 
 
 E-fermi :   6.3619     XC(G=0):  -9.2432     alpha+bet :-10.9330


 k-point     1 :       0.0000    0.0000    0.0000
  band No.  band energies     occupation 
      1      -7.3939      2.00000
      2      -4.0860      2.00000
      3      -4.0860      2.00000
      4       3.4660      2.00000
      5       3.7554      2.00000
      6       3.7554      2.00000
      7       4.7373      2.00000
      8       4.7373      2.00000
      9       5.4944      2.00000
     10       7.3622      0.00000
     11       7.3622      0.00000
     12       8.1400      0.00000
     13      11.2497      0.00000
     14      11.2497      0.00000

 k-point     2 :       0.1111    0.0000    0.0000
  band No.  band energies     occupation 
      1      -7.3007      2.00000
      2      -4.0970      2.00000
      3      -4.0529      2.00000
      4       2.7062      2.00000
      5       3.2442      2.00000
      6       3.5297      2.00000
      7       5.0650      2.00000
      8       5.3387      2.00000
      9       5.7833      2.00000
     10       7.0311      0.00000
     11       7.2771      0.00000
     12       7.9554      0.00000
     13      10.9940      0.00000
     14      11.2604      0.00000

 k-point     3 :       0.2222    0.0000    0.0000
  band No.  band energies     occupation 
      1      -7.0316      2.00000
      2      -4.1825      2.00000
      3      -3.9617      2.00000
      4       1.7940      2.00000
      5       2.5637      2.00000
      6       3.1051      2.00000
      7       5.0657      2.00000
      8       5.4632      2.00000
      9       5.6068      2.00000
     10       7.1467      0.00000
     11       7.4081      0.00000
     12       8.0445      0.00000
     13      10.2072      0.00000
     14      11.6210      0.00000

 k-point     4 :       0.3333   -0.0000    0.0000
  band No.  band energies     occupation 
      1      -6.6302      2.00000
      2      -4.4323      2.00000
      3      -3.8449      2.00000
      4       1.3510      2.00000
      5       2.0278      2.00000
      6       2.7491      2.00000
      7       3.8547      2.00000
      8       5.5202      2.00000
      9       5.6135      2.00000
     10       7.0955      0.00000
     11       7.3095      0.00000
     12       9.1404      0.00000
     13       9.5313      0.00000
     14      12.5553      0.00000

 k-point     5 :       0.4444    0.0000    0.0000
  band No.  band energies     occupation 
      1      -6.2387      2.00000
      2      -4.7656      2.00000
      3      -3.7606      2.00000
      4       1.3262      2.00000
      5       1.8111      2.00000
      6       2.5684      2.00000
      7       2.8963      2.00000
      8       5.4386      2.00000
      9       5.6132      2.00000
     10       7.0922      0.00000
     11       7.1758      0.00000
     12       9.1633      0.00000
     13       9.9511      0.00000
     14      13.7579      0.00000

 k-point     6 :       0.1111    0.1111    0.0000
  band No.  band energies     occupation 
      1      -7.1192      2.00000
      2      -4.1275      2.00000
      3      -4.0095      2.00000
      4       2.0961      2.00000
      5       2.4444      2.00000
      6       3.5957      2.00000
      7       4.7752      2.00000
      8       5.6699      2.00000
      9       5.6788      2.00000
     10       7.0724      0.00000
     11       7.3890      0.00000
     12       8.0061      0.00000
     13      10.8216      0.00000
     14      10.8706      0.00000

 k-point     7 :       0.2222    0.1111    0.0000
  band No.  band energies     occupation 
      1      -6.7808      2.00000
      2      -4.2663      2.00000
      3      -3.9464      2.00000
      4       1.5312      2.00000
      5       1.9459      2.00000
      6       3.2145      2.00000
      7       4.4634      2.00000
      8       4.8279      2.00000
      9       5.3262      2.00000
     10       7.5324      0.00000
     11       7.9459      0.00000
     12       8.4856      0.00000
     13      10.1675      0.00000
     14      11.2907      0.00000

 k-point     8 :       0.3333    0.1111    0.0000
  band No.  band energies     occupation 
      1      -6.3636      2.00000
      2      -4.5673      2.00000
      3      -3.8802      2.00000
      4       1.3694      2.00000
      5       1.7647      2.00000
      6       2.7640      2.00000
      7       3.3745      2.00000
      8       4.7953      2.00000
      9       5.0294      2.00000
     10       7.6692      0.00000
     11       7.9482      0.00000
     12       9.5188      0.00000
     13       9.7228      0.00000
     14      12.3617      0.00000

 k-point     9 :       0.4444    0.1111    0.0000
  band No.  band energies     occupation 
      1      -6.1224      2.00000
      2      -4.7801      2.00000
      3      -3.8516      2.00000
      4       1.4125      2.00000
      5       1.8041      2.00000
      6       2.6356      2.00000
      7       2.7447      2.00000
      8       4.8360      2.00000
      9       4.8788      2.00000
     10       7.6881      0.00000
     11       7.9318      0.00000
     12       9.5500      0.00000
     13       9.9935      0.00000
     14      13.4812      0.00000

 k-point    10 :       0.2222    0.2222    0.0000
  band No.  band energies     occupation 
      1      -6.4148      2.00000
      2      -4.3907      2.00000
      3      -4.0318      2.00000
      4       1.4904      2.00000
      5       1.6101      2.00000
      6       3.1302      2.00000
      7       3.9068      2.00000
      8       4.2477      2.00000
      9       4.2581      2.00000
     10       8.4450      0.00000
     11       8.6675      0.00000
     12       8.8505      0.00000
     13      10.6739      0.00000
     14      10.9943      0.00000

 k-point    11 :       0.3333    0.2222    0.0000
  band No.  band energies     occupation 
      1      -6.0761      2.00000
      2      -4.5861      2.00000
      3      -4.1107      2.00000
      4       1.5816      2.00000
      5       1.7351      2.00000
      6       2.8389      2.00000
      7       3.1203      2.00000
      8       3.8993      2.00000
      9       3.9603      2.00000
     10       8.6628      0.00000
     11       8.9429      0.00000
     12       9.6396      0.00000
     13      10.5761      0.00000
     14      12.0593      0.00000

 k-point    12 :       0.3333    0.3333    0.0000
  band No.  band energies     occupation 
      1      -5.9424      2.00000
      2      -4.4145      2.00000
      3      -4.4145      2.00000
      4       1.7837      2.00000
      5       1.7837      2.00000
      6       3.0963      2.00000
      7       3.0963      2.00000
      8       3.2799      2.00000
      9       3.3775      2.00000
     10       9.3226      0.00000
     11       9.3226      0.00000
     12       9.5956      0.00000
     13      11.4052      0.00000
     14      12.2719      0.00000

 k-point    13 :       0.0000    0.0000    0.2500
  band No.  band energies     occupation 
      1      -7.1713      2.00000
      2      -5.4560      2.00000
      3      -2.6354      2.00000
      4       2.8573      2.00000
      5       3.5750      2.00000
      6       3.9768      2.00000
      7       4.9185      2.00000
      8       5.1046      2.00000
      9       5.5255      2.00000
     10       7.0400      0.00000
     11       7.0645      0.00000
     12       7.6120      0.00000
     13      10.5337      0.00000
     14      11.8790      0.00000

 k-point    14 :       0.1111    0.0000    0.2500
  band No.  band energies     occupation 
      1      -7.0816      2.00000
      2      -5.3934      2.00000
      3      -2.7335      2.00000
      4       2.5481      2.00000
      5       3.4018      2.00000
      6       3.8440      2.00000
      7       4.5698      2.00000
      8       5.1132      2.00000
      9       5.1403      2.00000
     10       7.3551      0.00000
     11       7.4714      0.00000
     12       7.9961      0.00000
     13      10.7068      0.00000
     14      11.8332      0.00000

 k-point    15 :       0.2222    0.0000    0.2500
  band No.  band energies     occupation 
      1      -6.8276      2.00000
      2      -5.2117      2.00000
      3      -3.0672      2.00000
      4       2.1695      2.00000
      5       2.9497      2.00000
      6       3.4523      2.00000
      7       3.8698      2.00000
      8       4.5103      2.00000
      9       5.0030      2.00000
     10       7.7144      0.00000
     11       8.3496      0.00000
     12       8.7754      0.00000
     13      11.0920      0.00000
     14      11.5278      0.00000

 k-point    16 :       0.3333   -0.0000    0.2500
  band No.  band energies     occupation 
      1      -6.4600      2.00000
      2      -4.9718      2.00000
      3      -3.5684      2.00000
      4       1.8462      2.00000
      5       2.2679      2.00000
      6       3.0693      2.00000
      7       3.3055      2.00000
      8       4.5107      2.00000
      9       4.8802      2.00000
     10       7.7306      0.00000
     11       8.4414      0.00000
     12       9.5300      0.00000
     13      10.5067      0.00000
     14      11.8975      0.00000

 k-point    17 :       0.4444    0.0000    0.2500
  band No.  band energies     occupation 
      1      -6.1056      2.00000
      2      -4.9180      2.00000
      3      -3.8535      2.00000
      4       1.1734      2.00000
      5       1.9065      2.00000
      6       2.7935      2.00000
      7       3.7136      2.00000
      8       4.5612      2.00000
      9       4.8067      2.00000
     10       7.5984      0.00000
     11       8.3515      0.00000
     12       9.2276      0.00000
     13      10.0129      0.00000
     14      12.2739      0.00000

 k-point    18 :      -0.4444   -0.0000    0.2500
  band No.  band energies     occupation 
      1      -6.0597      2.00000
      2      -5.1032      2.00000
      3      -3.6245      2.00000
      4       0.8066      2.00000
      5       1.7568      2.00000
      6       2.7657      2.00000
      7       4.5282      2.00000
      8       4.7155      2.00000
      9       4.8885      2.00000
     10       7.4658      0.00000
     11       8.1322      0.00000
     12       8.4424      0.00000
     13       9.7267      0.00000
     14      12.8730      0.00000

 k-point    19 :      -0.3333    0.0000    0.2500
  band No.  band energies     occupation 
      1      -6.4193      2.00000
      2      -5.1696      2.00000
      3      -3.2430      2.00000
      4       1.0444      2.00000
      5       1.8290      2.00000
      6       2.9321      2.00000
      7       4.9177      2.00000
      8       5.0211      2.00000
      9       5.6975      2.00000
     10       7.1310      0.00000
     11       7.6308      0.00000
     12       7.9714      0.00000
     13       9.6694      0.00000
     14      13.1019      0.00000

 k-point    20 :      -0.2222   -0.0000    0.2500
  band No.  band energies     occupation 
      1      -6.8149      2.00000
      2      -5.2768      2.00000
      3      -2.9174      2.00000
      4       1.8534      2.00000
      5       2.1519      2.00000
      6       3.2552      2.00000
      7       5.2106      2.00000
      8       5.3558      2.00000
      9       5.9183      2.00000
     10       6.9096      0.00000
     11       7.4703      0.00000
     12       7.6145      0.00000
     13       9.9205      0.00000
     14      12.4289      0.00000

 k-point    21 :      -0.1111   -0.0000    0.2500
  band No.  band energies     occupation 
      1      -7.0801      2.00000
      2      -5.4014      2.00000
      3      -2.7105      2.00000
      4       2.5715      2.00000
      5       3.0224      2.00000
      6       3.6811      2.00000
      7       5.0438      2.00000
      8       5.3749      2.00000
      9       5.6167      2.00000
     10       6.9790      0.00000
     11       6.9937      0.00000
     12       7.9374      0.00000
     13      10.4074      0.00000
     14      11.7931      0.00000

 k-point    22 :       0.1111    0.1111    0.2500
  band No.  band energies     occupation 
      1      -6.9055      2.00000
      2      -5.2912      2.00000
      3      -2.9018      2.00000
      4       2.2085      2.00000
      5       2.5535      2.00000
      6       3.5101      2.00000
      7       4.4834      2.00000
      8       5.1255      2.00000
      9       5.4609      2.00000
     10       7.2655      0.00000
     11       7.8781      0.00000
     12       8.0961      0.00000
     13      10.5031      0.00000
     14      11.8508      0.00000

 k-point    23 :       0.2222    0.1111    0.2500
  band No.  band energies     occupation 
      1      -6.5893      2.00000
      2      -5.0849      2.00000
      3      -3.3258      2.00000
      4       1.8496      2.00000
      5       2.2585      2.00000
      6       3.1954      2.00000
      7       3.4716      2.00000
      8       4.5920      2.00000
      9       5.5846      2.00000
     10       7.3649      0.00000
     11       8.2493      0.00000
     12       9.2115      0.00000
     13      10.8792      0.00000
     14      11.3550      0.00000

 k-point    24 :       0.3333    0.1111    0.2500
  band No.  band energies     occupation 
      1      -6.2124      2.00000
      2      -4.8997      2.00000
      3      -3.7864      2.00000
      4       1.5044      2.00000
      5       1.7644      2.00000
      6       2.8757      2.00000
      7       3.4394      2.00000
      8       4.1554      2.00000
      9       5.6479      2.00000
     10       7.2297      0.00000
     11       8.5758      0.00000
     12       9.4610      0.00000
     13      10.4083      0.00000
     14      12.0945      0.00000

 k-point    25 :       0.4444    0.1111    0.2500
  band No.  band energies     occupation 
      1      -5.9762      2.00000
      2      -4.9910      2.00000
      3      -3.8333      2.00000
      4       0.9759      2.00000
      5       1.6314      2.00000
      6       2.8220      2.00000
      7       3.6763      2.00000
      8       4.2640      2.00000
      9       5.6977      2.00000
     10       7.1370      0.00000
     11       8.5876      0.00000
     12       8.8655      0.00000
     13      10.1461      0.00000
     14      12.7291      0.00000

 k-point    26 :      -0.4444    0.1111    0.2500
  band No.  band energies     occupation 
      1      -6.1694      2.00000
      2      -5.0934      2.00000
      3      -3.5258      2.00000
      4       0.8920      2.00000
      5       1.7591      2.00000
      6       2.8417      2.00000
      7       3.7471      2.00000
      8       5.1525      2.00000
      9       5.7597      2.00000
     10       7.0562      0.00000
     11       7.8882      0.00000
     12       8.6331      0.00000
     13      10.0592      0.00000
     14      12.8465      0.00000

 k-point    27 :      -0.3333    0.1111    0.2500
  band No.  band energies     occupation 
      1      -6.5735      2.00000
      2      -5.1640      2.00000
      3      -3.1783      2.00000
      4       1.4181      2.00000
      5       2.0167      2.00000
      6       3.0793      2.00000
      7       4.0194      2.00000
      8       5.5391      2.00000
      9       6.0663      2.00000
     10       6.7905      0.00000
     11       7.5456      0.00000
     12       8.4897      0.00000
     13      10.1414      0.00000
     14      12.0869      0.00000

 k-point    28 :       0.2222    0.2222    0.2500
  band No.  band energies     occupation 
      1      -6.2358      2.00000
      2      -4.9932      2.00000
      3      -3.6155      2.00000
      4       1.1973      2.00000
      5       1.9141      2.00000
      6       2.7708      2.00000
      7       3.2145      2.00000
      8       4.9688      2.00000
      9       5.8834      2.00000
     10       7.1004      0.00000
     11       8.0998      0.00000
     12       9.2846      0.00000
     13      10.8768      0.00000
     14      11.4189      0.00000

 k-point    29 :       0.3333    0.2222    0.2500
  band No.  band energies     occupation 
      1      -5.9307      2.00000
      2      -4.8999      2.00000
      3      -3.9497      2.00000
      4       1.1768      2.00000
      5       1.4848      2.00000
      6       2.3886      2.00000
      7       3.4993      2.00000
      8       4.4464      2.00000
      9       5.6442      2.00000
     10       7.3940      0.00000
     11       8.6926      0.00000
     12       9.1771      0.00000
     13      10.8973      0.00000
     14      12.1269      0.00000

 k-point    30 :       0.4444    0.2222    0.2500
  band No.  band energies     occupation 
      1      -5.9157      2.00000
      2      -4.9619      2.00000
      3      -3.8816      2.00000
      4       0.9904      2.00000
      5       1.5823      2.00000
      6       2.4148      2.00000
      7       3.4368      2.00000
      8       4.7810      2.00000
      9       5.4799      2.00000
     10       7.5855      0.00000
     11       8.3141      0.00000
     12       9.1323      0.00000
     13      10.8092      0.00000
     14      12.3918      0.00000

 k-point    31 :       0.3333    0.3333    0.2500
  band No.  band energies     occupation 
      1      -5.7966      2.00000
      2      -4.8956      2.00000
      3      -4.0466      2.00000
      4       1.1245      2.00000
      5       1.4829      2.00000
      6       1.9642      2.00000
      7       3.7165      2.00000
      8       4.6864      2.00000
      9       5.0727      2.00000
     10       8.0861      0.00000
     11       8.7082      0.00000
     12       8.8158      0.00000
     13      11.8064      0.00000
     14      12.1320      0.00000

 k-point    32 :       0.0000    0.0000    0.5000
  band No.  band energies     occupation 
      1      -6.5134      2.00000
      2      -6.5134      2.00000
      3      -1.8500      2.00000
      4       2.2229      2.00000
      5       3.8095      2.00000
      6       3.8095      2.00000
      7       5.1070      2.00000
      8       5.5206      2.00000
      9       5.5206      2.00000
     10       6.7979      0.00000
     11       6.9178      0.00000
     12       6.9178      0.00000
     13      10.1648      0.00000
     14      11.6470      0.00000

 k-point    33 :       0.1111    0.0000    0.5000
  band No.  band energies     occupation 
      1      -6.4405      2.00000
      2      -6.4249      2.00000
      3      -2.0341      2.00000
      4       2.2220      2.00000
      5       3.5959      2.00000
      6       3.7093      2.00000
      7       4.4938      2.00000
      8       4.9846      2.00000
      9       5.2536      2.00000
     10       7.1065      0.00000
     11       7.4199      0.00000
     12       7.8640      0.00000
     13      10.4417      0.00000
     14      11.2949      0.00000

 k-point    34 :       0.2222    0.0000    0.5000
  band No.  band energies     occupation 
      1      -6.2422      2.00000
      2      -6.1679      2.00000
      3      -2.5229      2.00000
      4       1.9791      2.00000
      5       2.8467      2.00000
      6       3.4131      2.00000
      7       4.2343      2.00000
      8       4.4652      2.00000
      9       4.9287      2.00000
     10       7.6076      0.00000
     11       8.2034      0.00000
     12       8.5985      0.00000
     13      10.6382      0.00000
     14      11.5764      0.00000

 k-point    35 :       0.3333   -0.0000    0.5000
  band No.  band energies     occupation 
      1      -5.9867      2.00000
      2      -5.7802      2.00000
      3      -3.1594      2.00000
      4       1.1597      2.00000
      5       2.6227      2.00000
      6       3.0797      2.00000
      7       4.0221      2.00000
      8       4.2344      2.00000
      9       5.1234      2.00000
     10       7.8121      0.00000
     11       8.2607      0.00000
     12       8.7722      0.00000
     13      10.6351      0.00000
     14      11.7607      0.00000

 k-point    36 :       0.4444    0.0000    0.5000
  band No.  band energies     occupation 
      1      -5.7966      2.00000
      2      -5.3957      2.00000
      3      -3.6988      2.00000
      4       0.5672      2.00000
      5       2.6574      2.00000
      6       2.8150      2.00000
      7       3.8307      2.00000
      8       4.1083      2.00000
      9       5.7904      2.00000
     10       7.0678      0.00000
     11       8.2556      0.00000
     12       8.9847      0.00000
     13      10.7082      0.00000
     14      11.3734      0.00000

 k-point    37 :       0.1111    0.1111    0.5000
  band No.  band energies     occupation 
      1      -6.3005      2.00000
      2      -6.2561      2.00000
      3      -2.3675      2.00000
      4       2.1285      2.00000
      5       3.1561      2.00000
      6       3.2717      2.00000
      7       4.1834      2.00000
      8       4.3973      2.00000
      9       5.5724      2.00000
     10       6.9882      0.00000
     11       8.3135      0.00000
     12       8.4538      0.00000
     13      10.9191      0.00000
     14      11.0004      0.00000

 k-point    38 :       0.2222    0.1111    0.5000
  band No.  band energies     occupation 
      1      -6.0601      2.00000
      2      -5.9424      2.00000
      3      -2.9179      2.00000
      4       1.6121      2.00000
      5       2.4738      2.00000
      6       2.7409      2.00000
      7       4.1644      2.00000
      8       4.5551      2.00000
      9       5.4655      2.00000
     10       7.3593      0.00000
     11       8.4795      0.00000
     12       8.6682      0.00000
     13      10.7710      0.00000
     14      11.7300      0.00000

 k-point    39 :       0.3333    0.1111    0.5000
  band No.  band energies     occupation 
      1      -5.8183      2.00000
      2      -5.5509      2.00000
      3      -3.5032      2.00000
      4       0.8666      2.00000
      5       2.2111      2.00000
      6       2.3919      2.00000
      7       4.2872      2.00000
      8       4.7371      2.00000
      9       5.5535      2.00000
     10       7.4662      0.00000
     11       8.0012      0.00000
     12       8.7230      0.00000
     13      10.7854      0.00000
     14      11.7429      0.00000

 k-point    40 :       0.4444    0.1111    0.5000
  band No.  band energies     occupation 
      1      -5.7125      2.00000
      2      -5.3223      2.00000
      3      -3.8054      2.00000
      4       0.5604      2.00000
      5       2.1571      2.00000
      6       2.2470      2.00000
      7       4.4919      2.00000
      8       4.5271      2.00000
      9       6.0658      2.00000
     10       6.8480      0.00000
     11       8.0633      0.00000
     12       8.7186      0.00000
     13      10.8919      0.00000
     14      11.4181      0.00000

 k-point    41 :       0.2222    0.2222    0.5000
  band No.  band energies     occupation 
      1      -5.7999      2.00000
      2      -5.6434      2.00000
      3      -3.4038      2.00000
      4       1.2452      2.00000
      5       1.7276      2.00000
      6       2.0831      2.00000
      7       4.6095      2.00000
      8       4.9685      2.00000
      9       5.9584      2.00000
     10       7.1171      0.00000
     11       8.2464      0.00000
     12       8.2742      0.00000
     13      11.1610      0.00000
     14      12.0129      0.00000

 k-point    42 :       0.3333    0.2222    0.5000
  band No.  band energies     occupation 
      1      -5.5943      2.00000
      2      -5.3816      2.00000
      3      -3.7881      2.00000
      4       0.8459      2.00000
      5       1.4729      2.00000
      6       1.6668      2.00000
      7       5.0217      2.00000
      8       5.4578      2.00000
      9       6.0895      2.00000
     10       7.0009      0.00000
     11       7.6275      0.00000
     12       8.0574      0.00000
     13      11.5168      0.00000
     14      12.1026      0.00000

 k-point    43 :       0.3333    0.3333    0.5000
  band No.  band energies     occupation 
      1      -5.4049      2.00000
      2      -5.4049      2.00000
      3      -3.8943      2.00000
      4       1.0613      2.00000
      5       1.1779      2.00000
      6       1.1779      2.00000
      7       5.3466      2.00000
      8       6.3297      1.63706
      9       6.3538      1.18147
     10       6.3538      1.18146
     11       7.4955      0.00000
     12       7.4955      0.00000
     13      12.4258      0.00000
     14      12.8204      0.00000


--------------------------------------------------------------------------------------------------------


 soft charge-density along one line, spin component           1
         0         1         2         3         4         5         6         7         8         9
 total charge-density along one line
 
 pseudopotential strength for first ion, spin component:           1
 51.495  56.028  -0.000  -0.000  -0.046  -0.000  -0.000  -0.066
 56.028  60.964  -0.000  -0.000  -0.050  -0.000  -0.000  -0.072
 -0.000  -0.000  12.685   0.009   0.000  18.284   0.013   0.000
 -0.000  -0.000   0.009  12.701   0.000   0.013  18.307   0.000
 -0.046  -0.050   0.000   0.000  12.699   0.000   0.000  18.305
 -0.000  -0.000  18.284   0.013   0.000  26.364   0.018   0.000
 -0.000  -0.000   0.013  18.307   0.000   0.018  26.397   0.000
 -0.066  -0.072   0.000   0.000  18.305   0.000   0.000  26.394
  0.000   0.000  -0.009   0.000  -0.000  -0.013   0.000  -0.000
  0.014   0.015   0.000  -0.000   0.000   0.000  -0.000   0.000
  0.008   0.008   0.000  -0.000   0.005   0.000  -0.000   0.008
  0.000   0.000   0.000  -0.008  -0.000   0.000  -0.012  -0.000
  0.011   0.012   0.000  -0.000  -0.009   0.000  -0.000  -0.013
 total augmentation occupancy for first ion, spin component:           1
 14.030 -10.360   0.000   0.000   1.961   0.000  -0.000  -0.508   0.000  -0.162  -0.120   0.000  -0.116
-10.360   8.926   0.000   0.000  -1.649   0.000   0.000   0.435   0.000   0.146   0.107   0.000   0.104
  0.000   0.000   2.592   0.211   0.000  -0.522  -0.179   0.000  -0.049   0.000   0.000  -0.047   0.000
 -0.000  -0.000   0.211   2.971  -0.000  -0.179  -0.847   0.000  -0.045   0.000   0.000  -0.114   0.000
  1.961  -1.649  -0.000  -0.000   2.824   0.000   0.000  -0.753   0.000  -0.052  -0.018   0.000  -0.049
  0.000   0.000  -0.522  -0.179   0.000   0.192   0.067   0.000   0.012   0.000   0.000   0.017  -0.000
 -0.000   0.000  -0.179  -0.847   0.000   0.067   0.313  -0.000   0.017   0.000   0.000   0.034  -0.000
 -0.508   0.435   0.000   0.000  -0.753   0.000  -0.000   0.268   0.000   0.015   0.005  -0.000   0.012
  0.000   0.000  -0.049  -0.045   0.000   0.012   0.017   0.000   0.010  -0.000  -0.000   0.011   0.000
 -0.162   0.146   0.000   0.000  -0.052   0.000   0.000   0.015  -0.000   0.016   0.004  -0.000   0.005
 -0.120   0.107   0.000   0.000  -0.018   0.000   0.000   0.005  -0.000   0.004   0.008  -0.000  -0.000
  0.000   0.000  -0.047  -0.114   0.000   0.017   0.034   0.000   0.011  -0.000   0.000   0.028   0.000
 -0.116   0.104   0.000   0.000  -0.049  -0.000   0.000   0.012   0.000   0.005  -0.000   0.000   0.010


------------------------ aborting loop because EDIFF is reached ----------------------------------------


    CHARGE:  cpu time    0.0242: real time    0.0243
    FORLOC:  cpu time    0.0009: real time    0.0010
    FORNL :  cpu time    0.0958: real time    0.0961
    STRESS:  cpu time    0.2114: real time    0.2120
    FORCOR:  cpu time    0.0177: real time    0.0177
    FORHAR:  cpu time    0.0038: real time    0.0038
    MIXING:  cpu time    0.0008: real time    0.0008
    OFIELD:  cpu time    0.0000: real time    0.0000

  Number of pair interactions contributing to vdW energy:   31968
  Edisp (eV):   -0.95672
    FORVDW:  cpu time    0.0018: real time    0.0018

  FORCE on cell =-STRESS in cart. coord.  units (eV):
  Direction    XX          YY          ZZ          XY          YZ          ZX
  --------------------------------------------------------------------------------------
  Alpha Z     2.37649     2.37649     2.37649
  Ewald    -241.61281  -241.61281  -201.88178    -0.00000    -0.00000     0.00000
  Hartree    10.09560    10.09560    19.50410     0.00000     0.00000    -0.00000
  E(xc)     -70.53953   -70.53953   -70.01703    -0.00000     0.00000    -0.00000
  Local    -107.25594  -107.25599  -146.80855    -0.00004     0.00000    -0.00000
  n-local   332.74975   333.41702   328.60396    -1.46501    -0.73801    -1.35269
  augment   -81.20364   -81.20360   -78.79144     0.00004    -0.00000     0.00000
  Kinetic   152.81500   159.89179   148.12884    -7.72494    -0.00828     1.30939
  Fock        0.00000     0.00000     0.00000     0.00000     0.00000     0.00000
  vdW        -1.20230    -1.20230    -0.95266     0.00000    -0.00000     0.00000
  -------------------------------------------------------------------------------------
  Total       0.09464     0.09464     0.16193     0.00000     0.00000     0.00000
  in kB       1.54160     1.54160     2.63759     0.00000     0.00000     0.00000
  external pressure =        1.91 kB  Pullay stress =        0.00 kB


 VOLUME and BASIS-vectors are now :
 -----------------------------------------------------------------------------
  energy-cutoff  :      520.00
  volume of cell :       98.36
      direct lattice vectors                 reciprocal lattice vectors
     4.340684557  0.000000000 -0.000000000     0.230378408  0.133009036  0.000000000
    -2.170342278  3.759143096  0.000000000     0.000000000  0.266018072  0.000000000
    -0.000000000  0.000000000  6.028005052     0.000000000  0.000000000  0.165892363

  length of vectors
     4.340684557  4.340684557  6.028005052     0.266018072  0.266018072  0.165892363


 FORCES acting on ions
    electron-ion (+dipol)            ewald-force                    non-local-force                 convergence-correction
 -----------------------------------------------------------------------------------------------
   -.958E+01 0.110E-04 -.961E-06   0.142E+02 0.147E-05 0.147E-05   -.448E+01 0.000E+00 -.555E-16   0.350E-03 0.563E-08 -.862E-10
   0.479E+01 -.829E+01 -.188E-04   -.710E+01 0.123E+02 -.883E-05   0.224E+01 -.388E+01 0.000E+00   -.175E-03 0.303E-03 -.104E-08
   0.479E+01 0.829E+01 0.194E-04   -.710E+01 -.123E+02 0.736E-05   0.224E+01 0.388E+01 0.000E+00   -.175E-03 -.303E-03 0.113E-08
 -----------------------------------------------------------------------------------------------
   0.258E-04 -.808E-05 -.352E-06   0.000E+00 0.000E+00 -.782E-17   0.000E+00 0.000E+00 -.555E-16   0.805E-09 0.464E-09 0.230E-12
 
 
 POSITION                                       TOTAL-FORCE (eV/Angst)
 -----------------------------------------------------------------------------------
      1.19263      0.00000      2.00934         0.046362     -0.000000     -0.000000
     -0.59631      1.03285      4.01867        -0.023181      0.040151      0.000000
      1.57403      2.72630     -0.00000        -0.023181     -0.040151      0.000000
 -----------------------------------------------------------------------------------
    total drift:                                0.000026     -0.000008     -0.000000


--------------------------------------------------------------------------------------------------------



  FREE ENERGIE OF THE ION-ELECTRON SYSTEM (eV)
  ---------------------------------------------------
  free  energy   TOTEN  =       -10.34586618 eV

  energy  without entropy=      -10.34541184  energy(sigma->0) =      -10.34563901
 
 d Force =-0.2221998E-02[-0.285E-02,-0.160E-02]  d Energy = 0.2852232E-02-0.507E-02
 d Force =-0.8221168E+00[-0.872E+00,-0.772E+00]  d Ewald  =-0.6206612E+01 0.538E+01


--------------------------------------------------------------------------------------------------------


    POTLOK:  cpu time    0.0195: real time    0.0196


--------------------------------------------------------------------------------------------------------




--------------------------------------------------------------------------------------------------------


    WAVPRE:  cpu time    0.0037: real time    0.0154
    FEWALD:  cpu time    0.0002: real time    0.0002
    GENKIN:  cpu time    0.0058: real time    0.0058
    ORTHCH:  cpu time    0.0186: real time    0.0186
     LOOP+:  cpu time    2.9599: real time    3.0032


--------------------------------------- Iteration      8(   1)  ---------------------------------------


    POTLOK:  cpu time    0.0178: real time    0.0225
    SETDIJ:  cpu time    0.0024: real time    0.0024
     EDDAV:  cpu time    0.3194: real time    0.3204
       DOS:  cpu time    0.0006: real time    0.0006
    CHARGE:  cpu time    0.0245: real time    0.0246
    MIXING:  cpu time    0.0006: real time    0.0006
    --------------------------------------------
      LOOP:  cpu time    0.3652: real time    0.3711

 eigenvalue-minimisations  :  1210
 total energy-change (2. order) : 0.2424635E-02  (-0.2665028E-02)
 number of electron      17.9999993 magnetization 
 augmentation part       -3.6099795 magnetization 

 Broyden mixing:
  rms(total) = 0.11189E-01    rms(broyden)= 0.11189E-01
  rms(prec ) = 0.18239E-01
  weight for this iteration     100.00

 Free energy of the ion-electron system (eV)
  ---------------------------------------------------
  alpha Z        PSCENC =         2.38342357
  Ewald energy   TEWEN  =      -685.94358463
  -Hartree energ DENC   =       -39.64440280
  -exchange      EXHF   =         0.00000000
  -V(xc)+E(xc)   XCENC  =       -83.81377721
  PAW double counting   =      1577.22719369    -1461.87945296
  entropy T*S    EENTRO =        -0.00044273
  eigenvalues    EBANDS =        12.47001665
  atomic energy  EATOM  =       669.81430600
  Solvation  Ediel_sol  =         0.00000000
  ---------------------------------------------------
  free energy    TOTEN  =        -9.38672044 eV

  energy without entropy =       -9.38627770  energy(sigma->0) =       -9.38649907


--------------------------------------------------------------------------------------------------------




--------------------------------------- Iteration      8(   2)  ---------------------------------------


    POTLOK:  cpu time    0.0171: real time    0.0171
    SETDIJ:  cpu time    0.0024: real time    0.0024
     EDDAV:  cpu time    0.3292: real time    0.3304
       DOS:  cpu time    0.0006: real time    0.0006
    CHARGE:  cpu time    0.0249: real time    0.0249
    MIXING:  cpu time    0.0006: real time    0.0006
    --------------------------------------------
      LOOP:  cpu time    0.3748: real time    0.3760

 eigenvalue-minimisations  :  1300
 total energy-change (2. order) : 0.1967141E-03  (-0.1117132E-03)
 number of electron      17.9999993 magnetization 
 augmentation part       -3.6099979 magnetization 

 Broyden mixing:
  rms(total) = 0.62206E-02    rms(broyden)= 0.62205E-02
  rms(prec ) = 0.10613E-01
  weight for this iteration     100.00

 eigenvalues of (default mixing * dielectric matrix)
  average eigenvalue GAMMA=   1.0576
  1.0576

 Free energy of the ion-electron system (eV)
  ---------------------------------------------------
  alpha Z        PSCENC =         2.38342357
  Ewald energy   TEWEN  =      -685.94358463
  -Hartree energ DENC   =       -39.54049990
  -exchange      EXHF   =         0.00000000
  -V(xc)+E(xc)   XCENC  =       -83.81181113
  PAW double counting   =      1576.52119409    -1461.17196894
  entropy T*S    EENTRO =        -0.00044199
  eigenvalues    EBANDS =        12.36285922
  atomic energy  EATOM  =       669.81430600
  Solvation  Ediel_sol  =         0.00000000
  ---------------------------------------------------
  free energy    TOTEN  =        -9.38652372 eV

  energy without entropy =       -9.38608173  energy(sigma->0) =       -9.38630273


--------------------------------------------------------------------------------------------------------




--------------------------------------- Iteration      8(   3)  ---------------------------------------


    POTLOK:  cpu time    0.0178: real time    0.0179
    SETDIJ:  cpu time    0.0026: real time    0.0025
     EDDAV:  cpu time    0.3471: real time    0.3482
       DOS:  cpu time    0.0005: real time    0.0005
    CHARGE:  cpu time    0.0249: real time    0.0250
    MIXING:  cpu time    0.0007: real time    0.0007
    --------------------------------------------
      LOOP:  cpu time    0.3936: real time    0.3948

 eigenvalue-minimisations  :  1402
 total energy-change (2. order) : 0.1315631E-03  (-0.1927669E-04)
 number of electron      17.9999993 magnetization 
 augmentation part       -3.6118459 magnetization 

 Broyden mixing:
  rms(total) = 0.36741E-02    rms(broyden)= 0.36741E-02
  rms(prec ) = 0.46003E-02
  weight for this iteration     100.00

 eigenvalues of (default mixing * dielectric matrix)
  average eigenvalue GAMMA=   1.0384
  0.8708  1.2061

 Free energy of the ion-electron system (eV)
  ---------------------------------------------------
  alpha Z        PSCENC =         2.38342357
  Ewald energy   TEWEN  =      -685.94358463
  -Hartree energ DENC   =       -39.45113529
  -exchange      EXHF   =         0.00000000
  -V(xc)+E(xc)   XCENC  =       -83.80838810
  PAW double counting   =      1577.94547266    -1462.59562662
  entropy T*S    EENTRO =        -0.00044095
  eigenvalues    EBANDS =        12.26958121
  atomic energy  EATOM  =       669.81430600
  Solvation  Ediel_sol  =         0.00000000
  ---------------------------------------------------
  free energy    TOTEN  =        -9.38639216 eV

  energy without entropy =       -9.38595121  energy(sigma->0) =       -9.38617168


--------------------------------------------------------------------------------------------------------




--------------------------------------- Iteration      8(   4)  ---------------------------------------


    POTLOK:  cpu time    0.0171: real time    0.0172
    SETDIJ:  cpu time    0.0023: real time    0.0023
     EDDAV:  cpu time    0.2319: real time    0.2327
       DOS:  cpu time    0.0006: real time    0.0006
    CHARGE:  cpu time    0.0248: real time    0.0249
    MIXING:  cpu time    0.0007: real time    0.0007
    --------------------------------------------
      LOOP:  cpu time    0.2774: real time    0.2783

 eigenvalue-minimisations  :   730
 total energy-change (2. order) : 0.1184559E-04  (-0.1790444E-05)
 number of electron      17.9999993 magnetization 
 augmentation part       -3.6124222 magnetization 

 Broyden mixing:
  rms(total) = 0.42744E-02    rms(broyden)= 0.42744E-02
  rms(prec ) = 0.44155E-02
  weight for this iteration     100.00

 eigenvalues of (default mixing * dielectric matrix)
  average eigenvalue GAMMA=   2.1102
  1.0179  2.6564  2.6564

 Free energy of the ion-electron system (eV)
  ---------------------------------------------------
  alpha Z        PSCENC =         2.38342357
  Ewald energy   TEWEN  =      -685.94358463
  -Hartree energ DENC   =       -39.42573606
  -exchange      EXHF   =         0.00000000
  -V(xc)+E(xc)   XCENC  =       -83.80719635
  PAW double counting   =      1578.75278497    -1463.40355192
  entropy T*S    EENTRO =        -0.00044095
  eigenvalues    EBANDS =        12.24361505
  atomic energy  EATOM  =       669.81430600
  Solvation  Ediel_sol  =         0.00000000
  ---------------------------------------------------
  free energy    TOTEN  =        -9.38638032 eV

  energy without entropy =       -9.38593937  energy(sigma->0) =       -9.38615984


--------------------------------------------------------------------------------------------------------




--------------------------------------- Iteration      8(   5)  ---------------------------------------


    POTLOK:  cpu time    0.0168: real time    0.0169
    SETDIJ:  cpu time    0.0024: real time    0.0024
     EDDAV:  cpu time    0.2127: real time    0.2134
       DOS:  cpu time    0.0005: real time    0.0005
    --------------------------------------------
      LOOP:  cpu time    0.2324: real time    0.2332

 eigenvalue-minimisations  :   602
 total energy-change (2. order) : 0.1348241E-05  (-0.9732523E-06)
 number of electron      17.9999993 magnetization 
 augmentation part       -3.6124222 magnetization 

 Free energy of the ion-electron system (eV)
  ---------------------------------------------------
  alpha Z        PSCENC =         2.38342357
  Ewald energy   TEWEN  =      -685.94358463
  -Hartree energ DENC   =       -39.41148432
  -exchange      EXHF   =         0.00000000
  -V(xc)+E(xc)   XCENC  =       -83.80608299
  PAW double counting   =      1580.88119397    -1465.53464825
  entropy T*S    EENTRO =        -0.00044149
  eigenvalues    EBANDS =        12.23093918
  atomic energy  EATOM  =       669.81430600
  Solvation  Ediel_sol  =         0.00000000
  ---------------------------------------------------
  free energy    TOTEN  =        -9.38637897 eV

  energy without entropy =       -9.38593748  energy(sigma->0) =       -9.38615822


--------------------------------------------------------------------------------------------------------




 average (electrostatic) potential at core
  the test charge radii are     1.1897
  (the norm of the test charge is              1.0000)
       1 -88.6270       2 -88.6270       3 -88.6270
 
 
 
 E-fermi :   6.3968     XC(G=0):  -9.2573     alpha+bet :-10.9649


 k-point     1 :       0.0000    0.0000    0.0000
  band No.  band energies     occupation 
      1      -7.3711      2.00000
      2      -4.0590      2.00000
      3      -4.0590      2.00000
      4       3.5106      2.00000
      5       3.8012      2.00000
      6       3.8012      2.00000
      7       4.7727      2.00000
      8       4.7727      2.00000
      9       5.5224      2.00000
     10       7.4009      0.00000
     11       7.4009      0.00000
     12       8.1853      0.00000
     13      11.2816      0.00000
     14      11.2816      0.00000

 k-point     2 :       0.1111    0.0000    0.0000
  band No.  band energies     occupation 
      1      -7.2771      2.00000
      2      -4.0692      2.00000
      3      -4.0253      2.00000
      4       2.7413      2.00000
      5       3.2827      2.00000
      6       3.5693      2.00000
      7       5.1068      2.00000
      8       5.3769      2.00000
      9       5.8252      2.00000
     10       7.0632      0.00000
     11       7.3135      0.00000
     12       7.9954      0.00000
     13      11.0230      0.00000
     14      11.2946      0.00000

 k-point     3 :       0.2222    0.0000    0.0000
  band No.  band energies     occupation 
      1      -7.0057      2.00000
      2      -4.1532      2.00000
      3      -3.9322      2.00000
      4       1.8201      2.00000
      5       2.5945      2.00000
      6       3.1395      2.00000
      7       5.1025      2.00000
      8       5.5063      2.00000
      9       5.6475      2.00000
     10       7.1781      0.00000
     11       7.4448      0.00000
     12       8.0793      0.00000
     13      10.2312      0.00000
     14      11.6627      0.00000

 k-point     4 :       0.3333   -0.0000    0.0000
  band No.  band energies     occupation 
      1      -6.5999      2.00000
      2      -4.4037      2.00000
      3      -3.8129      2.00000
      4       1.3732      2.00000
      5       2.0521      2.00000
      6       2.7796      2.00000
      7       3.8804      2.00000
      8       5.5668      2.00000
      9       5.6542      2.00000
     10       7.1230      0.00000
     11       7.3398      0.00000
     12       9.1788      0.00000
     13       9.5525      0.00000
     14      12.6066      0.00000

 k-point     5 :       0.4444    0.0000    0.0000
  band No.  band energies     occupation 
      1      -6.2023      2.00000
      2      -4.7417      2.00000
      3      -3.7267      2.00000
      4       1.3496      2.00000
      5       1.8343      2.00000
      6       2.5914      2.00000
      7       2.9173      2.00000
      8       5.4842      2.00000
      9       5.6551      2.00000
     10       7.1191      0.00000
     11       7.2020      0.00000
     12       9.1822      0.00000
     13       9.9901      0.00000
     14      13.8157      0.00000

 k-point     6 :       0.1111    0.1111    0.0000
  band No.  band energies     occupation 
      1      -7.0941      2.00000
      2      -4.0983      2.00000
      3      -3.9809      2.00000
      4       2.1257      2.00000
      5       2.4737      2.00000
      6       3.6374      2.00000
      7       4.8072      2.00000
      8       5.7136      2.00000
      9       5.7221      2.00000
     10       7.1049      0.00000
     11       7.4209      0.00000
     12       8.0461      0.00000
     13      10.8534      0.00000
     14      10.8993      0.00000

 k-point     7 :       0.2222    0.1111    0.0000
  band No.  band energies     occupation 
      1      -6.7523      2.00000
      2      -4.2362      2.00000
      3      -3.9160      2.00000
      4       1.5547      2.00000
      5       1.9710      2.00000
      6       3.2495      2.00000
      7       4.4943      2.00000
      8       4.8599      2.00000
      9       5.3649      2.00000
     10       7.5660      0.00000
     11       7.9872      0.00000
     12       8.5230      0.00000
     13      10.1934      0.00000
     14      11.3276      0.00000

 k-point     8 :       0.3333    0.1111    0.0000
  band No.  band energies     occupation 
      1      -6.3297      2.00000
      2      -4.5402      2.00000
      3      -3.8479      2.00000
      4       1.3923      2.00000
      5       1.7879      2.00000
      6       2.7915      2.00000
      7       3.3969      2.00000
      8       4.8283      2.00000
      9       5.0647      2.00000
     10       7.7045      0.00000
     11       7.9850      0.00000
     12       9.5566      0.00000
     13       9.7479      0.00000
     14      12.4082      0.00000

 k-point     9 :       0.4444    0.1111    0.0000
  band No.  band energies     occupation 
      1      -6.0836      2.00000
      2      -4.7572      2.00000
      3      -3.8185      2.00000
      4       1.4370      2.00000
      5       1.8305      2.00000
      6       2.6505      2.00000
      7       2.7689      2.00000
      8       4.8717      2.00000
      9       4.9104      2.00000
     10       7.7248      0.00000
     11       7.9662      0.00000
     12       9.5724      0.00000
     13      10.0333      0.00000
     14      13.5385      0.00000

 k-point    10 :       0.2222    0.2222    0.0000
  band No.  band energies     occupation 
      1      -6.3819      2.00000
      2      -4.3608      2.00000
      3      -4.0018      2.00000
      4       1.5134      2.00000
      5       1.6333      2.00000
      6       3.1628      2.00000
      7       3.9332      2.00000
      8       4.2752      2.00000
      9       4.2833      2.00000
     10       8.4899      0.00000
     11       8.7076      0.00000
     12       8.8888      0.00000
     13      10.7091      0.00000
     14      11.0244      0.00000

 k-point    11 :       0.3333    0.2222    0.0000
  band No.  band energies     occupation 
      1      -6.0370      2.00000
      2      -4.5605      2.00000
      3      -4.0807      2.00000
      4       1.6078      2.00000
      5       1.7620      2.00000
      6       2.8615      2.00000
      7       3.1408      2.00000
      8       3.9226      2.00000
      9       3.9853      2.00000
     10       8.7071      0.00000
     11       8.9839      0.00000
     12       9.6812      0.00000
     13      10.6079      0.00000
     14      12.1019      0.00000

 k-point    12 :       0.3333    0.3333    0.0000
  band No.  band energies     occupation 
      1      -5.9004      2.00000
      2      -4.3881      2.00000
      3      -4.3881      2.00000
      4       1.8140      2.00000
      5       1.8140      2.00000
      6       3.1177      2.00000
      7       3.1177      2.00000
      8       3.3018      2.00000
      9       3.3904      2.00000
     10       9.3680      0.00000
     11       9.3680      0.00000
     12       9.6374      0.00000
     13      11.4527      0.00000
     14      12.3096      0.00000

 k-point    13 :       0.0000    0.0000    0.2500
  band No.  band energies     occupation 
      1      -7.1484      2.00000
      2      -5.4316      2.00000
      3      -2.6031      2.00000
      4       2.8923      2.00000
      5       3.6181      2.00000
      6       4.0172      2.00000
      7       4.9562      2.00000
      8       5.1526      2.00000
      9       5.5586      2.00000
     10       7.0758      0.00000
     11       7.1003      0.00000
     12       7.6557      0.00000
     13      10.5559      0.00000
     14      11.9153      0.00000

 k-point    14 :       0.1111    0.0000    0.2500
  band No.  band energies     occupation 
      1      -7.0579      2.00000
      2      -5.3682      2.00000
      3      -2.7010      2.00000
      4       2.5800      2.00000
      5       3.4449      2.00000
      6       3.8860      2.00000
      7       4.6008      2.00000
      8       5.1425      2.00000
      9       5.1826      2.00000
     10       7.3940      0.00000
     11       7.5112      0.00000
     12       8.0422      0.00000
     13      10.7339      0.00000
     14      11.8691      0.00000

 k-point    15 :       0.2222    0.0000    0.2500
  band No.  band energies     occupation 
      1      -6.8017      2.00000
      2      -5.1839      2.00000
      3      -3.0359      2.00000
      4       2.1998      2.00000
      5       2.9898      2.00000
      6       3.4857      2.00000
      7       3.8983      2.00000
      8       4.5405      2.00000
      9       5.0307      2.00000
     10       7.7565      0.00000
     11       8.3949      0.00000
     12       8.8213      0.00000
     13      11.1246      0.00000
     14      11.5627      0.00000

 k-point    16 :       0.3333   -0.0000    0.2500
  band No.  band energies     occupation 
      1      -6.4302      2.00000
      2      -4.9396      2.00000
      3      -3.5417      2.00000
      4       1.8768      2.00000
      5       2.2997      2.00000
      6       3.0984      2.00000
      7       3.3266      2.00000
      8       4.5423      2.00000
      9       4.9072      2.00000
     10       7.7707      0.00000
     11       8.4825      0.00000
     12       9.5719      0.00000
     13      10.5287      0.00000
     14      11.9259      0.00000

 k-point    17 :       0.4444    0.0000    0.2500
  band No.  band energies     occupation 
      1      -6.0706      2.00000
      2      -4.8848      2.00000
      3      -3.8297      2.00000
      4       1.1948      2.00000
      5       1.9361      2.00000
      6       2.8236      2.00000
      7       3.7335      2.00000
      8       4.5944      2.00000
      9       4.8348      2.00000
     10       7.6361      0.00000
     11       8.3897      0.00000
     12       9.2606      0.00000
     13      10.0310      0.00000
     14      12.3027      0.00000

 k-point    18 :      -0.4444   -0.0000    0.2500
  band No.  band energies     occupation 
      1      -6.0232      2.00000
      2      -5.0752      2.00000
      3      -3.5952      2.00000
      4       0.8241      2.00000
      5       1.7826      2.00000
      6       2.7962      2.00000
      7       4.5569      2.00000
      8       4.7506      2.00000
      9       4.9161      2.00000
     10       7.5024      0.00000
     11       8.1677      0.00000
     12       8.4718      0.00000
     13       9.7445      0.00000
     14      12.9076      0.00000

 k-point    19 :      -0.3333    0.0000    0.2500
  band No.  band energies     occupation 
      1      -6.3886      2.00000
      2      -5.1413      2.00000
      3      -3.2102      2.00000
      4       1.0645      2.00000
      5       1.8532      2.00000
      6       2.9636      2.00000
      7       4.9542      2.00000
      8       5.0617      2.00000
      9       5.7282      2.00000
     10       7.1646      0.00000
     11       7.6579      0.00000
     12       8.0092      0.00000
     13       9.6895      0.00000
     14      13.1501      0.00000

 k-point    20 :      -0.2222   -0.0000    0.2500
  band No.  band energies     occupation 
      1      -6.7887      2.00000
      2      -5.2498      2.00000
      3      -2.8838      2.00000
      4       1.8816      2.00000
      5       2.1780      2.00000
      6       3.2886      2.00000
      7       5.2526      2.00000
      8       5.3989      2.00000
      9       5.9559      2.00000
     10       6.9426      0.00000
     11       7.5076      0.00000
     12       7.6446      0.00000
     13       9.9445      0.00000
     14      12.4668      0.00000

 k-point    21 :      -0.1111   -0.0000    0.2500
  band No.  band energies     occupation 
      1      -7.0564      2.00000
      2      -5.3763      2.00000
      3      -2.6778      2.00000
      4       2.6035      2.00000
      5       3.0601      2.00000
      6       3.7183      2.00000
      7       5.0764      2.00000
      8       5.4227      2.00000
      9       5.6619      2.00000
     10       7.0117      0.00000
     11       7.0264      0.00000
     12       7.9804      0.00000
     13      10.4331      0.00000
     14      11.8237      0.00000

 k-point    22 :       0.1111    0.1111    0.2500
  band No.  band energies     occupation 
      1      -6.8803      2.00000
      2      -5.2645      2.00000
      3      -2.8692      2.00000
      4       2.2391      2.00000
      5       2.5849      2.00000
      6       3.5458      2.00000
      7       4.5181      2.00000
      8       5.1635      2.00000
      9       5.4948      2.00000
     10       7.3037      0.00000
     11       7.9188      0.00000
     12       8.1375      0.00000
     13      10.5326      0.00000
     14      11.8860      0.00000

 k-point    23 :       0.2222    0.1111    0.2500
  band No.  band energies     occupation 
      1      -6.5610      2.00000
      2      -5.0549      2.00000
      3      -3.2959      2.00000
      4       1.8797      2.00000
      5       2.2885      2.00000
      6       3.2207      2.00000
      7       3.5016      2.00000
      8       4.6218      2.00000
      9       5.6191      2.00000
     10       7.3992      0.00000
     11       8.2917      0.00000
     12       9.2571      0.00000
     13      10.9104      0.00000
     14      11.3867      0.00000

 k-point    24 :       0.3333    0.1111    0.2500
  band No.  band energies     occupation 
      1      -6.1793      2.00000
      2      -4.8657      2.00000
      3      -3.7621      2.00000
      4       1.5313      2.00000
      5       1.7907      2.00000
      6       2.9034      2.00000
      7       3.4645      2.00000
      8       4.1783      2.00000
      9       5.6855      2.00000
     10       7.2594      0.00000
     11       8.6188      0.00000
     12       9.4990      0.00000
     13      10.4324      0.00000
     14      12.1294      0.00000

 k-point    25 :       0.4444    0.1111    0.2500
  band No.  band energies     occupation 
      1      -5.9385      2.00000
      2      -4.9606      2.00000
      3      -3.8076      2.00000
      4       0.9954      2.00000
      5       1.6571      2.00000
      6       2.8540      2.00000
      7       3.7013      2.00000
      8       4.2844      2.00000
      9       5.7386      2.00000
     10       7.1651      0.00000
     11       8.6273      0.00000
     12       8.8978      0.00000
     13      10.1689      0.00000
     14      12.7631      0.00000

 k-point    26 :      -0.4444    0.1111    0.2500
  band No.  band energies     occupation 
      1      -6.1352      2.00000
      2      -5.0645      2.00000
      3      -3.4955      2.00000
      4       0.9107      2.00000
      5       1.7847      2.00000
      6       2.8722      2.00000
      7       3.7733      2.00000
      8       5.1824      2.00000
      9       5.8012      2.00000
     10       7.0860      0.00000
     11       7.9148      0.00000
     12       8.6740      0.00000
     13      10.0831      0.00000
     14      12.8921      0.00000

 k-point    27 :      -0.3333    0.1111    0.2500
  band No.  band energies     occupation 
      1      -6.5449      2.00000
      2      -5.1354      2.00000
      3      -3.1459      2.00000
      4       1.4423      2.00000
      5       2.0427      2.00000
      6       3.1105      2.00000
      7       4.0493      2.00000
      8       5.5833      2.00000
      9       6.1045      2.00000
     10       6.8185      0.00000
     11       7.5741      0.00000
     12       8.5331      0.00000
     13      10.1675      0.00000
     14      12.1238      0.00000

 k-point    28 :       0.2222    0.2222    0.2500
  band No.  band energies     occupation 
      1      -6.2030      2.00000
      2      -4.9618      2.00000
      3      -3.5875      2.00000
      4       1.2200      2.00000
      5       1.9436      2.00000
      6       2.7967      2.00000
      7       3.2359      2.00000
      8       5.0021      2.00000
      9       5.9187      2.00000
     10       7.1278      0.00000
     11       8.1376      0.00000
     12       9.3283      0.00000
     13      10.9105      0.00000
     14      11.4508      0.00000

 k-point    29 :       0.3333    0.2222    0.2500
  band No.  band energies     occupation 
      1      -5.8927      2.00000
      2      -4.8667      2.00000
      3      -3.9267      2.00000
      4       1.2003      2.00000
      5       1.5084      2.00000
      6       2.4123      2.00000
      7       3.5254      2.00000
      8       4.4700      2.00000
      9       5.6770      2.00000
     10       7.4245      0.00000
     11       8.7342      0.00000
     12       9.2139      0.00000
     13      10.9297      0.00000
     14      12.1682      0.00000

 k-point    30 :       0.4444    0.2222    0.2500
  band No.  band energies     occupation 
      1      -5.8771      2.00000
      2      -4.9309      2.00000
      3      -3.8564      2.00000
      4       1.0109      2.00000
      5       1.6079      2.00000
      6       2.4390      2.00000
      7       3.4616      2.00000
      8       4.8077      2.00000
      9       5.5104      2.00000
     10       7.6207      0.00000
     11       8.3455      0.00000
     12       9.1746      0.00000
     13      10.8404      0.00000
     14      12.4357      0.00000

 k-point    31 :       0.3333    0.3333    0.2500
  band No.  band energies     occupation 
      1      -5.7556      2.00000
      2      -4.8629      2.00000
      3      -4.0250      2.00000
      4       1.1484      2.00000
      5       1.5081      2.00000
      6       1.9812      2.00000
      7       3.7471      2.00000
      8       4.7124      2.00000
      9       5.0946      2.00000
     10       8.1248      0.00000
     11       8.7439      0.00000
     12       8.8526      0.00000
     13      11.8507      0.00000
     14      12.1774      0.00000

 k-point    32 :       0.0000    0.0000    0.5000
  band No.  band energies     occupation 
      1      -6.4900      2.00000
      2      -6.4900      2.00000
      3      -1.8125      2.00000
      4       2.2489      2.00000
      5       3.8493      2.00000
      6       3.8493      2.00000
      7       5.1487      2.00000
      8       5.5679      2.00000
      9       5.5679      2.00000
     10       6.8291      0.00000
     11       6.9537      0.00000
     12       6.9537      0.00000
     13      10.1878      0.00000
     14      11.6805      0.00000

 k-point    33 :       0.1111    0.0000    0.5000
  band No.  band energies     occupation 
      1      -6.4164      2.00000
      2      -6.4008      2.00000
      3      -1.9973      2.00000
      4       2.2504      2.00000
      5       3.6345      2.00000
      6       3.7491      2.00000
      7       4.5239      2.00000
      8       5.0228      2.00000
      9       5.2934      2.00000
     10       7.1426      0.00000
     11       7.4629      0.00000
     12       7.9096      0.00000
     13      10.4674      0.00000
     14      11.3261      0.00000

 k-point    34 :       0.2222    0.0000    0.5000
  band No.  band energies     occupation 
      1      -6.2158      2.00000
      2      -6.1415      2.00000
      3      -2.4888      2.00000
      4       2.0125      2.00000
      5       2.8738      2.00000
      6       3.4531      2.00000
      7       4.2604      2.00000
      8       4.4964      2.00000
      9       4.9583      2.00000
     10       7.6495      0.00000
     11       8.2502      0.00000
     12       8.6418      0.00000
     13      10.6607      0.00000
     14      11.6161      0.00000

 k-point    35 :       0.3333   -0.0000    0.5000
  band No.  band energies     occupation 
      1      -5.9571      2.00000
      2      -5.7495      2.00000
      3      -3.1304      2.00000
      4       1.1848      2.00000
      5       2.6528      2.00000
      6       3.1189      2.00000
      7       4.0494      2.00000
      8       4.2592      2.00000
      9       5.1465      2.00000
     10       7.8531      0.00000
     11       8.2942      0.00000
     12       8.8181      0.00000
     13      10.6561      0.00000
     14      11.7914      0.00000

 k-point    36 :       0.4444    0.0000    0.5000
  band No.  band energies     occupation 
      1      -5.7641      2.00000
      2      -5.3585      2.00000
      3      -3.6769      2.00000
      4       0.5861      2.00000
      5       2.6919      2.00000
      6       2.8522      2.00000
      7       3.8560      2.00000
      8       4.1306      2.00000
      9       5.8164      2.00000
     10       7.0918      0.00000
     11       8.2955      0.00000
     12       9.0284      0.00000
     13      10.7319      0.00000
     14      11.3908      0.00000

 k-point    37 :       0.1111    0.1111    0.5000
  band No.  band energies     occupation 
      1      -6.2748      2.00000
      2      -6.2305      2.00000
      3      -2.3324      2.00000
      4       2.1611      2.00000
      5       3.1895      2.00000
      6       3.3081      2.00000
      7       4.2088      2.00000
      8       4.4231      2.00000
      9       5.6183      2.00000
     10       7.0210      0.00000
     11       8.3618      0.00000
     12       8.4996      0.00000
     13      10.9484      0.00000
     14      11.0294      0.00000

 k-point    38 :       0.2222    0.1111    0.5000
  band No.  band energies     occupation 
      1      -6.0315      2.00000
      2      -5.9136      2.00000
      3      -2.8865      2.00000
      4       1.6428      2.00000
      5       2.5013      2.00000
      6       2.7727      2.00000
      7       4.1884      2.00000
      8       4.5809      2.00000
      9       5.5043      2.00000
     10       7.3969      0.00000
     11       8.5184      0.00000
     12       8.7110      0.00000
     13      10.7969      0.00000
     14      11.7669      0.00000

 k-point    39 :       0.3333    0.1111    0.5000
  band No.  band energies     occupation 
      1      -5.7863      2.00000
      2      -5.5168      2.00000
      3      -3.4779      2.00000
      4       0.8885      2.00000
      5       2.2395      2.00000
      6       2.4221      2.00000
      7       4.3133      2.00000
      8       4.7694      2.00000
      9       5.5798      2.00000
     10       7.5003      0.00000
     11       8.0342      0.00000
     12       8.7636      0.00000
     13      10.8102      0.00000
     14      11.7677      0.00000

 k-point    40 :       0.4444    0.1111    0.5000
  band No.  band energies     occupation 
      1      -5.6789      2.00000
      2      -5.2832      2.00000
      3      -3.7851      2.00000
      4       0.5789      2.00000
      5       2.1851      2.00000
      6       2.2771      2.00000
      7       4.5224      2.00000
      8       4.5559      2.00000
      9       6.0958      2.00000
     10       6.8691      0.00000
     11       8.1008      0.00000
     12       8.7577      0.00000
     13      10.9190      0.00000
     14      11.4355      0.00000

 k-point    41 :       0.2222    0.2222    0.5000
  band No.  band energies     occupation 
      1      -5.7677      2.00000
      2      -5.6108      2.00000
      3      -3.3768      2.00000
      4       1.2727      2.00000
      5       1.7501      2.00000
      6       2.1090      2.00000
      7       4.6365      2.00000
      8       4.9947      2.00000
      9       6.0021      2.00000
     10       7.1486      0.00000
     11       8.2773      0.00000
     12       8.3094      0.00000
     13      11.1950      0.00000
     14      12.0476      0.00000

 k-point    42 :       0.3333    0.2222    0.5000
  band No.  band energies     occupation 
      1      -5.5592      2.00000
      2      -5.3438      2.00000
      3      -3.7666      2.00000
      4       0.8668      2.00000
      5       1.4952      2.00000
      6       1.6909      2.00000
      7       5.0550      2.00000
      8       5.4902      2.00000
      9       6.1222      2.00000
     10       7.0336      0.00000
     11       7.6523      0.00000
     12       8.0873      0.00000
     13      11.5514      0.00000
     14      12.1309      0.00000

 k-point    43 :       0.3333    0.3333    0.5000
  band No.  band energies     occupation 
      1      -5.3669      2.00000
      2      -5.3669      2.00000
      3      -3.8745      2.00000
      4       1.0855      2.00000
      5       1.1970      2.00000
      6       1.1970      2.00000
      7       5.3856      2.00000
      8       6.3591      1.71257
      9       6.3904      1.14372
     10       6.3904      1.14371
     11       7.5158      0.00000
     12       7.5158      0.00000
     13      12.4731      0.00000
     14      12.8557      0.00000


--------------------------------------------------------------------------------------------------------


 soft charge-density along one line, spin component           1
         0         1         2         3         4         5         6         7         8         9
 total charge-density along one line
 
 pseudopotential strength for first ion, spin component:           1
 51.482  56.014  -0.000  -0.000  -0.045  -0.000  -0.000  -0.066
 56.014  60.948  -0.000  -0.000  -0.049  -0.000  -0.000  -0.072
 -0.000  -0.000  12.682   0.009   0.000  18.280   0.012   0.000
 -0.000  -0.000   0.009  12.698   0.000   0.012  18.303   0.000
 -0.045  -0.049   0.000   0.000  12.696   0.000   0.000  18.301
 -0.000  -0.000  18.280   0.012   0.000  26.359   0.018   0.000
 -0.000  -0.000   0.012  18.303   0.000   0.018  26.391   0.000
 -0.066  -0.072   0.000   0.000  18.301   0.000   0.000  26.388
  0.000   0.000  -0.009   0.000  -0.000  -0.013   0.000  -0.000
  0.013   0.015   0.000  -0.000   0.000   0.000  -0.000   0.000
  0.008   0.008   0.000  -0.000   0.005   0.000  -0.000   0.008
  0.000   0.000   0.000  -0.008  -0.000   0.000  -0.012  -0.000
  0.011   0.012   0.000  -0.000  -0.009   0.000  -0.000  -0.013
 total augmentation occupancy for first ion, spin component:           1
 14.040 -10.378   0.000  -0.000   1.939   0.000   0.000  -0.501   0.000  -0.161  -0.121   0.000  -0.115
-10.378   8.952   0.000   0.000  -1.631   0.000   0.000   0.430   0.000   0.145   0.107   0.000   0.103
  0.000   0.000   2.599   0.209   0.000  -0.526  -0.177   0.000  -0.048   0.000   0.000  -0.047   0.000
  0.000  -0.000   0.209   2.978  -0.000  -0.177  -0.851   0.000  -0.045   0.000   0.000  -0.113   0.000
  1.939  -1.631   0.000  -0.000   2.830   0.000   0.000  -0.756   0.000  -0.051  -0.018   0.000  -0.048
  0.000   0.000  -0.526  -0.177   0.000   0.194   0.066   0.000   0.011   0.000   0.000   0.017  -0.000
 -0.000   0.000  -0.177  -0.851   0.000   0.066   0.315  -0.000   0.017   0.000   0.000   0.034  -0.000
 -0.501   0.430   0.000   0.000  -0.756   0.000  -0.000   0.269   0.000   0.015   0.005  -0.000   0.011
 -0.000   0.000  -0.048  -0.045   0.000   0.011   0.017   0.000   0.010  -0.000  -0.000   0.011   0.000
 -0.161   0.145   0.000   0.000  -0.051   0.000   0.000   0.015  -0.000   0.016   0.004  -0.000   0.005
 -0.121   0.107   0.000   0.000  -0.018  -0.000  -0.000   0.005  -0.000   0.004   0.008  -0.000  -0.000
  0.000   0.000  -0.047  -0.113   0.000   0.017   0.034  -0.000   0.011  -0.000  -0.000   0.028   0.000
 -0.115   0.103   0.000   0.000  -0.048  -0.000   0.000   0.011   0.000   0.005  -0.000   0.000   0.010


------------------------ aborting loop because EDIFF is reached ----------------------------------------


    CHARGE:  cpu time    0.0248: real time    0.0248
    FORLOC:  cpu time    0.0009: real time    0.0009
    FORNL :  cpu time    0.0959: real time    0.0961
    STRESS:  cpu time    0.2155: real time    0.2161
    FORCOR:  cpu time    0.0174: real time    0.0174
    FORHAR:  cpu time    0.0037: real time    0.0037
    MIXING:  cpu time    0.0007: real time    0.0007
    OFIELD:  cpu time    0.0000: real time    0.0000

  Number of pair interactions contributing to vdW energy:   32088
  Edisp (eV):   -0.95956
    FORVDW:  cpu time    0.0018: real time    0.0018

  FORCE on cell =-STRESS in cart. coord.  units (eV):
  Direction    XX          YY          ZZ          XY          YZ          ZX
  --------------------------------------------------------------------------------------
  Alpha Z     2.38342     2.38342     2.38342
  Ewald    -241.82739  -241.82739  -202.28944    -0.00000    -0.00000     0.00000
  Hartree    10.02805    10.02805    19.35188     0.00000     0.00000    -0.00000
  E(xc)     -70.54926   -70.54926   -70.02501    -0.00000     0.00000    -0.00000
  Local    -106.98303  -106.98307  -146.27874    -0.00004     0.00000    -0.00000
  n-local   332.78082   333.44037   328.61990    -1.47627    -0.73700    -1.35648
  augment   -81.20736   -81.20732   -78.79470     0.00003    -0.00000     0.00000
  Kinetic   152.82747   159.93822   148.17486    -7.74531    -0.01879     1.29934
  Fock        0.00000     0.00000     0.00000     0.00000     0.00000     0.00000
  vdW        -1.21163    -1.21163    -0.96010     0.00000    -0.00000     0.00000
  -------------------------------------------------------------------------------------
  Total       0.12625     0.12625     0.18206     0.00000    -0.00000    -0.00000
  in kB       2.06242     2.06242     2.97426     0.00000    -0.00000    -0.00000
  external pressure =        2.37 kB  Pullay stress =        0.00 kB


 VOLUME and BASIS-vectors are now :
 -----------------------------------------------------------------------------
  energy-cutoff  :      520.00
  volume of cell :       98.07
      direct lattice vectors                 reciprocal lattice vectors
     4.333432690  0.000000000 -0.000000000     0.230763940  0.133231623  0.000000000
    -2.166716345  3.752862795  0.000000000     0.000000000  0.266463245  0.000000000
    -0.000000000  0.000000000  6.030600139     0.000000000  0.000000000  0.165820976

  length of vectors
     4.333432690  4.333432690  6.030600139     0.266463245  0.266463245  0.165820976


 FORCES acting on ions
    electron-ion (+dipol)            ewald-force                    non-local-force                 convergence-correction
 -----------------------------------------------------------------------------------------------
   -.940E+01 0.109E-04 -.945E-06   0.140E+02 0.147E-05 0.146E-05   -.444E+01 0.000E+00 0.000E+00   -.249E-02 -.390E-08 0.909E-10
   0.470E+01 -.814E+01 -.188E-04   -.699E+01 0.121E+02 -.885E-05   0.222E+01 -.385E+01 -.555E-16   0.124E-02 -.215E-02 0.461E-10
   0.470E+01 0.814E+01 0.194E-04   -.699E+01 -.121E+02 0.739E-05   0.222E+01 0.385E+01 0.000E+00   0.124E-02 0.215E-02 -.135E-09
 -----------------------------------------------------------------------------------------------
   0.259E-04 -.804E-05 -.353E-06   0.888E-15 0.355E-14 -.782E-17   0.000E+00 0.444E-15 -.555E-16   -.109E-08 -.192E-08 0.218E-11
 
 
 POSITION                                       TOTAL-FORCE (eV/Angst)
 -----------------------------------------------------------------------------------
      1.19336      0.00000      2.01020         0.043795     -0.000000     -0.000000
     -0.59668      1.03348      4.02040        -0.021898      0.037928      0.000000
      1.57004      2.71938     -0.00000        -0.021898     -0.037928      0.000000
 -----------------------------------------------------------------------------------
    total drift:                                0.000026     -0.000008     -0.000000


--------------------------------------------------------------------------------------------------------



  FREE ENERGIE OF THE ION-ELECTRON SYSTEM (eV)
  ---------------------------------------------------
  free  energy   TOTEN  =       -10.34594164 eV

  energy  without entropy=      -10.34550015  energy(sigma->0) =      -10.34572090
 
 d Force = 0.3684952E-03[ 0.358E-03, 0.379E-03]  d Energy = 0.7546448E-04 0.293E-03
 d Force = 0.1151983E+00[ 0.114E+00, 0.116E+00]  d Ewald  = 0.8366632E+00-0.721E+00


--------------------------------------------------------------------------------------------------------


    POTLOK:  cpu time    0.0194: real time    0.0194


--------------------------------------------------------------------------------------------------------




--------------------------------------------------------------------------------------------------------


    WAVPRE:  cpu time    0.0036: real time    0.0156
    FEWALD:  cpu time    0.0002: real time    0.0002
    GENKIN:  cpu time    0.0058: real time    0.0058
    ORTHCH:  cpu time    0.0184: real time    0.0185
     LOOP+:  cpu time    2.0602: real time    2.0984


--------------------------------------- Iteration      9(   1)  ---------------------------------------


    POTLOK:  cpu time    0.0175: real time    0.0223
    SETDIJ:  cpu time    0.0023: real time    0.0024
     EDDAV:  cpu time    0.3149: real time    0.3160
       DOS:  cpu time    0.0006: real time    0.0006
    CHARGE:  cpu time    0.0247: real time    0.0247
    MIXING:  cpu time    0.0005: real time    0.0005
    --------------------------------------------
      LOOP:  cpu time    0.3606: real time    0.3665

 eigenvalue-minimisations  :  1210
 total energy-change (2. order) :-0.8036440E-02  (-0.3393350E-01)
 number of electron      17.9999995 magnetization 
 augmentation part       -3.6108751 magnetization 

 Broyden mixing:
  rms(total) = 0.63570E-01    rms(broyden)= 0.63570E-01
  rms(prec ) = 0.68388E-01
  weight for this iteration     100.00

 Free energy of the ion-electron system (eV)
  ---------------------------------------------------
  alpha Z        PSCENC =         2.36696850
  Ewald energy   TEWEN  =      -685.07244335
  -Hartree energ DENC   =       -38.93746923
  -exchange      EXHF   =         0.00000000
  -V(xc)+E(xc)   XCENC  =       -83.85577478
  PAW double counting   =      1580.61222907    -1465.26515927
  entropy T*S    EENTRO =        -0.00040871
  eigenvalues    EBANDS =        10.94333501
  atomic energy  EATOM  =       669.81430600
  Solvation  Ediel_sol  =         0.00000000
  ---------------------------------------------------
  free energy    TOTEN  =        -9.39441675 eV

  energy without entropy =       -9.39400805  energy(sigma->0) =       -9.39421240


--------------------------------------------------------------------------------------------------------




--------------------------------------- Iteration      9(   2)  ---------------------------------------


    POTLOK:  cpu time    0.0173: real time    0.0174
    SETDIJ:  cpu time    0.0024: real time    0.0024
     EDDAV:  cpu time    0.3486: real time    0.3499
       DOS:  cpu time    0.0006: real time    0.0006
    CHARGE:  cpu time    0.0248: real time    0.0249
    MIXING:  cpu time    0.0008: real time    0.0008
    --------------------------------------------
      LOOP:  cpu time    0.3944: real time    0.3959

 eigenvalue-minimisations  :  1390
 total energy-change (2. order) :-0.1010026E-02  (-0.1692040E-02)
 number of electron      17.9999995 magnetization 
 augmentation part       -3.6174329 magnetization 

 Broyden mixing:
  rms(total) = 0.23391E-01    rms(broyden)= 0.23391E-01
  rms(prec ) = 0.29430E-01
  weight for this iteration     100.00

 eigenvalues of (default mixing * dielectric matrix)
  average eigenvalue GAMMA=   0.8682
  0.8682

 Free energy of the ion-electron system (eV)
  ---------------------------------------------------
  alpha Z        PSCENC =         2.36696850
  Ewald energy   TEWEN  =      -685.07244335
  -Hartree energ DENC   =       -39.05893455
  -exchange      EXHF   =         0.00000000
  -V(xc)+E(xc)   XCENC  =       -83.86280287
  PAW double counting   =      1559.28297667    -1443.93126566
  entropy T*S    EENTRO =        -0.00040893
  eigenvalues    EBANDS =        11.06617742
  atomic energy  EATOM  =       669.81430600
  Solvation  Ediel_sol  =         0.00000000
  ---------------------------------------------------
  free energy    TOTEN  =        -9.39542678 eV

  energy without entropy =       -9.39501785  energy(sigma->0) =       -9.39522231


--------------------------------------------------------------------------------------------------------




--------------------------------------- Iteration      9(   3)  ---------------------------------------


    POTLOK:  cpu time    0.0173: real time    0.0173
    SETDIJ:  cpu time    0.0024: real time    0.0023
     EDDAV:  cpu time    0.3613: real time    0.3625
       DOS:  cpu time    0.0006: real time    0.0006
    CHARGE:  cpu time    0.0248: real time    0.0249
    MIXING:  cpu time    0.0006: real time    0.0006
    --------------------------------------------
      LOOP:  cpu time    0.4069: real time    0.4083

 eigenvalue-minimisations  :  1456
 total energy-change (2. order) : 0.3433920E-03  (-0.3827066E-04)
 number of electron      17.9999995 magnetization 
 augmentation part       -3.6157008 magnetization 

 Broyden mixing:
  rms(total) = 0.12364E-01    rms(broyden)= 0.12364E-01
  rms(prec ) = 0.16466E-01
  weight for this iteration     100.00

 eigenvalues of (default mixing * dielectric matrix)
  average eigenvalue GAMMA=   1.4960
  0.9394  2.0525

 Free energy of the ion-electron system (eV)
  ---------------------------------------------------
  alpha Z        PSCENC =         2.36696850
  Ewald energy   TEWEN  =      -685.07244335
  -Hartree energ DENC   =       -39.13128580
  -exchange      EXHF   =         0.00000000
  -V(xc)+E(xc)   XCENC  =       -83.87013496
  PAW double counting   =      1554.86515400    -1439.51096949
  entropy T*S    EENTRO =        -0.00040501
  eigenvalues    EBANDS =        11.14372675
  atomic energy  EATOM  =       669.81430600
  Solvation  Ediel_sol  =         0.00000000
  ---------------------------------------------------
  free energy    TOTEN  =        -9.39508339 eV

  energy without entropy =       -9.39467837  energy(sigma->0) =       -9.39488088


--------------------------------------------------------------------------------------------------------




--------------------------------------- Iteration      9(   4)  ---------------------------------------


    POTLOK:  cpu time    0.0171: real time    0.0172
    SETDIJ:  cpu time    0.0024: real time    0.0024
     EDDAV:  cpu time    0.3260: real time    0.3271
       DOS:  cpu time    0.0006: real time    0.0006
    CHARGE:  cpu time    0.0247: real time    0.0247
    MIXING:  cpu time    0.0007: real time    0.0006
    --------------------------------------------
      LOOP:  cpu time    0.3714: real time    0.3726

 eigenvalue-minimisations  :  1252
 total energy-change (2. order) : 0.2145765E-03  (-0.4030271E-04)
 number of electron      17.9999995 magnetization 
 augmentation part       -3.6129958 magnetization 

 Broyden mixing:
  rms(total) = 0.76881E-02    rms(broyden)= 0.76881E-02
  rms(prec ) = 0.77704E-02
  weight for this iteration     100.00

 eigenvalues of (default mixing * dielectric matrix)
  average eigenvalue GAMMA=   1.4488
  1.1756  1.1756  1.9952

 Free energy of the ion-electron system (eV)
  ---------------------------------------------------
  alpha Z        PSCENC =         2.36696850
  Ewald energy   TEWEN  =      -685.07244335
  -Hartree energ DENC   =       -39.23285955
  -exchange      EXHF   =         0.00000000
  -V(xc)+E(xc)   XCENC  =       -83.88206052
  PAW double counting   =      1548.22462399    -1432.86449895
  entropy T*S    EENTRO =        -0.00040032
  eigenvalues    EBANDS =        11.25149539
  atomic energy  EATOM  =       669.81430600
  Solvation  Ediel_sol  =         0.00000000
  ---------------------------------------------------
  free energy    TOTEN  =        -9.39486881 eV

  energy without entropy =       -9.39446849  energy(sigma->0) =       -9.39466865


--------------------------------------------------------------------------------------------------------




--------------------------------------- Iteration      9(   5)  ---------------------------------------


    POTLOK:  cpu time    0.0169: real time    0.0169
    SETDIJ:  cpu time    0.0023: real time    0.0023
     EDDAV:  cpu time    0.2433: real time    0.2441
       DOS:  cpu time    0.0006: real time    0.0005
    --------------------------------------------
      LOOP:  cpu time    0.2631: real time    0.2639

 eigenvalue-minimisations  :   772
 total energy-change (2. order) :-0.4731714E-07  (-0.1428801E-05)
 number of electron      17.9999995 magnetization 
 augmentation part       -3.6129958 magnetization 

 Free energy of the ion-electron system (eV)
  ---------------------------------------------------
  alpha Z        PSCENC =         2.36696850
  Ewald energy   TEWEN  =      -685.07244335
  -Hartree energ DENC   =       -39.23383710
  -exchange      EXHF   =         0.00000000
  -V(xc)+E(xc)   XCENC  =       -83.88315129
  PAW double counting   =      1547.10352322    -1431.74145336
  entropy T*S    EENTRO =        -0.00040084
  eigenvalues    EBANDS =        11.25161936
  atomic energy  EATOM  =       669.81430600
  Solvation  Ediel_sol  =         0.00000000
  ---------------------------------------------------
  free energy    TOTEN  =        -9.39486886 eV

  energy without entropy =       -9.39446802  energy(sigma->0) =       -9.39466844


--------------------------------------------------------------------------------------------------------




 average (electrostatic) potential at core
  the test charge radii are     1.1897
  (the norm of the test charge is              1.0000)
       1 -88.7116       2 -88.7116       3 -88.7116
 
 
 
 E-fermi :   6.2859     XC(G=0):  -9.2334     alpha+bet :-10.8892


 k-point     1 :       0.0000    0.0000    0.0000
  band No.  band energies     occupation 
      1      -7.3768      2.00000
      2      -4.1357      2.00000
      3      -4.1357      2.00000
      4       3.5125      2.00000
      5       3.7657      2.00000
      6       3.7657      2.00000
      7       4.7048      2.00000
      8       4.7048      2.00000
      9       5.4137      2.00000
     10       7.2956      0.00000
     11       7.2956      0.00000
     12       8.0974      0.00000
     13      11.2076      0.00000
     14      11.2076      0.00000

 k-point     2 :       0.1111    0.0000    0.0000
  band No.  band energies     occupation 
      1      -7.2823      2.00000
      2      -4.1443      2.00000
      3      -4.1025      2.00000
      4       2.7169      2.00000
      5       3.2387      2.00000
      6       3.5409      2.00000
      7       5.0474      2.00000
      8       5.3035      2.00000
      9       5.7635      2.00000
     10       6.9326      0.00000
     11       7.2023      0.00000
     12       7.8918      0.00000
     13      10.9421      0.00000
     14      11.2292      0.00000

 k-point     3 :       0.2222    0.0000    0.0000
  band No.  band energies     occupation 
      1      -7.0087      2.00000
      2      -4.2244      2.00000
      3      -4.0103      2.00000
      4       1.7896      2.00000
      5       2.5437      2.00000
      6       3.1074      2.00000
      7       5.0414      2.00000
      8       5.4485      2.00000
      9       5.5852      2.00000
     10       7.0498      0.00000
     11       7.3236      0.00000
     12       7.9346      0.00000
     13      10.1437      0.00000
     14      11.6199      0.00000

 k-point     4 :       0.3333   -0.0000    0.0000
  band No.  band energies     occupation 
      1      -6.5975      2.00000
      2      -4.4726      2.00000
      3      -3.8918      2.00000
      4       1.3420      2.00000
      5       1.9970      2.00000
      6       2.7430      2.00000
      7       3.8045      2.00000
      8       5.5324      2.00000
      9       5.5942      2.00000
     10       6.9773      0.00000
     11       7.2048      0.00000
     12       9.0124      0.00000
     13       9.4606      0.00000
     14      12.5777      0.00000

 k-point     5 :       0.4444    0.0000    0.0000
  band No.  band energies     occupation 
      1      -6.1873      2.00000
      2      -4.8178      2.00000
      3      -3.8059      2.00000
      4       1.3231      2.00000
      5       1.7856      2.00000
      6       2.5316      2.00000
      7       2.8428      2.00000
      8       5.4579      2.00000
      9       5.5995      2.00000
     10       6.9715      0.00000
     11       7.0537      0.00000
     12       9.0885      0.00000
     13       9.8045      0.00000
     14      13.7770      0.00000

 k-point     6 :       0.1111    0.1111    0.0000
  band No.  band energies     occupation 
      1      -7.0979      2.00000
      2      -4.1702      2.00000
      3      -4.0593      2.00000
      4       2.0991      2.00000
      5       2.4270      2.00000
      6       3.6094      2.00000
      7       4.7230      2.00000
      8       5.6617      2.00000
      9       5.6803      2.00000
     10       6.9612      0.00000
     11       7.2774      0.00000
     12       7.9397      0.00000
     13      10.7899      0.00000
     14      10.8180      0.00000

 k-point     7 :       0.2222    0.1111    0.0000
  band No.  band energies     occupation 
      1      -6.7526      2.00000
      2      -4.3044      2.00000
      3      -3.9952      2.00000
      4       1.5229      2.00000
      5       1.9264      2.00000
      6       3.2101      2.00000
      7       4.4240      2.00000
      8       4.7792      2.00000
      9       5.3099      2.00000
     10       7.4232      0.00000
     11       7.8803      0.00000
     12       8.3735      0.00000
     13      10.1088      0.00000
     14      11.2717      0.00000

 k-point     8 :       0.3333    0.1111    0.0000
  band No.  band energies     occupation 
      1      -6.3209      2.00000
      2      -4.6110      2.00000
      3      -3.9271      2.00000
      4       1.3636      2.00000
      5       1.7428      2.00000
      6       2.7402      2.00000
      7       3.3181      2.00000
      8       4.7536      2.00000
      9       5.0017      2.00000
     10       7.5794      0.00000
     11       7.8626      0.00000
     12       9.3908      0.00000
     13       9.6484      0.00000
     14      12.3665      0.00000

 k-point     9 :       0.4444    0.1111    0.0000
  band No.  band energies     occupation 
      1      -6.0633      2.00000
      2      -4.8371      2.00000
      3      -3.8975      2.00000
      4       1.4120      2.00000
      5       1.7983      2.00000
      6       2.5602      2.00000
      7       2.7065      2.00000
      8       4.8115      2.00000
      9       4.8331      2.00000
     10       7.6159      0.00000
     11       7.8286      0.00000
     12       9.4748      0.00000
     13       9.8507      0.00000
     14      13.5116      0.00000

 k-point    10 :       0.2222    0.2222    0.0000
  band No.  band energies     occupation 
      1      -6.3752      2.00000
      2      -4.4276      2.00000
      3      -4.0830      2.00000
      4       1.4818      2.00000
      5       1.5962      2.00000
      6       3.1163      2.00000
      7       3.8607      2.00000
      8       4.1863      2.00000
      9       4.2017      2.00000
     10       8.3833      0.00000
     11       8.5663      0.00000
     12       8.7397      0.00000
     13      10.6498      0.00000
     14      10.9356      0.00000

 k-point    11 :       0.3333    0.2222    0.0000
  band No.  band energies     occupation 
      1      -6.0171      2.00000
      2      -4.6371      2.00000
      3      -4.1607      2.00000
      4       1.5862      2.00000
      5       1.7372      2.00000
      6       2.7893      2.00000
      7       3.0599      2.00000
      8       3.8330      2.00000
      9       3.9015      2.00000
     10       8.5995      0.00000
     11       8.8418      0.00000
     12       9.5188      0.00000
     13      10.5254      0.00000
     14      12.0478      0.00000

 k-point    12 :       0.3333    0.3333    0.0000
  band No.  band energies     occupation 
      1      -5.8731      2.00000
      2      -4.4691      2.00000
      3      -4.4691      2.00000
      4       1.8039      2.00000
      5       1.8039      2.00000
      6       3.0379      2.00000
      7       3.0379      2.00000
      8       3.2077      2.00000
      9       3.2831      2.00000
     10       9.2337      0.00000
     11       9.2337      0.00000
     12       9.4762      0.00000
     13      11.4342      0.00000
     14      12.2278      0.00000

 k-point    13 :       0.0000    0.0000    0.2500
  band No.  band energies     occupation 
      1      -7.1587      2.00000
      2      -5.4776      2.00000
      3      -2.7180      2.00000
      4       2.8386      2.00000
      5       3.6099      2.00000
      6       3.9792      2.00000
      7       4.9065      2.00000
      8       5.1148      2.00000
      9       5.4710      2.00000
     10       6.9650      0.00000
     11       6.9980      0.00000
     12       7.5658      0.00000
     13      10.4600      0.00000
     14      11.8584      0.00000

 k-point    14 :       0.1111    0.0000    0.2500
  band No.  band energies     occupation 
      1      -7.0677      2.00000
      2      -5.4138      2.00000
      3      -2.8131      2.00000
      4       2.5388      2.00000
      5       3.4357      2.00000
      6       3.8521      2.00000
      7       4.5226      2.00000
      8       5.0433      2.00000
      9       5.1434      2.00000
     10       7.2839      0.00000
     11       7.4048      0.00000
     12       7.9563      0.00000
     13      10.6513      0.00000
     14      11.8113      0.00000

 k-point    15 :       0.2222    0.0000    0.2500
  band No.  band energies     occupation 
      1      -6.8099      2.00000
      2      -5.2274      2.00000
      3      -3.1412      2.00000
      4       2.1743      2.00000
      5       2.9775      2.00000
      6       3.4337      2.00000
      7       3.8318      2.00000
      8       4.4527      2.00000
      9       4.9275      2.00000
     10       7.6607      0.00000
     11       8.2963      0.00000
     12       8.6969      0.00000
     13      11.0497      0.00000
     14      11.4962      0.00000

 k-point    16 :       0.3333   -0.0000    0.2500
  band No.  band energies     occupation 
      1      -6.4348      2.00000
      2      -4.9765      2.00000
      3      -3.6454      2.00000
      4       1.8604      2.00000
      5       2.2726      2.00000
      6       3.0453      2.00000
      7       3.2402      2.00000
      8       4.4589      2.00000
      9       4.8078      2.00000
     10       7.6760      0.00000
     11       8.3675      0.00000
     12       9.4168      0.00000
     13      10.4133      0.00000
     14      11.8332      0.00000

 k-point    17 :       0.4444    0.0000    0.2500
  band No.  band energies     occupation 
      1      -6.0669      2.00000
      2      -4.9211      2.00000
      3      -3.9357      2.00000
      4       1.1585      2.00000
      5       1.9082      2.00000
      6       2.7836      2.00000
      7       3.6374      2.00000
      8       4.5200      2.00000
      9       4.7440      2.00000
     10       7.5456      0.00000
     11       8.2634      0.00000
     12       9.0855      0.00000
     13       9.8995      0.00000
     14      12.2043      0.00000

 k-point    18 :      -0.4444   -0.0000    0.2500
  band No.  band energies     occupation 
      1      -6.0132      2.00000
      2      -5.1286      2.00000
      3      -3.6914      2.00000
      4       0.7822      2.00000
      5       1.7474      2.00000
      6       2.7585      2.00000
      7       4.4790      2.00000
      8       4.6868      2.00000
      9       4.8229      2.00000
     10       7.4091      0.00000
     11       8.0319      0.00000
     12       8.2990      0.00000
     13       9.6158      0.00000
     14      12.8175      0.00000

 k-point    19 :      -0.3333    0.0000    0.2500
  band No.  band energies     occupation 
      1      -6.3899      2.00000
      2      -5.1898      2.00000
      3      -3.3086      2.00000
      4       1.0250      2.00000
      5       1.8136      2.00000
      6       2.9251      2.00000
      7       4.9011      2.00000
      8       5.0119      2.00000
      9       5.6310      2.00000
     10       7.0418      0.00000
     11       7.5109      0.00000
     12       7.8716      0.00000
     13       9.5821      0.00000
     14      13.1102      0.00000

 k-point    20 :      -0.2222   -0.0000    0.2500
  band No.  band energies     occupation 
      1      -6.7961      2.00000
      2      -5.2959      2.00000
      3      -2.9899      2.00000
      4       1.8506      2.00000
      5       2.1348      2.00000
      6       3.2484      2.00000
      7       5.2142      2.00000
      8       5.3535      2.00000
      9       5.8636      2.00000
     10       6.8243      0.00000
     11       7.3750      0.00000
     12       7.5114      0.00000
     13       9.8635      0.00000
     14      12.4034      0.00000

 k-point    21 :      -0.1111   -0.0000    0.2500
  band No.  band energies     occupation 
      1      -7.0660      2.00000
      2      -5.4222      2.00000
      3      -2.7902      2.00000
      4       2.5572      2.00000
      5       3.0429      2.00000
      6       3.6769      2.00000
      7       4.9872      2.00000
      8       5.3955      2.00000
      9       5.6229      2.00000
     10       6.8853      0.00000
     11       6.9000      0.00000
     12       7.8849      0.00000
     13      10.3534      0.00000
     14      11.7470      0.00000

 k-point    22 :       0.1111    0.1111    0.2500
  band No.  band energies     occupation 
      1      -6.8888      2.00000
      2      -5.3096      2.00000
      3      -2.9768      2.00000
      4       2.2088      2.00000
      5       2.5506      2.00000
      6       3.5033      2.00000
      7       4.4637      2.00000
      8       5.0961      2.00000
      9       5.4002      2.00000
     10       7.1991      0.00000
     11       7.8100      0.00000
     12       8.0219      0.00000
     13      10.4622      0.00000
     14      11.8170      0.00000

 k-point    23 :       0.2222    0.1111    0.2500
  band No.  band energies     occupation 
      1      -6.5668      2.00000
      2      -5.0967      2.00000
      3      -3.3981      2.00000
      4       1.8602      2.00000
      5       2.2573      2.00000
      6       3.1559      2.00000
      7       3.4412      2.00000
      8       4.5357      2.00000
      9       5.5241      2.00000
     10       7.2828      0.00000
     11       8.1850      0.00000
     12       9.1241      0.00000
     13      10.8384      0.00000
     14      11.3050      0.00000

 k-point    24 :       0.3333    0.1111    0.2500
  band No.  band energies     occupation 
      1      -6.1791      2.00000
      2      -4.9001      2.00000
      3      -3.8684      2.00000
      4       1.5087      2.00000
      5       1.7565      2.00000
      6       2.8537      2.00000
      7       3.3894      2.00000
      8       4.0769      2.00000
      9       5.6058      2.00000
     10       7.1293      0.00000
     11       8.5116      0.00000
     12       9.3360      0.00000
     13      10.3271      0.00000
     14      12.0502      0.00000

 k-point    25 :       0.4444    0.1111    0.2500
  band No.  band energies     occupation 
      1      -5.9278      2.00000
      2      -5.0075      2.00000
      3      -3.9090      2.00000
      4       0.9571      2.00000
      5       1.6267      2.00000
      6       2.8187      2.00000
      7       3.6262      2.00000
      8       4.1750      2.00000
      9       5.6751      2.00000
     10       7.0265      0.00000
     11       8.5103      0.00000
     12       8.7401      0.00000
     13      10.0435      0.00000
     14      12.6726      0.00000

 k-point    26 :      -0.4444    0.1111    0.2500
  band No.  band energies     occupation 
      1      -6.1302      2.00000
      2      -5.1145      2.00000
      3      -3.5924      2.00000
      4       0.8715      2.00000
      5       1.7519      2.00000
      6       2.8312      2.00000
      7       3.7016      2.00000
      8       5.0942      2.00000
      9       5.7410      2.00000
     10       6.9494      0.00000
     11       7.7458      0.00000
     12       8.5699      0.00000
     13       9.9612      0.00000
     14      12.8495      0.00000

 k-point    27 :      -0.3333    0.1111    0.2500
  band No.  band energies     occupation 
      1      -6.5495      2.00000
      2      -5.1810      2.00000
      3      -3.2471      2.00000
      4       1.4093      2.00000
      5       2.0050      2.00000
      6       3.0663      2.00000
      7       3.9868      2.00000
      8       5.5351      2.00000
      9       6.0184      2.00000
     10       6.6801      0.00000
     11       7.4286      0.00000
     12       8.4211      0.00000
     13      10.0742      0.00000
     14      12.0625      0.00000

 k-point    28 :       0.2222    0.2222    0.2500
  band No.  band energies     occupation 
      1      -6.2022      2.00000
      2      -5.0042      2.00000
      3      -3.6881      2.00000
      4       1.1892      2.00000
      5       1.9217      2.00000
      6       2.7380      2.00000
      7       3.1594      2.00000
      8       4.9211      2.00000
      9       5.8321      2.00000
     10       6.9770      0.00000
     11       8.0126      0.00000
     12       9.1987      0.00000
     13      10.8350      0.00000
     14      11.3763      0.00000

 k-point    29 :       0.3333    0.2222    0.2500
  band No.  band energies     occupation 
      1      -5.8820      2.00000
      2      -4.9063      2.00000
      3      -4.0344      2.00000
      4       1.1765      2.00000
      5       1.4734      2.00000
      6       2.3562      2.00000
      7       3.4612      2.00000
      8       4.3636      2.00000
      9       5.5849      2.00000
     10       7.2799      0.00000
     11       8.6083      0.00000
     12       9.0542      0.00000
     13      10.8599      0.00000
     14      12.1089      0.00000

 k-point    30 :       0.4444    0.2222    0.2500
  band No.  band energies     occupation 
      1      -5.8639      2.00000
      2      -4.9782      2.00000
      3      -3.9592      2.00000
      4       0.9788      2.00000
      5       1.5809      2.00000
      6       2.3833      2.00000
      7       3.3927      2.00000
      8       4.7116      2.00000
      9       5.4104      2.00000
     10       7.4909      0.00000
     11       8.1852      0.00000
     12       9.0465      0.00000
     13      10.7554      0.00000
     14      12.3906      0.00000

 k-point    31 :       0.3333    0.3333    0.2500
  band No.  band energies     occupation 
      1      -5.7368      2.00000
      2      -4.9062      2.00000
      3      -4.1355      2.00000
      4       1.1297      2.00000
      5       1.4788      2.00000
      6       1.9100      2.00000
      7       3.6986      2.00000
      8       4.6091      2.00000
      9       4.9709      2.00000
     10       7.9947      0.00000
     11       8.5883      0.00000
     12       8.7024      0.00000
     13      11.8154      0.00000
     14      12.1354      0.00000

 k-point    32 :       0.0000    0.0000    0.5000
  band No.  band energies     occupation 
      1      -6.5138      2.00000
      2      -6.5138      2.00000
      3      -1.9554      2.00000
      4       2.2028      2.00000
      5       3.8188      2.00000
      6       3.8188      2.00000
      7       5.1142      2.00000
      8       5.5365      2.00000
      9       5.5365      2.00000
     10       6.7154      0.00000
     11       6.8387      0.00000
     12       6.8387      0.00000
     13      10.1048      0.00000
     14      11.6153      0.00000

 k-point    33 :       0.1111    0.0000    0.5000
  band No.  band energies     occupation 
      1      -6.4396      2.00000
      2      -6.4243      2.00000
      3      -2.1332      2.00000
      4       2.2140      2.00000
      5       3.6069      2.00000
      6       3.7193      2.00000
      7       4.4496      2.00000
      8       4.9714      2.00000
      9       5.2339      2.00000
     10       7.0355      0.00000
     11       7.3674      0.00000
     12       7.8174      0.00000
     13      10.3879      0.00000
     14      11.2596      0.00000

 k-point    34 :       0.2222    0.0000    0.5000
  band No.  band energies     occupation 
      1      -6.2374      2.00000
      2      -6.1638      2.00000
      3      -2.6101      2.00000
      4       2.0032      2.00000
      5       2.8158      2.00000
      6       3.4298      2.00000
      7       4.1745      2.00000
      8       4.4318      2.00000
      9       4.8607      2.00000
     10       7.5560      0.00000
     11       8.1503      0.00000
     12       8.5256      0.00000
     13      10.5609      0.00000
     14      11.5667      0.00000

 k-point    35 :       0.3333   -0.0000    0.5000
  band No.  band energies     occupation 
      1      -5.9765      2.00000
      2      -5.7671      2.00000
      3      -3.2420      2.00000
      4       1.1633      2.00000
      5       2.6086      2.00000
      6       3.0986      2.00000
      7       3.9729      2.00000
      8       4.1750      2.00000
      9       5.0202      2.00000
     10       7.7547      0.00000
     11       8.1576      0.00000
     12       8.7076      0.00000
     13      10.5343      0.00000
     14      11.7022      0.00000

 k-point    36 :       0.4444    0.0000    0.5000
  band No.  band energies     occupation 
      1      -5.7818      2.00000
      2      -5.3635      2.00000
      3      -3.7934      2.00000
      4       0.5565      2.00000
      5       2.6615      2.00000
      6       2.8285      2.00000
      7       3.7765      2.00000
      8       4.0366      2.00000
      9       5.6920      2.00000
     10       6.9445      0.00000
     11       8.1889      0.00000
     12       8.9151      0.00000
     13      10.6182      0.00000
     14      11.2448      0.00000

 k-point    37 :       0.1111    0.1111    0.5000
  band No.  band energies     occupation 
      1      -6.2967      2.00000
      2      -6.2535      2.00000
      3      -2.4577      2.00000
      4       2.1445      2.00000
      5       3.1528      2.00000
      6       3.2746      2.00000
      7       4.1246      2.00000
      8       4.3277      2.00000
      9       5.5789      2.00000
     10       6.8964      0.00000
     11       8.2744      0.00000
     12       8.3922      0.00000
     13      10.8696      0.00000
     14      10.9552      0.00000

 k-point    38 :       0.2222    0.1111    0.5000
  band No.  band energies     occupation 
      1      -6.0511      2.00000
      2      -5.9343      2.00000
      3      -3.0005      2.00000
      4       1.6327      2.00000
      5       2.4540      2.00000
      6       2.7361      2.00000
      7       4.0993      2.00000
      8       4.4806      2.00000
      9       5.4339      2.00000
     10       7.2830      0.00000
     11       8.3919      0.00000
     12       8.5965      0.00000
     13      10.7074      0.00000
     14      11.7069      0.00000

 k-point    39 :       0.3333    0.1111    0.5000
  band No.  band energies     occupation 
      1      -5.8036      2.00000
      2      -5.5292      2.00000
      3      -3.5903      2.00000
      4       0.8625      2.00000
      5       2.2020      2.00000
      6       2.3875      2.00000
      7       4.2252      2.00000
      8       4.6960      2.00000
      9       5.4564      2.00000
     10       7.3774      0.00000
     11       7.8987      0.00000
     12       8.6400      0.00000
     13      10.7129      0.00000
     14      11.6565      0.00000

 k-point    40 :       0.4444    0.1111    0.5000
  band No.  band energies     occupation 
      1      -5.6951      2.00000
      2      -5.2842      2.00000
      3      -3.9056      2.00000
      4       0.5484      2.00000
      5       2.1468      2.00000
      6       2.2459      2.00000
      7       4.4397      2.00000
      8       4.4778      2.00000
      9       5.9773      2.00000
     10       6.7141      0.00000
     11       7.9814      0.00000
     12       8.6290      0.00000
     13      10.8327      0.00000
     14      11.2956      0.00000

 k-point    41 :       0.2222    0.2222    0.5000
  band No.  band energies     occupation 
      1      -5.7834      2.00000
      2      -5.6274      2.00000
      3      -3.4884      2.00000
      4       1.2604      2.00000
      5       1.7018      2.00000
      6       2.0694      2.00000
      7       4.5543      2.00000
      8       4.8790      2.00000
      9       5.9386      2.00000
     10       7.0101      0.00000
     11       8.1295      0.00000
     12       8.1768      0.00000
     13      11.1330      0.00000
     14      11.9830      0.00000

 k-point    42 :       0.3333    0.2222    0.5000
  band No.  band energies     occupation 
      1      -5.5717      2.00000
      2      -5.3499      2.00000
      3      -3.8856      2.00000
      4       0.8386      2.00000
      5       1.4559      2.00000
      6       1.6549      2.00000
      7       4.9874      2.00000
      8       5.3910      2.00000
      9       6.0079      2.00000
     10       6.9080      0.00000
     11       7.4914      0.00000
     12       7.9385      0.00000
     13      11.4862      0.00000
     14      12.0356      0.00000

 k-point    43 :       0.3333    0.3333    0.5000
  band No.  band energies     occupation 
      1      -5.3732      2.00000
      2      -5.3732      2.00000
      3      -3.9979      2.00000
      4       1.0654      2.00000
      5       1.1550      2.00000
      6       1.1550      2.00000
      7       5.3391      2.00000
      8       6.2316      1.87511
      9       6.2831      1.06245
     10       6.2831      1.06244
     11       7.3420      0.00000
     12       7.3420      0.00000
     13      12.4348      0.00000
     14      12.7722      0.00000


--------------------------------------------------------------------------------------------------------


 soft charge-density along one line, spin component           1
         0         1         2         3         4         5         6         7         8         9
 total charge-density along one line
 
 pseudopotential strength for first ion, spin component:           1
 51.513  56.048  -0.000  -0.000  -0.042  -0.000  -0.000  -0.061
 56.048  60.985  -0.000  -0.000  -0.046  -0.000  -0.000  -0.066
 -0.000  -0.000  12.689   0.008   0.000  18.289   0.012   0.000
 -0.000  -0.000   0.008  12.704   0.000   0.012  18.311   0.000
 -0.042  -0.046   0.000   0.000  12.702   0.000   0.000  18.309
 -0.000  -0.000  18.289   0.012   0.000  26.372   0.017   0.000
 -0.000  -0.000   0.012  18.311   0.000   0.017  26.403   0.000
 -0.061  -0.066   0.000   0.000  18.309   0.000   0.000  26.401
  0.000   0.000  -0.008   0.000  -0.000  -0.012   0.000  -0.000
  0.013   0.014   0.000  -0.000   0.000   0.000  -0.000   0.000
  0.007   0.008   0.000  -0.000   0.005   0.000  -0.000   0.007
  0.000   0.000   0.000  -0.008  -0.000   0.000  -0.011  -0.000
  0.011   0.012   0.000  -0.000  -0.008   0.000  -0.000  -0.012
 total augmentation occupancy for first ion, spin component:           1
 13.916 -10.224   0.000   0.000   1.795   0.000  -0.000  -0.450   0.000  -0.152  -0.117   0.000  -0.109
-10.224   8.775   0.000  -0.000  -1.507   0.000  -0.000   0.384   0.000   0.136   0.104   0.000   0.097
  0.000   0.000   2.552   0.183  -0.000  -0.507  -0.161   0.000  -0.044   0.000   0.000  -0.044   0.000
 -0.000   0.000   0.183   2.901  -0.000  -0.161  -0.813   0.000  -0.042   0.000   0.000  -0.104   0.000
  1.795  -1.507   0.000  -0.000   2.756   0.000   0.000  -0.719   0.000  -0.048  -0.016   0.000  -0.044
  0.000   0.000  -0.507  -0.161   0.000   0.186   0.059   0.000   0.010   0.000  -0.000   0.016   0.000
 -0.000  -0.000  -0.161  -0.813   0.000   0.059   0.298  -0.000   0.015   0.000  -0.000   0.030  -0.000
 -0.450   0.384   0.000   0.000  -0.719   0.000  -0.000   0.254   0.000   0.014   0.004  -0.000   0.010
  0.000   0.000  -0.044  -0.042   0.000   0.010   0.015  -0.000   0.009  -0.000  -0.000   0.011   0.000
 -0.152   0.136   0.000   0.000  -0.048   0.000   0.000   0.014  -0.000   0.015   0.004  -0.000   0.005
 -0.117   0.104   0.000   0.000  -0.016   0.000   0.000   0.004  -0.000   0.004   0.008  -0.000  -0.000
  0.000   0.000  -0.044  -0.104   0.000   0.016   0.030   0.000   0.011  -0.000   0.000   0.027  -0.000
 -0.109   0.097   0.000   0.000  -0.044   0.000  -0.000   0.010   0.000   0.005  -0.000  -0.000   0.010


------------------------ aborting loop because EDIFF is reached ----------------------------------------


    CHARGE:  cpu time    0.0247: real time    0.0248
    FORLOC:  cpu time    0.0009: real time    0.0009
    FORNL :  cpu time    0.0964: real time    0.0966
    STRESS:  cpu time    0.2144: real time    0.2151
    FORCOR:  cpu time    0.0174: real time    0.0174
    FORHAR:  cpu time    0.0040: real time    0.0040
    MIXING:  cpu time    0.0007: real time    0.0007
    OFIELD:  cpu time    0.0000: real time    0.0000

  Number of pair interactions contributing to vdW energy:   31833
  Edisp (eV):   -0.94970
    FORVDW:  cpu time    0.0018: real time    0.0018

  FORCE on cell =-STRESS in cart. coord.  units (eV):
  Direction    XX          YY          ZZ          XY          YZ          ZX
  --------------------------------------------------------------------------------------
  Alpha Z     2.36697     2.36697     2.36697
  Ewald    -241.11615  -241.11615  -202.84060    -0.00000    -0.00000     0.00000
  Hartree    10.04528    10.04528    19.14087     0.00000     0.00000    -0.00000
  E(xc)     -70.43045   -70.43045   -69.89272    -0.00000     0.00000    -0.00000
  Local    -107.27274  -107.27279  -145.34271    -0.00004     0.00000    -0.00000
  n-local   332.26595   332.89887   327.99379    -1.49401    -0.73924    -1.37784
  augment   -81.20517   -81.20513   -78.81766     0.00003    -0.00000     0.00000
  Kinetic   152.50159   159.53543   147.85294    -7.60556    -0.09494     1.20271
  Fock        0.00000     0.00000     0.00000     0.00000     0.00000     0.00000
  vdW        -1.20116    -1.20116    -0.92329     0.00000    -0.00000     0.00000
  -------------------------------------------------------------------------------------
  Total      -0.21250    -0.21250    -0.46241     0.00000     0.00000    -0.00000
  in kB      -3.44757    -3.44757    -7.50198     0.00000     0.00000    -0.00000
  external pressure =       -4.80 kB  Pullay stress =        0.00 kB


 VOLUME and BASIS-vectors are now :
 -----------------------------------------------------------------------------
  energy-cutoff  :      520.00
  volume of cell :       98.76
      direct lattice vectors                 reciprocal lattice vectors
     4.331970612  0.000000000 -0.000000000     0.230841825  0.133276590  0.000000000
    -2.165985306  3.751596599  0.000000000     0.000000000  0.266553179  0.000000000
    -0.000000000 -0.000000000  6.076624386     0.000000000  0.000000000  0.164565051

  length of vectors
     4.331970612  4.331970612  6.076624386     0.266553179  0.266553179  0.164565051


 FORCES acting on ions
    electron-ion (+dipol)            ewald-force                    non-local-force                 convergence-correction
 -----------------------------------------------------------------------------------------------
   -.854E+01 0.106E-04 -.858E-06   0.129E+02 0.145E-05 0.136E-05   -.427E+01 0.359E-19 0.000E+00   0.284E-03 0.229E-07 -.292E-09
   0.427E+01 -.740E+01 -.191E-04   -.643E+01 0.111E+02 -.878E-05   0.213E+01 -.370E+01 -.555E-16   -.142E-03 0.246E-03 0.181E-09
   0.427E+01 0.740E+01 0.196E-04   -.643E+01 -.111E+02 0.742E-05   0.213E+01 0.370E+01 0.000E+00   -.142E-03 -.246E-03 0.127E-09
 -----------------------------------------------------------------------------------------------
   0.261E-04 -.834E-05 -.357E-06   0.000E+00 0.000E+00 0.121E-16   -.444E-15 -.444E-15 -.555E-16   0.576E-08 0.126E-07 0.165E-10
 
 
 POSITION                                       TOTAL-FORCE (eV/Angst)
 -----------------------------------------------------------------------------------
      1.20553      0.00000      2.02554        -0.055347     -0.000000      0.000000
     -0.60277      1.04402      4.05108         0.027674     -0.047932     -0.000000
      1.56322      2.70757     -0.00000         0.027674      0.047932     -0.000000
 -----------------------------------------------------------------------------------
    total drift:                                0.000026     -0.000008     -0.000000


--------------------------------------------------------------------------------------------------------



  FREE ENERGIE OF THE ION-ELECTRON SYSTEM (eV)
  ---------------------------------------------------
  free  energy   TOTEN  =       -10.34456476 eV

  energy  without entropy=      -10.34416392  energy(sigma->0) =      -10.34436434
 
 d Force =-0.2179099E-03[-0.209E-02, 0.165E-02]  d Energy =-0.1376884E-02 0.116E-02
 d Force = 0.5061170E+00[ 0.485E+00, 0.527E+00]  d Ewald  =-0.8711413E+00 0.138E+01


--------------------------------------------------------------------------------------------------------


    POTLOK:  cpu time    0.0190: real time    0.0191


--------------------------------------------------------------------------------------------------------


 Conjugate gradient step on ions:
 trial-energy change:    0.001377  1 .order    0.001259   -0.002957    0.005474
  (g-gl).g = 0.231E-02      g.g   = 0.132E-02  gl.gl    = 0.455E-02
 g(Force)  = 0.278E-03   g(Stress)= 0.105E-02 ortho     = 0.740E-04
 gamma     =   0.50795
 trial     =   2.17302
 opt step  =   0.72157  (harmonic =   0.76212) maximal distance =0.00417717
 next E    =   -10.346428   (d E  =  -0.00049)


--------------------------------------------------------------------------------------------------------


    WAVPRE:  cpu time    0.0037: real time    0.0152
    FEWALD:  cpu time    0.0003: real time    0.0003
    GENKIN:  cpu time    0.0058: real time    0.0058
    ORTHCH:  cpu time    0.0187: real time    0.0188
     LOOP+:  cpu time    2.2129: real time    2.2519


--------------------------------------- Iteration     10(   1)  ---------------------------------------


    POTLOK:  cpu time    0.0165: real time    0.0226
    SETDIJ:  cpu time    0.0024: real time    0.0024
     EDDAV:  cpu time    0.3188: real time    0.3199
       DOS:  cpu time    0.0006: real time    0.0006
    CHARGE:  cpu time    0.0252: real time    0.0253
    MIXING:  cpu time    0.0007: real time    0.0007
    --------------------------------------------
      LOOP:  cpu time    0.3641: real time    0.3714

 eigenvalue-minimisations  :  1210
 total energy-change (2. order) : 0.4888920E-02  (-0.1527195E-01)
 number of electron      17.9999993 magnetization 
 augmentation part       -3.6134238 magnetization 

 Broyden mixing:
  rms(total) = 0.41684E-01    rms(broyden)= 0.41684E-01
  rms(prec ) = 0.45098E-01
  weight for this iteration     100.00

 Free energy of the ion-electron system (eV)
  ---------------------------------------------------
  alpha Z        PSCENC =         2.37793156
  Ewald energy   TEWEN  =      -685.65818220
  -Hartree energ DENC   =       -39.54680859
  -exchange      EXHF   =         0.00000000
  -V(xc)+E(xc)   XCENC  =       -83.85131618
  PAW double counting   =      1545.27347310    -1429.90959453
  entropy T*S    EENTRO =        -0.00042184
  eigenvalues    EBANDS =        12.11063280
  atomic energy  EATOM  =       669.81430600
  Solvation  Ediel_sol  =         0.00000000
  ---------------------------------------------------
  free energy    TOTEN  =        -9.38997989 eV

  energy without entropy =       -9.38955806  energy(sigma->0) =       -9.38976897


--------------------------------------------------------------------------------------------------------




--------------------------------------- Iteration     10(   2)  ---------------------------------------


    POTLOK:  cpu time    0.0167: real time    0.0167
    SETDIJ:  cpu time    0.0025: real time    0.0024
     EDDAV:  cpu time    0.3480: real time    0.3492
       DOS:  cpu time    0.0006: real time    0.0006
    CHARGE:  cpu time    0.0252: real time    0.0253
    MIXING:  cpu time    0.0006: real time    0.0006
    --------------------------------------------
      LOOP:  cpu time    0.3936: real time    0.3949

 eigenvalue-minimisations  :  1384
 total energy-change (2. order) :-0.4267228E-03  (-0.7364401E-03)
 number of electron      17.9999993 magnetization 
 augmentation part       -3.6096646 magnetization 

 Broyden mixing:
  rms(total) = 0.15818E-01    rms(broyden)= 0.15818E-01
  rms(prec ) = 0.19838E-01
  weight for this iteration     100.00

 eigenvalues of (default mixing * dielectric matrix)
  average eigenvalue GAMMA=   0.8565
  0.8565

 Free energy of the ion-electron system (eV)
  ---------------------------------------------------
  alpha Z        PSCENC =         2.37793156
  Ewald energy   TEWEN  =      -685.65818220
  -Hartree energ DENC   =       -39.46203536
  -exchange      EXHF   =         0.00000000
  -V(xc)+E(xc)   XCENC  =       -83.84640612
  PAW double counting   =      1559.71231308    -1444.35137177
  entropy T*S    EENTRO =        -0.00042204
  eigenvalues    EBANDS =        12.02346024
  atomic energy  EATOM  =       669.81430600
  Solvation  Ediel_sol  =         0.00000000
  ---------------------------------------------------
  free energy    TOTEN  =        -9.39040662 eV

  energy without entropy =       -9.38998457  energy(sigma->0) =       -9.39019559


--------------------------------------------------------------------------------------------------------




--------------------------------------- Iteration     10(   3)  ---------------------------------------


    POTLOK:  cpu time    0.0168: real time    0.0169
    SETDIJ:  cpu time    0.0027: real time    0.0027
     EDDAV:  cpu time    0.3567: real time    0.3579
       DOS:  cpu time    0.0006: real time    0.0006
    CHARGE:  cpu time    0.0251: real time    0.0252
    MIXING:  cpu time    0.0006: real time    0.0006
    --------------------------------------------
      LOOP:  cpu time    0.4025: real time    0.4039

 eigenvalue-minimisations  :  1444
 total energy-change (2. order) : 0.1400179E-03  (-0.1652856E-04)
 number of electron      17.9999993 magnetization 
 augmentation part       -3.6108133 magnetization 

 Broyden mixing:
  rms(total) = 0.82968E-02    rms(broyden)= 0.82968E-02
  rms(prec ) = 0.11077E-01
  weight for this iteration     100.00

 eigenvalues of (default mixing * dielectric matrix)
  average eigenvalue GAMMA=   1.4742
  0.9432  2.0052

 Free energy of the ion-electron system (eV)
  ---------------------------------------------------
  alpha Z        PSCENC =         2.37793156
  Ewald energy   TEWEN  =      -685.65818220
  -Hartree energ DENC   =       -39.41437399
  -exchange      EXHF   =         0.00000000
  -V(xc)+E(xc)   XCENC  =       -83.84155095
  PAW double counting   =      1562.24651442    -1446.88727799
  entropy T*S    EENTRO =        -0.00042471
  eigenvalues    EBANDS =        11.97279127
  atomic energy  EATOM  =       669.81430600
  Solvation  Ediel_sol  =         0.00000000
  ---------------------------------------------------
  free energy    TOTEN  =        -9.39026660 eV

  energy without entropy =       -9.38984189  energy(sigma->0) =       -9.39005424


--------------------------------------------------------------------------------------------------------




--------------------------------------- Iteration     10(   4)  ---------------------------------------


    POTLOK:  cpu time    0.0171: real time    0.0189
    SETDIJ:  cpu time    0.0025: real time    0.0025
     EDDAV:  cpu time    0.3266: real time    0.3277
       DOS:  cpu time    0.0005: real time    0.0005
    CHARGE:  cpu time    0.0249: real time    0.0250
    MIXING:  cpu time    0.0007: real time    0.0007
    --------------------------------------------
      LOOP:  cpu time    0.3723: real time    0.3753

 eigenvalue-minimisations  :  1264
 total energy-change (2. order) : 0.7802003E-04  (-0.1750421E-04)
 number of electron      17.9999993 magnetization 
 augmentation part       -3.6125959 magnetization 

 Broyden mixing:
  rms(total) = 0.49128E-02    rms(broyden)= 0.49128E-02
  rms(prec ) = 0.49795E-02
  weight for this iteration     100.00

 eigenvalues of (default mixing * dielectric matrix)
  average eigenvalue GAMMA=   1.4548
  1.9863  1.1890  1.1890

 Free energy of the ion-electron system (eV)
  ---------------------------------------------------
  alpha Z        PSCENC =         2.37793156
  Ewald energy   TEWEN  =      -685.65818220
  -Hartree energ DENC   =       -39.34772327
  -exchange      EXHF   =         0.00000000
  -V(xc)+E(xc)   XCENC  =       -83.83357471
  PAW double counting   =      1565.99306229    -1450.63783584
  entropy T*S    EENTRO =        -0.00042792
  eigenvalues    EBANDS =        11.90225552
  atomic energy  EATOM  =       669.81430600
  Solvation  Ediel_sol  =         0.00000000
  ---------------------------------------------------
  free energy    TOTEN  =        -9.39018858 eV

  energy without entropy =       -9.38976066  energy(sigma->0) =       -9.38997462


--------------------------------------------------------------------------------------------------------




--------------------------------------- Iteration     10(   5)  ---------------------------------------


    POTLOK:  cpu time    0.0172: real time    0.0184
    SETDIJ:  cpu time    0.0024: real time    0.0024
     EDDAV:  cpu time    0.2219: real time    0.2227
       DOS:  cpu time    0.0006: real time    0.0006
    --------------------------------------------
      LOOP:  cpu time    0.2421: real time    0.2440

 eigenvalue-minimisations  :   644
 total energy-change (2. order) :-0.7728714E-06  (-0.6571245E-06)
 number of electron      17.9999993 magnetization 
 augmentation part       -3.6125959 magnetization 

 Free energy of the ion-electron system (eV)
  ---------------------------------------------------
  alpha Z        PSCENC =         2.37793156
  Ewald energy   TEWEN  =      -685.65818220
  -Hartree energ DENC   =       -39.34617233
  -exchange      EXHF   =         0.00000000
  -V(xc)+E(xc)   XCENC  =       -83.83270613
  PAW double counting   =      1566.75012009    -1451.39629622
  entropy T*S    EENTRO =        -0.00042755
  eigenvalues    EBANDS =        11.90123744
  atomic energy  EATOM  =       669.81430600
  Solvation  Ediel_sol  =         0.00000000
  ---------------------------------------------------
  free energy    TOTEN  =        -9.39018935 eV

  energy without entropy =       -9.38976180  energy(sigma->0) =       -9.38997558


--------------------------------------------------------------------------------------------------------




 average (electrostatic) potential at core
  the test charge radii are     1.1897
  (the norm of the test charge is              1.0000)
       1 -88.6558       2 -88.6558       3 -88.6558
 
 
 
 E-fermi :   6.3593     XC(G=0):  -9.2494     alpha+bet :-10.9396


 k-point     1 :       0.0000    0.0000    0.0000
  band No.  band energies     occupation 
      1      -7.3729      2.00000
      2      -4.0846      2.00000
      3      -4.0846      2.00000
      4       3.5108      2.00000
      5       3.7892      2.00000
      6       3.7892      2.00000
      7       4.7502      2.00000
      8       4.7502      2.00000
      9       5.4859      2.00000
     10       7.3652      0.00000
     11       7.3652      0.00000
     12       8.1556      0.00000
     13      11.2568      0.00000
     14      11.2568      0.00000

 k-point     2 :       0.1111    0.0000    0.0000
  band No.  band energies     occupation 
      1      -7.2787      2.00000
      2      -4.0943      2.00000
      3      -4.0511      2.00000
      4       2.7330      2.00000
      5       3.2679      2.00000
      6       3.5594      2.00000
      7       5.0871      2.00000
      8       5.3526      2.00000
      9       5.8043      2.00000
     10       7.0190      0.00000
     11       7.2757      0.00000
     12       7.9603      0.00000
     13      10.9958      0.00000
     14      11.2727      0.00000

 k-point     3 :       0.2222    0.0000    0.0000
  band No.  band energies     occupation 
      1      -7.0065      2.00000
      2      -4.1770      2.00000
      3      -3.9583      2.00000
      4       1.8097      2.00000
      5       2.5773      2.00000
      6       3.1284      2.00000
      7       5.0820      2.00000
      8       5.4870      2.00000
      9       5.6266      2.00000
     10       7.1347      0.00000
     11       7.4038      0.00000
     12       8.0307      0.00000
     13      10.2016      0.00000
     14      11.6482      0.00000

 k-point     4 :       0.3333   -0.0000    0.0000
  band No.  band energies     occupation 
      1      -6.5989      2.00000
      2      -4.4268      2.00000
      3      -3.8393      2.00000
      4       1.3626      2.00000
      5       2.0335      2.00000
      6       2.7669      2.00000
      7       3.8549      2.00000
      8       5.5553      2.00000
      9       5.6338      2.00000
     10       7.0740      0.00000
     11       7.2943      0.00000
     12       9.1230      0.00000
     13       9.5214      0.00000
     14      12.5968      0.00000

 k-point     5 :       0.4444    0.0000    0.0000
  band No.  band energies     occupation 
      1      -6.1971      2.00000
      2      -4.7672      2.00000
      3      -3.7531      2.00000
      4       1.3406      2.00000
      5       1.8179      2.00000
      6       2.5711      2.00000
      7       2.8920      2.00000
      8       5.4753      2.00000
      9       5.6362      2.00000
     10       7.0696      0.00000
     11       7.1521      0.00000
     12       9.1505      0.00000
     13       9.9278      0.00000
     14      13.8029      0.00000

 k-point     6 :       0.1111    0.1111    0.0000
  band No.  band energies     occupation 
      1      -7.0952      2.00000
      2      -4.1223      2.00000
      3      -4.0071      2.00000
      4       2.1166      2.00000
      5       2.4579      2.00000
      6       3.6276      2.00000
      7       4.7791      2.00000
      8       5.6963      2.00000
      9       5.7078      2.00000
     10       7.0565      0.00000
     11       7.3728      0.00000
     12       8.0100      0.00000
     13      10.8320      0.00000
     14      10.8718      0.00000

 k-point     7 :       0.2222    0.1111    0.0000
  band No.  band energies     occupation 
      1      -6.7523      2.00000
      2      -4.2591      2.00000
      3      -3.9425      2.00000
      4       1.5439      2.00000
      5       1.9559      2.00000
      6       3.2359      2.00000
      7       4.4707      2.00000
      8       4.8329      2.00000
      9       5.3463      2.00000
     10       7.5180      0.00000
     11       7.9512      0.00000
     12       8.4727      0.00000
     13      10.1647      0.00000
     14      11.3086      0.00000

 k-point     8 :       0.3333    0.1111    0.0000
  band No.  band energies     occupation 
      1      -6.3266      2.00000
      2      -4.5639      2.00000
      3      -3.8744      2.00000
      4       1.3826      2.00000
      5       1.7727      2.00000
      6       2.7739      2.00000
      7       3.3703      2.00000
      8       4.8033      2.00000
      9       5.0434      2.00000
     10       7.6627      0.00000
     11       7.9435      0.00000
     12       9.5014      0.00000
     13       9.7138      0.00000
     14      12.3940      0.00000

 k-point     9 :       0.4444    0.1111    0.0000
  band No.  band energies     occupation 
      1      -6.0767      2.00000
      2      -4.7839      2.00000
      3      -3.8449      2.00000
      4       1.4285      2.00000
      5       1.8194      2.00000
      6       2.6201      2.00000
      7       2.7477      2.00000
      8       4.8516      2.00000
      9       4.8843      2.00000
     10       7.6882      0.00000
     11       7.9198      0.00000
     12       9.5392      0.00000
     13       9.9720      0.00000
     14      13.5294      0.00000

 k-point    10 :       0.2222    0.2222    0.0000
  band No.  band energies     occupation 
      1      -6.3795      2.00000
      2      -4.3833      2.00000
      3      -4.0289      2.00000
      4       1.5027      2.00000
      5       1.6207      2.00000
      6       3.1468      2.00000
      7       3.9089      2.00000
      8       4.2454      2.00000
      9       4.2557      2.00000
     10       8.4543      0.00000
     11       8.6602      0.00000
     12       8.8386      0.00000
     13      10.6889      0.00000
     14      10.9941      0.00000

 k-point    11 :       0.3333    0.2222    0.0000
  band No.  band energies     occupation 
      1      -6.0302      2.00000
      2      -4.5862      2.00000
      3      -4.1075      2.00000
      4       1.6004      2.00000
      5       1.7535      2.00000
      6       2.8370      2.00000
      7       3.1135      2.00000
      8       3.8925      2.00000
      9       3.9570      2.00000
     10       8.6712      0.00000
     11       8.9362      0.00000
     12       9.6268      0.00000
     13      10.5798      0.00000
     14      12.0834      0.00000

 k-point    12 :       0.3333    0.3333    0.0000
  band No.  band energies     occupation 
      1      -5.8912      2.00000
      2      -4.4152      2.00000
      3      -4.4152      2.00000
      4       1.8104      2.00000
      5       1.8104      2.00000
      6       3.0908      2.00000
      7       3.0908      2.00000
      8       3.2701      2.00000
      9       3.3544      2.00000
     10       9.3231      0.00000
     11       9.3231      0.00000
     12       9.5833      0.00000
     13      11.4462      0.00000
     14      12.2817      0.00000

 k-point    13 :       0.0000    0.0000    0.2500
  band No.  band energies     occupation 
      1      -7.1518      2.00000
      2      -5.4469      2.00000
      3      -2.6416      2.00000
      4       2.8744      2.00000
      5       3.6150      2.00000
      6       4.0041      2.00000
      7       4.9393      2.00000
      8       5.1402      2.00000
      9       5.5292      2.00000
     10       7.0383      0.00000
     11       7.0658      0.00000
     12       7.6253      0.00000
     13      10.5236      0.00000
     14      11.8959      0.00000

 k-point    14 :       0.1111    0.0000    0.2500
  band No.  band energies     occupation 
      1      -7.0611      2.00000
      2      -5.3834      2.00000
      3      -2.7386      2.00000
      4       2.5661      2.00000
      5       3.4414      2.00000
      6       3.8744      2.00000
      7       4.5745      2.00000
      8       5.1092      2.00000
      9       5.1695      2.00000
     10       7.3574      0.00000
     11       7.4748      0.00000
     12       8.0132      0.00000
     13      10.7060      0.00000
     14      11.8494      0.00000

 k-point    15 :       0.2222    0.0000    0.2500
  band No.  band energies     occupation 
      1      -6.8043      2.00000
      2      -5.1984      2.00000
      3      -3.0712      2.00000
      4       2.1912      2.00000
      5       2.9854      2.00000
      6       3.4682      2.00000
      7       3.8759      2.00000
      8       4.5111      2.00000
      9       4.9959      2.00000
     10       7.7242      0.00000
     11       8.3617      0.00000
     12       8.7796      0.00000
     13      11.0994      0.00000
     14      11.5402      0.00000

 k-point    16 :       0.3333   -0.0000    0.2500
  band No.  band energies     occupation 
      1      -6.4316      2.00000
      2      -4.9519      2.00000
      3      -3.5765      2.00000
      4       1.8711      2.00000
      5       2.2905      2.00000
      6       3.0806      2.00000
      7       3.2973      2.00000
      8       4.5144      2.00000
      9       4.8736      2.00000
     10       7.7388      0.00000
     11       8.4438      0.00000
     12       9.5199      0.00000
     13      10.4898      0.00000
     14      11.8948      0.00000

 k-point    17 :       0.4444    0.0000    0.2500
  band No.  band energies     occupation 
      1      -6.0692      2.00000
      2      -4.8969      2.00000
      3      -3.8653      2.00000
      4       1.1824      2.00000
      5       1.9267      2.00000
      6       2.8098      2.00000
      7       3.7013      2.00000
      8       4.5694      2.00000
      9       4.8040      2.00000
     10       7.6057      0.00000
     11       8.3472      0.00000
     12       9.2018      0.00000
     13       9.9865      0.00000
     14      12.2697      0.00000

 k-point    18 :      -0.4444   -0.0000    0.2500
  band No.  band energies     occupation 
      1      -6.0197      2.00000
      2      -5.0930      2.00000
      3      -3.6275      2.00000
      4       0.8098      2.00000
      5       1.7707      2.00000
      6       2.7832      2.00000
      7       4.5313      2.00000
      8       4.7290      2.00000
      9       4.8842      2.00000
     10       7.4710      0.00000
     11       8.1222      0.00000
     12       8.4135      0.00000
     13       9.7009      0.00000
     14      12.8775      0.00000

 k-point    19 :      -0.3333    0.0000    0.2500
  band No.  band energies     occupation 
      1      -6.3889      2.00000
      2      -5.1575      2.00000
      3      -3.2432      2.00000
      4       1.0510      2.00000
      5       1.8399      2.00000
      6       2.9503      2.00000
      7       4.9363      2.00000
      8       5.0451      2.00000
      9       5.6953      2.00000
     10       7.1236      0.00000
     11       7.6083      0.00000
     12       7.9628      0.00000
     13       9.6531      0.00000
     14      13.1365      0.00000

 k-point    20 :      -0.2222   -0.0000    0.2500
  band No.  band energies     occupation 
      1      -6.7911      2.00000
      2      -5.2652      2.00000
      3      -2.9194      2.00000
      4       1.8710      2.00000
      5       2.1634      2.00000
      6       3.2748      2.00000
      7       5.2397      2.00000
      8       5.3836      2.00000
      9       5.9249      2.00000
     10       6.9026      0.00000
     11       7.4632      0.00000
     12       7.5996      0.00000
     13       9.9171      0.00000
     14      12.4453      0.00000

 k-point    21 :      -0.1111   -0.0000    0.2500
  band No.  band energies     occupation 
      1      -7.0595      2.00000
      2      -5.3916      2.00000
      3      -2.7155      2.00000
      4       2.5880      2.00000
      5       3.0541      2.00000
      6       3.7042      2.00000
      7       5.0465      2.00000
      8       5.4136      2.00000
      9       5.6485      2.00000
     10       6.9696      0.00000
     11       6.9835      0.00000
     12       7.9481      0.00000
     13      10.4062      0.00000
     14      11.7978      0.00000

 k-point    22 :       0.1111    0.1111    0.2500
  band No.  band energies     occupation 
      1      -6.8830      2.00000
      2      -5.2796      2.00000
      3      -2.9052      2.00000
      4       2.2289      2.00000
      5       2.5732      2.00000
      6       3.5313      2.00000
      7       4.4997      2.00000
      8       5.1409      2.00000
      9       5.4629      2.00000
     10       7.2683      0.00000
     11       7.8821      0.00000
     12       8.0986      0.00000
     13      10.5087      0.00000
     14      11.8628      0.00000

 k-point    23 :       0.2222    0.1111    0.2500
  band No.  band energies     occupation 
      1      -6.5628      2.00000
      2      -5.0688      2.00000
      3      -3.3302      2.00000
      4       1.8730      2.00000
      5       2.2779      2.00000
      6       3.1990      2.00000
      7       3.4810      2.00000
      8       4.5928      2.00000
      9       5.5872      2.00000
     10       7.3599      0.00000
     11       8.2558      0.00000
     12       9.2126      0.00000
     13      10.8861      0.00000
     14      11.3590      0.00000

 k-point    24 :       0.3333    0.1111    0.2500
  band No.  band energies     occupation 
      1      -6.1791      2.00000
      2      -4.8772      2.00000
      3      -3.7977      2.00000
      4       1.5235      2.00000
      5       1.7792      2.00000
      6       2.8866      2.00000
      7       3.4391      2.00000
      8       4.1441      2.00000
      9       5.6587      2.00000
     10       7.2156      0.00000
     11       8.5828      0.00000
     12       9.4443      0.00000
     13      10.3968      0.00000
     14      12.1029      0.00000

 k-point    25 :       0.4444    0.1111    0.2500
  band No.  band energies     occupation 
      1      -5.9348      2.00000
      2      -4.9762      2.00000
      3      -3.8416      2.00000
      4       0.9823      2.00000
      5       1.6468      2.00000
      6       2.8418      2.00000
      7       3.6760      2.00000
      8       4.2476      2.00000
      9       5.7171      2.00000
     10       7.1185      0.00000
     11       8.5887      0.00000
     12       8.8441      0.00000
     13      10.1264      0.00000
     14      12.7329      0.00000

 k-point    26 :      -0.4444    0.1111    0.2500
  band No.  band energies     occupation 
      1      -6.1334      2.00000
      2      -5.0811      2.00000
      3      -3.5280      2.00000
      4       0.8973      2.00000
      5       1.7736      2.00000
      6       2.8581      2.00000
      7       3.7492      2.00000
      8       5.1530      2.00000
      9       5.7806      2.00000
     10       7.0400      0.00000
     11       7.8581      0.00000
     12       8.6391      0.00000
     13      10.0417      0.00000
     14      12.8776      0.00000

 k-point    27 :      -0.3333    0.1111    0.2500
  band No.  band energies     occupation 
      1      -6.5463      2.00000
      2      -5.1506      2.00000
      3      -3.1799      2.00000
      4       1.4310      2.00000
      5       2.0300      2.00000
      6       3.0954      2.00000
      7       4.0283      2.00000
      8       5.5670      2.00000
      9       6.0756      2.00000
     10       6.7719      0.00000
     11       7.5251      0.00000
     12       8.4956      0.00000
     13      10.1358      0.00000
     14      12.1030      0.00000

 k-point    28 :       0.2222    0.2222    0.2500
  band No.  band energies     occupation 
      1      -6.2025      2.00000
      2      -4.9759      2.00000
      3      -3.6213      2.00000
      4       1.2095      2.00000
      5       1.9361      2.00000
      6       2.7769      2.00000
      7       3.2101      2.00000
      8       4.9748      2.00000
      9       5.8896      2.00000
     10       7.0771      0.00000
     11       8.0955      0.00000
     12       9.2851      0.00000
     13      10.8848      0.00000
     14      11.4255      0.00000

 k-point    29 :       0.3333    0.2222    0.2500
  band No.  band energies     occupation 
      1      -5.8889      2.00000
      2      -4.8799      2.00000
      3      -3.9628      2.00000
      4       1.1921      2.00000
      5       1.4966      2.00000
      6       2.3933      2.00000
      7       3.5037      2.00000
      8       4.4342      2.00000
      9       5.6460      2.00000
     10       7.3758      0.00000
     11       8.6920      0.00000
     12       9.1603      0.00000
     13      10.9061      0.00000
     14      12.1481      0.00000

 k-point    30 :       0.4444    0.2222    0.2500
  band No.  band energies     occupation 
      1      -5.8725      2.00000
      2      -4.9466      2.00000
      3      -3.8910      2.00000
      4       0.9999      2.00000
      5       1.5987      2.00000
      6       2.4202      2.00000
      7       3.4384      2.00000
      8       4.7754      2.00000
      9       5.4768      2.00000
     10       7.5770      0.00000
     11       8.2917      0.00000
     12       9.1318      0.00000
     13      10.8114      0.00000
     14      12.4204      0.00000

 k-point    31 :       0.3333    0.3333    0.2500
  band No.  band energies     occupation 
      1      -5.7492      2.00000
      2      -4.8773      2.00000
      3      -4.0621      2.00000
      4       1.1419      2.00000
      5       1.4981      2.00000
      6       1.9572      2.00000
      7       3.7306      2.00000
      8       4.6776      2.00000
      9       5.0532      2.00000
     10       8.0809      0.00000
     11       8.6917      0.00000
     12       8.8023      0.00000
     13      11.8385      0.00000
     14      12.1632      0.00000

 k-point    32 :       0.0000    0.0000    0.5000
  band No.  band energies     occupation 
      1      -6.4979      2.00000
      2      -6.4979      2.00000
      3      -1.8604      2.00000
      4       2.2336      2.00000
      5       3.8388      2.00000
      6       3.8388      2.00000
      7       5.1366      2.00000
      8       5.5573      2.00000
      9       5.5573      2.00000
     10       6.7910      0.00000
     11       6.9150      0.00000
     12       6.9150      0.00000
     13      10.1599      0.00000
     14      11.6582      0.00000

 k-point    33 :       0.1111    0.0000    0.5000
  band No.  band energies     occupation 
      1      -6.4241      2.00000
      2      -6.4086      2.00000
      3      -2.0429      2.00000
      4       2.2383      2.00000
      5       3.6250      2.00000
      6       3.7389      2.00000
      7       4.4988      2.00000
      8       5.0054      2.00000
      9       5.2734      2.00000
     10       7.1065      0.00000
     11       7.4308      0.00000
     12       7.8786      0.00000
     13      10.4407      0.00000
     14      11.3035      0.00000

 k-point    34 :       0.2222    0.0000    0.5000
  band No.  band energies     occupation 
      1      -6.2230      2.00000
      2      -6.1489      2.00000
      3      -2.5295      2.00000
      4       2.0092      2.00000
      5       2.8545      2.00000
      6       3.4450      2.00000
      7       4.2314      2.00000
      8       4.4744      2.00000
      9       4.9255      2.00000
     10       7.6180      0.00000
     11       8.2167      0.00000
     12       8.6028      0.00000
     13      10.6270      0.00000
     14      11.5994      0.00000

 k-point    35 :       0.3333   -0.0000    0.5000
  band No.  band energies     occupation 
      1      -5.9635      2.00000
      2      -5.7552      2.00000
      3      -3.1679      2.00000
      4       1.1774      2.00000
      5       2.6380      2.00000
      6       3.1117      2.00000
      7       4.0235      2.00000
      8       4.2307      2.00000
      9       5.1041      2.00000
     10       7.8203      0.00000
     11       8.2479      0.00000
     12       8.7811      0.00000
     13      10.6151      0.00000
     14      11.7614      0.00000

 k-point    36 :       0.4444    0.0000    0.5000
  band No.  band energies     occupation 
      1      -5.7699      2.00000
      2      -5.3600      2.00000
      3      -3.7160      2.00000
      4       0.5760      2.00000
      5       2.6817      2.00000
      6       2.8439      2.00000
      7       3.8291      2.00000
      8       4.0989      2.00000
      9       5.7746      2.00000
     10       7.0424      0.00000
     11       8.2594      0.00000
     12       8.9905      0.00000
     13      10.6936      0.00000
     14      11.3415      0.00000

 k-point    37 :       0.1111    0.1111    0.5000
  band No.  band energies     occupation 
      1      -6.2820      2.00000
      2      -6.2381      2.00000
      3      -2.3745      2.00000
      4       2.1555      2.00000
      5       3.1770      2.00000
      6       3.2967      2.00000
      7       4.1803      2.00000
      8       4.3909      2.00000
      9       5.6049      2.00000
     10       6.9791      0.00000
     11       8.3325      0.00000
     12       8.4635      0.00000
     13      10.9219      0.00000
     14      11.0043      0.00000

 k-point    38 :       0.2222    0.1111    0.5000
  band No.  band energies     occupation 
      1      -6.0379      2.00000
      2      -5.9204      2.00000
      3      -2.9248      2.00000
      4       1.6392      2.00000
      5       2.4854      2.00000
      6       2.7603      2.00000
      7       4.1583      2.00000
      8       4.5471      2.00000
      9       5.4805      2.00000
     10       7.3586      0.00000
     11       8.4761      0.00000
     12       8.6724      0.00000
     13      10.7667      0.00000
     14      11.7465      0.00000

 k-point    39 :       0.3333    0.1111    0.5000
  band No.  band energies     occupation 
      1      -5.7920      2.00000
      2      -5.5207      2.00000
      3      -3.5157      2.00000
      4       0.8796      2.00000
      5       2.2267      2.00000
      6       2.4104      2.00000
      7       4.2835      2.00000
      8       4.7446      2.00000
      9       5.5384      2.00000
     10       7.4592      0.00000
     11       7.9883      0.00000
     12       8.7221      0.00000
     13      10.7774      0.00000
     14      11.7302      0.00000

 k-point    40 :       0.4444    0.1111    0.5000
  band No.  band energies     occupation 
      1      -5.6842      2.00000
      2      -5.2835      2.00000
      3      -3.8256      2.00000
      4       0.5685      2.00000
      5       2.1720      2.00000
      6       2.2666      2.00000
      7       4.4945      2.00000
      8       4.5295      2.00000
      9       6.0559      2.00000
     10       6.8172      0.00000
     11       8.0605      0.00000
     12       8.7146      0.00000
     13      10.8898      0.00000
     14      11.3883      0.00000

 k-point    41 :       0.2222    0.2222    0.5000
  band No.  band energies     occupation 
      1      -5.7729      2.00000
      2      -5.6162      2.00000
      3      -3.4144      2.00000
      4       1.2684      2.00000
      5       1.7338      2.00000
      6       2.0956      2.00000
      7       4.6088      2.00000
      8       4.9557      2.00000
      9       5.9806      2.00000
     10       7.1021      0.00000
     11       8.2276      0.00000
     12       8.2650      0.00000
     13      11.1742      0.00000
     14      12.0256      0.00000

 k-point    42 :       0.3333    0.2222    0.5000
  band No.  band energies     occupation 
      1      -5.5633      2.00000
      2      -5.3457      2.00000
      3      -3.8066      2.00000
      4       0.8572      2.00000
      5       1.4818      2.00000
      6       1.6786      2.00000
      7       5.0322      2.00000
      8       5.4567      2.00000
      9       6.0838      2.00000
     10       6.9914      0.00000
     11       7.5982      0.00000
     12       8.0373      0.00000
     13      11.5296      0.00000
     14      12.0986      0.00000

 k-point    43 :       0.3333    0.3333    0.5000
  band No.  band energies     occupation 
      1      -5.3689      2.00000
      2      -5.3689      2.00000
      3      -3.9159      2.00000
      4       1.0786      2.00000
      5       1.1827      2.00000
      6       1.1827      2.00000
      7       5.3696      2.00000
      8       6.3162      1.77779
      9       6.3544      1.11111
     10       6.3544      1.11110
     11       7.4574      0.00000
     12       7.4574      0.00000
     13      12.4602      0.00000
     14      12.8274      0.00000


--------------------------------------------------------------------------------------------------------


 soft charge-density along one line, spin component           1
         0         1         2         3         4         5         6         7         8         9
 total charge-density along one line
 
 pseudopotential strength for first ion, spin component:           1
 51.492  56.025  -0.000  -0.000  -0.044  -0.000  -0.000  -0.064
 56.025  60.960  -0.000  -0.000  -0.048  -0.000  -0.000  -0.070
 -0.000  -0.000  12.684   0.009   0.000  18.283   0.012   0.000
 -0.000  -0.000   0.009  12.700   0.000   0.012  18.305   0.000
 -0.044  -0.048   0.000   0.000  12.698   0.000   0.000  18.303
 -0.000  -0.000  18.283   0.012   0.000  26.363   0.018   0.000
 -0.000  -0.000   0.012  18.305   0.000   0.018  26.395   0.000
 -0.064  -0.070   0.000   0.000  18.303   0.000   0.000  26.392
  0.000   0.000  -0.009   0.000  -0.000  -0.013   0.000  -0.000
  0.013   0.014   0.000  -0.000   0.000   0.000  -0.000   0.000
  0.007   0.008   0.000  -0.000   0.005   0.000  -0.000   0.008
  0.000   0.000   0.000  -0.008  -0.000   0.000  -0.012  -0.000
  0.011   0.012   0.000  -0.000  -0.009   0.000  -0.000  -0.012
 total augmentation occupancy for first ion, spin component:           1
 13.975 -10.309   0.000  -0.000   1.888   0.000  -0.000  -0.484   0.000  -0.158  -0.119   0.000  -0.113
-10.309   8.881   0.000  -0.000  -1.586   0.000  -0.000   0.414   0.000   0.142   0.106   0.000   0.101
  0.000   0.000   2.584   0.201   0.000  -0.520  -0.172   0.000  -0.047   0.000   0.000  -0.046   0.000
  0.000  -0.000   0.201   2.948  -0.000  -0.172  -0.836   0.000  -0.044   0.000   0.000  -0.109  -0.000
  1.888  -1.586   0.000  -0.000   2.806   0.000   0.000  -0.744   0.000  -0.050  -0.017   0.000  -0.047
  0.000   0.000  -0.520  -0.172   0.000   0.191   0.064   0.000   0.011   0.000   0.000   0.017  -0.000
 -0.000   0.000  -0.172  -0.836   0.000   0.064   0.308  -0.000   0.016  -0.000   0.000   0.032  -0.000
 -0.484   0.414   0.000   0.000  -0.744   0.000  -0.000   0.264   0.000   0.015   0.005  -0.000   0.011
 -0.000   0.000  -0.047  -0.044   0.000   0.011   0.016   0.000   0.010  -0.000  -0.000   0.011   0.000
 -0.158   0.142   0.000   0.000  -0.050   0.000   0.000   0.015  -0.000   0.016   0.004   0.000   0.005
 -0.119   0.106   0.000   0.000  -0.017   0.000  -0.000   0.005  -0.000   0.004   0.008  -0.000  -0.000
  0.000   0.000  -0.046  -0.109   0.000   0.017   0.032  -0.000   0.011   0.000   0.000   0.028  -0.000
 -0.113   0.101   0.000   0.000  -0.047   0.000  -0.000   0.011   0.000   0.005  -0.000  -0.000   0.010


------------------------ aborting loop because EDIFF is reached ----------------------------------------


    CHARGE:  cpu time    0.0249: real time    0.0250
    FORLOC:  cpu time    0.0009: real time    0.0009
    FORNL :  cpu time    0.0969: real time    0.0971
    STRESS:  cpu time    0.2189: real time    0.2195
    FORCOR:  cpu time    0.0174: real time    0.0174
    FORHAR:  cpu time    0.0037: real time    0.0037
    MIXING:  cpu time    0.0007: real time    0.0007
    OFIELD:  cpu time    0.0000: real time    0.0000

  Number of pair interactions contributing to vdW energy:   32022
  Edisp (eV):   -0.95624
    FORVDW:  cpu time    0.0018: real time    0.0018

  FORCE on cell =-STRESS in cart. coord.  units (eV):
  Direction    XX          YY          ZZ          XY          YZ          ZX
  --------------------------------------------------------------------------------------
  Alpha Z     2.37793     2.37793     2.37793
  Ewald    -241.58683  -241.58683  -202.48515    -0.00000    -0.00000     0.00000
  Hartree    10.03438    10.03438    19.27896     0.00000     0.00000    -0.00000
  E(xc)     -70.50914   -70.50914   -69.98191    -0.00000     0.00000    -0.00000
  Local    -107.08285  -107.08289  -145.96139    -0.00004     0.00000    -0.00000
  n-local   332.60669   333.25714   328.41459    -1.48180    -0.73776    -1.36384
  augment   -81.20399   -81.20395   -78.80005     0.00003    -0.00000     0.00000
  Kinetic   152.71655   159.80215   148.06726    -7.69897    -0.04414     1.26743
  Fock        0.00000     0.00000     0.00000     0.00000     0.00000     0.00000
  vdW        -1.20818    -1.20818    -0.94799     0.00000    -0.00000     0.00000
  -------------------------------------------------------------------------------------
  Total       0.01259     0.01259    -0.03774     0.00000    -0.00000     0.00000
  in kB       0.20517     0.20517    -0.61518     0.00000    -0.00000     0.00000
  external pressure =       -0.07 kB  Pullay stress =        0.00 kB


 VOLUME and BASIS-vectors are now :
 -----------------------------------------------------------------------------
  energy-cutoff  :      520.00
  volume of cell :       98.30
      direct lattice vectors                 reciprocal lattice vectors
     4.332947195  0.000000000 -0.000000000     0.230789796  0.133246551  0.000000000
    -2.166473597  3.752442344  0.000000000     0.000000000  0.266493102  0.000000000
    -0.000000000 -0.000000000  6.045882877     0.000000000  0.000000000  0.165401815

  length of vectors
     4.332947195  4.332947195  6.045882877     0.266493102  0.266493102  0.165401815


 FORCES acting on ions
    electron-ion (+dipol)            ewald-force                    non-local-force                 convergence-correction
 -----------------------------------------------------------------------------------------------
   -.911E+01 0.108E-04 -.916E-06   0.136E+02 0.147E-05 0.142E-05   -.439E+01 0.278E-16 -.278E-16   -.109E-03 -.148E-07 0.192E-09
   0.456E+01 -.789E+01 -.189E-04   -.680E+01 0.118E+02 -.882E-05   0.219E+01 -.380E+01 0.000E+00   0.547E-04 -.948E-04 -.900E-10
   0.456E+01 0.789E+01 0.195E-04   -.680E+01 -.118E+02 0.740E-05   0.219E+01 0.380E+01 0.000E+00   0.547E-04 0.948E-04 -.112E-09
 -----------------------------------------------------------------------------------------------
   0.260E-04 -.814E-05 -.354E-06   0.000E+00 0.178E-14 -.113E-16   0.000E+00 0.000E+00 -.278E-16   -.322E-08 -.722E-08 -.983E-11
 
 
 POSITION                                       TOTAL-FORCE (eV/Angst)
 -----------------------------------------------------------------------------------
      1.19740      0.00000      2.01529         0.008932      0.000000     -0.000000
     -0.59870      1.03698      4.03059        -0.004466      0.007736      0.000000
      1.56777      2.71546     -0.00000        -0.004466     -0.007736      0.000000
 -----------------------------------------------------------------------------------
    total drift:                                0.000026     -0.000008     -0.000000


--------------------------------------------------------------------------------------------------------



  FREE ENERGIE OF THE ION-ELECTRON SYSTEM (eV)
  ---------------------------------------------------
  free  energy   TOTEN  =       -10.34642467 eV

  energy  without entropy=      -10.34599712  energy(sigma->0) =      -10.34621089
 
 d Force = 0.5851301E-03[-0.225E-03, 0.140E-02]  d Energy = 0.1859906E-02-0.127E-02
 d Force =-0.3334386E+00[-0.343E+00,-0.324E+00]  d Ewald  = 0.5857389E+00-0.919E+00


--------------------------------------------------------------------------------------------------------


    POTLOK:  cpu time    0.0192: real time    0.0193


--------------------------------------------------------------------------------------------------------




--------------------------------------------------------------------------------------------------------


    WAVPRE:  cpu time    0.0037: real time    0.0153
    FEWALD:  cpu time    0.0002: real time    0.0002
    GENKIN:  cpu time    0.0058: real time    0.0060
    ORTHCH:  cpu time    0.0187: real time    0.0188
     LOOP+:  cpu time    2.1971: real time    2.2415


--------------------------------------- Iteration     11(   1)  ---------------------------------------


    POTLOK:  cpu time    0.0175: real time    0.0222
    SETDIJ:  cpu time    0.0025: real time    0.0025
     EDDAV:  cpu time    0.2160: real time    0.2167
       DOS:  cpu time    0.0006: real time    0.0006
    CHARGE:  cpu time    0.0247: real time    0.0248
    MIXING:  cpu time    0.0005: real time    0.0005
    --------------------------------------------
      LOOP:  cpu time    0.2618: real time    0.2672

 eigenvalue-minimisations  :   608
 total energy-change (2. order) :-0.4995430E-04  (-0.9464449E-06)
 number of electron      17.9999993 magnetization 
 augmentation part       -3.6128104 magnetization 

 Broyden mixing:
  rms(total) = 0.62448E-03    rms(broyden)= 0.62448E-03
  rms(prec ) = 0.65558E-03
  weight for this iteration     100.00

 Free energy of the ion-electron system (eV)
  ---------------------------------------------------
  alpha Z        PSCENC =         2.37785054
  Ewald energy   TEWEN  =      -685.65393273
  -Hartree energ DENC   =       -39.34400707
  -exchange      EXHF   =         0.00000000
  -V(xc)+E(xc)   XCENC  =       -83.83241529
  PAW double counting   =      1567.81648789    -1452.46379674
  entropy T*S    EENTRO =        -0.00042715
  eigenvalues    EBANDS =        11.89569601
  atomic energy  EATOM  =       669.81430600
  Solvation  Ediel_sol  =         0.00000000
  ---------------------------------------------------
  free energy    TOTEN  =        -9.39023853 eV

  energy without entropy =       -9.38981139  energy(sigma->0) =       -9.39002496


--------------------------------------------------------------------------------------------------------




--------------------------------------- Iteration     11(   2)  ---------------------------------------


    POTLOK:  cpu time    0.0173: real time    0.0173
    SETDIJ:  cpu time    0.0025: real time    0.0025
     EDDAV:  cpu time    0.2144: real time    0.2151
       DOS:  cpu time    0.0006: real time    0.0006
    --------------------------------------------
      LOOP:  cpu time    0.2348: real time    0.2355

 eigenvalue-minimisations  :   602
 total energy-change (2. order) : 0.1194478E-06  (-0.1114840E-06)
 number of electron      17.9999993 magnetization 
 augmentation part       -3.6128104 magnetization 

 Free energy of the ion-electron system (eV)
  ---------------------------------------------------
  alpha Z        PSCENC =         2.37785054
  Ewald energy   TEWEN  =      -685.65393273
  -Hartree energ DENC   =       -39.34495270
  -exchange      EXHF   =         0.00000000
  -V(xc)+E(xc)   XCENC  =       -83.83251722
  PAW double counting   =      1567.87044746    -1452.51770558
  entropy T*S    EENTRO =        -0.00042719
  eigenvalues    EBANDS =        11.89669301
  atomic energy  EATOM  =       669.81430600
  Solvation  Ediel_sol  =         0.00000000
  ---------------------------------------------------
  free energy    TOTEN  =        -9.39023841 eV

  energy without entropy =       -9.38981122  energy(sigma->0) =       -9.39002482


--------------------------------------------------------------------------------------------------------




 average (electrostatic) potential at core
  the test charge radii are     1.1897
  (the norm of the test charge is              1.0000)
       1 -88.6563       2 -88.6563       3 -88.6563
 
 
 
 E-fermi :   6.3588     XC(G=0):  -9.2493     alpha+bet :-10.9392


 k-point     1 :       0.0000    0.0000    0.0000
  band No.  band energies     occupation 
      1      -7.3730      2.00000
      2      -4.0851      2.00000
      3      -4.0851      2.00000
      4       3.5108      2.00000
      5       3.7891      2.00000
      6       3.7891      2.00000
      7       4.7499      2.00000
      8       4.7499      2.00000
      9       5.4854      2.00000
     10       7.3646      0.00000
     11       7.3646      0.00000
     12       8.1552      0.00000
     13      11.2565      0.00000
     14      11.2565      0.00000

 k-point     2 :       0.1111    0.0000    0.0000
  band No.  band energies     occupation 
      1      -7.2788      2.00000
      2      -4.0947      2.00000
      3      -4.0515      2.00000
      4       2.7330      2.00000
      5       3.2677      2.00000
      6       3.5593      2.00000
      7       5.0869      2.00000
      8       5.3522      2.00000
      9       5.8040      2.00000
     10       7.0184      0.00000
     11       7.2752      0.00000
     12       7.9599      0.00000
     13      10.9954      0.00000
     14      11.2724      0.00000

 k-point     3 :       0.2222    0.0000    0.0000
  band No.  band energies     occupation 
      1      -7.0066      2.00000
      2      -4.1774      2.00000
      3      -3.9588      2.00000
      4       1.8096      2.00000
      5       2.5771      2.00000
      6       3.1283      2.00000
      7       5.0817      2.00000
      8       5.4868      2.00000
      9       5.6263      2.00000
     10       7.1341      0.00000
     11       7.4032      0.00000
     12       8.0300      0.00000
     13      10.2012      0.00000
     14      11.6480      0.00000

 k-point     4 :       0.3333   -0.0000    0.0000
  band No.  band energies     occupation 
      1      -6.5990      2.00000
      2      -4.4272      2.00000
      3      -3.8397      2.00000
      4       1.3625      2.00000
      5       2.0333      2.00000
      6       2.7668      2.00000
      7       3.8545      2.00000
      8       5.5552      2.00000
      9       5.6336      2.00000
     10       7.0733      0.00000
     11       7.2937      0.00000
     12       9.1223      0.00000
     13       9.5210      0.00000
     14      12.5967      0.00000

 k-point     5 :       0.4444    0.0000    0.0000
  band No.  band energies     occupation 
      1      -6.1971      2.00000
      2      -4.7676      2.00000
      3      -3.7536      2.00000
      4       1.3405      2.00000
      5       1.8177      2.00000
      6       2.5708      2.00000
      7       2.8917      2.00000
      8       5.4752      2.00000
      9       5.6360      2.00000
     10       7.0689      0.00000
     11       7.1514      0.00000
     12       9.1501      0.00000
     13       9.9269      0.00000
     14      13.8027      0.00000

 k-point     6 :       0.1111    0.1111    0.0000
  band No.  band energies     occupation 
      1      -7.0953      2.00000
      2      -4.1227      2.00000
      3      -4.0076      2.00000
      4       2.1165      2.00000
      5       2.4577      2.00000
      6       3.6275      2.00000
      7       4.7788      2.00000
      8       5.6960      2.00000
      9       5.7076      2.00000
     10       7.0558      0.00000
     11       7.3721      0.00000
     12       8.0096      0.00000
     13      10.8317      0.00000
     14      10.8714      0.00000

 k-point     7 :       0.2222    0.1111    0.0000
  band No.  band energies     occupation 
      1      -6.7523      2.00000
      2      -4.2595      2.00000
      3      -3.9429      2.00000
      4       1.5438      2.00000
      5       1.9557      2.00000
      6       3.2358      2.00000
      7       4.4704      2.00000
      8       4.8325      2.00000
      9       5.3461      2.00000
     10       7.5174      0.00000
     11       7.9507      0.00000
     12       8.4720      0.00000
     13      10.1644      0.00000
     14      11.3084      0.00000

 k-point     8 :       0.3333    0.1111    0.0000
  band No.  band energies     occupation 
      1      -6.3266      2.00000
      2      -4.5644      2.00000
      3      -3.8749      2.00000
      4       1.3825      2.00000
      5       1.7725      2.00000
      6       2.7737      2.00000
      7       3.3700      2.00000
      8       4.8030      2.00000
      9       5.0431      2.00000
     10       7.6621      0.00000
     11       7.9429      0.00000
     12       9.5006      0.00000
     13       9.7134      0.00000
     14      12.3938      0.00000

 k-point     9 :       0.4444    0.1111    0.0000
  band No.  band energies     occupation 
      1      -6.0767      2.00000
      2      -4.7844      2.00000
      3      -3.8454      2.00000
      4       1.4284      2.00000
      5       1.8194      2.00000
      6       2.6197      2.00000
      7       2.7474      2.00000
      8       4.8513      2.00000
      9       4.8840      2.00000
     10       7.6877      0.00000
     11       7.9192      0.00000
     12       9.5388      0.00000
     13       9.9712      0.00000
     14      13.5293      0.00000

 k-point    10 :       0.2222    0.2222    0.0000
  band No.  band energies     occupation 
      1      -6.3795      2.00000
      2      -4.3837      2.00000
      3      -4.0294      2.00000
      4       1.5026      2.00000
      5       1.6206      2.00000
      6       3.1466      2.00000
      7       3.9086      2.00000
      8       4.2450      2.00000
      9       4.2553      2.00000
     10       8.4539      0.00000
     11       8.6596      0.00000
     12       8.8379      0.00000
     13      10.6886      0.00000
     14      10.9938      0.00000

 k-point    11 :       0.3333    0.2222    0.0000
  band No.  band energies     occupation 
      1      -6.0302      2.00000
      2      -4.5866      2.00000
      3      -4.1079      2.00000
      4       1.6004      2.00000
      5       1.7535      2.00000
      6       2.8367      2.00000
      7       3.1132      2.00000
      8       3.8921      2.00000
      9       3.9567      2.00000
     10       8.6707      0.00000
     11       8.9355      0.00000
     12       9.6261      0.00000
     13      10.5794      0.00000
     14      12.0832      0.00000

 k-point    12 :       0.3333    0.3333    0.0000
  band No.  band energies     occupation 
      1      -5.8911      2.00000
      2      -4.4156      2.00000
      3      -4.4156      2.00000
      4       1.8104      2.00000
      5       1.8104      2.00000
      6       3.0905      2.00000
      7       3.0905      2.00000
      8       3.2697      2.00000
      9       3.3540      2.00000
     10       9.3225      0.00000
     11       9.3225      0.00000
     12       9.5826      0.00000
     13      11.4461      0.00000
     14      12.2813      0.00000

 k-point    13 :       0.0000    0.0000    0.2500
  band No.  band energies     occupation 
      1      -7.1519      2.00000
      2      -5.4472      2.00000
      3      -2.6422      2.00000
      4       2.8742      2.00000
      5       3.6150      2.00000
      6       4.0040      2.00000
      7       4.9391      2.00000
      8       5.1400      2.00000
      9       5.5288      2.00000
     10       7.0378      0.00000
     11       7.0653      0.00000
     12       7.6249      0.00000
     13      10.5232      0.00000
     14      11.8957      0.00000

 k-point    14 :       0.1111    0.0000    0.2500
  band No.  band energies     occupation 
      1      -7.0612      2.00000
      2      -5.3837      2.00000
      3      -2.7392      2.00000
      4       2.5660      2.00000
      5       3.4414      2.00000
      6       3.8743      2.00000
      7       4.5742      2.00000
      8       5.1088      2.00000
      9       5.1693      2.00000
     10       7.3569      0.00000
     11       7.4743      0.00000
     12       8.0129      0.00000
     13      10.7057      0.00000
     14      11.8492      0.00000

 k-point    15 :       0.2222    0.0000    0.2500
  band No.  band energies     occupation 
      1      -6.8044      2.00000
      2      -5.1986      2.00000
      3      -3.0718      2.00000
      4       2.1911      2.00000
      5       2.9854      2.00000
      6       3.4680      2.00000
      7       3.8756      2.00000
      8       4.5107      2.00000
      9       4.9954      2.00000
     10       7.7237      0.00000
     11       8.3613      0.00000
     12       8.7790      0.00000
     13      11.0990      0.00000
     14      11.5400      0.00000

 k-point    16 :       0.3333   -0.0000    0.2500
  band No.  band energies     occupation 
      1      -6.4316      2.00000
      2      -4.9521      2.00000
      3      -3.5771      2.00000
      4       1.8711      2.00000
      5       2.2904      2.00000
      6       3.0804      2.00000
      7       3.2969      2.00000
      8       4.5140      2.00000
      9       4.8732      2.00000
     10       7.7383      0.00000
     11       8.4433      0.00000
     12       9.5192      0.00000
     13      10.4893      0.00000
     14      11.8944      0.00000

 k-point    17 :       0.4444    0.0000    0.2500
  band No.  band energies     occupation 
      1      -6.0692      2.00000
      2      -4.8972      2.00000
      3      -3.8659      2.00000
      4       1.1823      2.00000
      5       1.9266      2.00000
      6       2.8097      2.00000
      7       3.7009      2.00000
      8       4.5691      2.00000
      9       4.8036      2.00000
     10       7.6053      0.00000
     11       8.3466      0.00000
     12       9.2010      0.00000
     13       9.9859      0.00000
     14      12.2693      0.00000

 k-point    18 :      -0.4444   -0.0000    0.2500
  band No.  band energies     occupation 
      1      -6.0197      2.00000
      2      -5.0933      2.00000
      3      -3.6281      2.00000
      4       0.8097      2.00000
      5       1.7706      2.00000
      6       2.7831      2.00000
      7       4.5310      2.00000
      8       4.7288      2.00000
      9       4.8837      2.00000
     10       7.4706      0.00000
     11       8.1216      0.00000
     12       8.4127      0.00000
     13       9.7004      0.00000
     14      12.8771      0.00000

 k-point    19 :      -0.3333    0.0000    0.2500
  band No.  band energies     occupation 
      1      -6.3890      2.00000
      2      -5.1578      2.00000
      3      -3.2437      2.00000
      4       1.0509      2.00000
      5       1.8398      2.00000
      6       2.9502      2.00000
      7       4.9361      2.00000
      8       5.0449      2.00000
      9       5.6949      2.00000
     10       7.1230      0.00000
     11       7.6077      0.00000
     12       7.9622      0.00000
     13       9.6527      0.00000
     14      13.1364      0.00000

 k-point    20 :      -0.2222   -0.0000    0.2500
  band No.  band energies     occupation 
      1      -6.7912      2.00000
      2      -5.2655      2.00000
      3      -2.9200      2.00000
      4       1.8709      2.00000
      5       2.1633      2.00000
      6       3.2747      2.00000
      7       5.2396      2.00000
      8       5.3834      2.00000
      9       5.9245      2.00000
     10       6.9020      0.00000
     11       7.4626      0.00000
     12       7.5991      0.00000
     13       9.9168      0.00000
     14      12.4450      0.00000

 k-point    21 :      -0.1111   -0.0000    0.2500
  band No.  band energies     occupation 
      1      -7.0596      2.00000
      2      -5.3919      2.00000
      3      -2.7161      2.00000
      4       2.5878      2.00000
      5       3.0541      2.00000
      6       3.7040      2.00000
      7       5.0461      2.00000
      8       5.4135      2.00000
      9       5.6483      2.00000
     10       6.9690      0.00000
     11       6.9829      0.00000
     12       7.9477      0.00000
     13      10.4059      0.00000
     14      11.7976      0.00000

 k-point    22 :       0.1111    0.1111    0.2500
  band No.  band energies     occupation 
      1      -6.8831      2.00000
      2      -5.2798      2.00000
      3      -2.9059      2.00000
      4       2.2288      2.00000
      5       2.5731      2.00000
      6       3.5311      2.00000
      7       4.4995      2.00000
      8       5.1406      2.00000
      9       5.4625      2.00000
     10       7.2678      0.00000
     11       7.8816      0.00000
     12       8.0981      0.00000
     13      10.5084      0.00000
     14      11.8626      0.00000

 k-point    23 :       0.2222    0.1111    0.2500
  band No.  band energies     occupation 
      1      -6.5628      2.00000
      2      -5.0691      2.00000
      3      -3.3308      2.00000
      4       1.8729      2.00000
      5       2.2778      2.00000
      6       3.1987      2.00000
      7       3.4808      2.00000
      8       4.5925      2.00000
      9       5.5868      2.00000
     10       7.3594      0.00000
     11       8.2553      0.00000
     12       9.2120      0.00000
     13      10.8858      0.00000
     14      11.3587      0.00000

 k-point    24 :       0.3333    0.1111    0.2500
  band No.  band energies     occupation 
      1      -6.1791      2.00000
      2      -4.8774      2.00000
      3      -3.7983      2.00000
      4       1.5235      2.00000
      5       1.7790      2.00000
      6       2.8864      2.00000
      7       3.4388      2.00000
      8       4.1437      2.00000
      9       5.6584      2.00000
     10       7.2150      0.00000
     11       8.5823      0.00000
     12       9.4436      0.00000
     13      10.3963      0.00000
     14      12.1026      0.00000

 k-point    25 :       0.4444    0.1111    0.2500
  band No.  band energies     occupation 
      1      -5.9348      2.00000
      2      -4.9765      2.00000
      3      -3.8422      2.00000
      4       0.9822      2.00000
      5       1.6467      2.00000
      6       2.8417      2.00000
      7       3.6757      2.00000
      8       4.2471      2.00000
      9       5.7168      2.00000
     10       7.1179      0.00000
     11       8.5882      0.00000
     12       8.8434      0.00000
     13      10.1259      0.00000
     14      12.7325      0.00000

 k-point    26 :      -0.4444    0.1111    0.2500
  band No.  band energies     occupation 
      1      -6.1334      2.00000
      2      -5.0814      2.00000
      3      -3.5286      2.00000
      4       0.8972      2.00000
      5       1.7735      2.00000
      6       2.8580      2.00000
      7       3.7489      2.00000
      8       5.1526      2.00000
      9       5.7803      2.00000
     10       7.0394      0.00000
     11       7.8573      0.00000
     12       8.6386      0.00000
     13      10.0412      0.00000
     14      12.8775      0.00000

 k-point    27 :      -0.3333    0.1111    0.2500
  band No.  band energies     occupation 
      1      -6.5464      2.00000
      2      -5.1508      2.00000
      3      -3.1804      2.00000
      4       1.4309      2.00000
      5       2.0299      2.00000
      6       3.0952      2.00000
      7       4.0280      2.00000
      8       5.5669      2.00000
      9       6.0752      2.00000
     10       6.7712      0.00000
     11       7.5245      0.00000
     12       8.4951      0.00000
     13      10.1354      0.00000
     14      12.1028      0.00000

 k-point    28 :       0.2222    0.2222    0.2500
  band No.  band energies     occupation 
      1      -6.2026      2.00000
      2      -4.9762      2.00000
      3      -3.6219      2.00000
      4       1.2094      2.00000
      5       1.9360      2.00000
      6       2.7767      2.00000
      7       3.2098      2.00000
      8       4.9744      2.00000
      9       5.8892      2.00000
     10       7.0764      0.00000
     11       8.0950      0.00000
     12       9.2845      0.00000
     13      10.8844      0.00000
     14      11.4252      0.00000

 k-point    29 :       0.3333    0.2222    0.2500
  band No.  band energies     occupation 
      1      -5.8890      2.00000
      2      -4.8802      2.00000
      3      -3.9634      2.00000
      4       1.1921      2.00000
      5       1.4965      2.00000
      6       2.3931      2.00000
      7       3.5034      2.00000
      8       4.4337      2.00000
      9       5.6456      2.00000
     10       7.3751      0.00000
     11       8.6914      0.00000
     12       9.1596      0.00000
     13      10.9058      0.00000
     14      12.1478      0.00000

 k-point    30 :       0.4444    0.2222    0.2500
  band No.  band energies     occupation 
      1      -5.8725      2.00000
      2      -4.9469      2.00000
      3      -3.8915      2.00000
      4       0.9998      2.00000
      5       1.5986      2.00000
      6       2.4199      2.00000
      7       3.4381      2.00000
      8       4.7750      2.00000
      9       5.4763      2.00000
     10       7.5763      0.00000
     11       8.2910      0.00000
     12       9.1312      0.00000
     13      10.8111      0.00000
     14      12.4202      0.00000

 k-point    31 :       0.3333    0.3333    0.2500
  band No.  band energies     occupation 
      1      -5.7492      2.00000
      2      -4.8776      2.00000
      3      -4.0627      2.00000
      4       1.1419      2.00000
      5       1.4980      2.00000
      6       1.9569      2.00000
      7       3.7304      2.00000
      8       4.6772      2.00000
      9       5.0526      2.00000
     10       8.0803      0.00000
     11       8.6910      0.00000
     12       8.8017      0.00000
     13      11.8384      0.00000
     14      12.1630      0.00000

 k-point    32 :       0.0000    0.0000    0.5000
  band No.  band energies     occupation 
      1      -6.4981      2.00000
      2      -6.4981      2.00000
      3      -1.8612      2.00000
      4       2.2334      2.00000
      5       3.8387      2.00000
      6       3.8387      2.00000
      7       5.1365      2.00000
      8       5.5571      2.00000
      9       5.5571      2.00000
     10       6.7905      0.00000
     11       6.9145      0.00000
     12       6.9145      0.00000
     13      10.1595      0.00000
     14      11.6581      0.00000

 k-point    33 :       0.1111    0.0000    0.5000
  band No.  band energies     occupation 
      1      -6.4242      2.00000
      2      -6.4087      2.00000
      3      -2.0437      2.00000
      4       2.2382      2.00000
      5       3.6249      2.00000
      6       3.7388      2.00000
      7       4.4985      2.00000
      8       5.0052      2.00000
      9       5.2732      2.00000
     10       7.1061      0.00000
     11       7.4303      0.00000
     12       7.8782      0.00000
     13      10.4403      0.00000
     14      11.3033      0.00000

 k-point    34 :       0.2222    0.0000    0.5000
  band No.  band energies     occupation 
      1      -6.2231      2.00000
      2      -6.1490      2.00000
      3      -2.5302      2.00000
      4       2.0092      2.00000
      5       2.8543      2.00000
      6       3.4450      2.00000
      7       4.2310      2.00000
      8       4.4742      2.00000
      9       4.9251      2.00000
     10       7.6176      0.00000
     11       8.2162      0.00000
     12       8.6023      0.00000
     13      10.6266      0.00000
     14      11.5992      0.00000

 k-point    35 :       0.3333   -0.0000    0.5000
  band No.  band energies     occupation 
      1      -5.9636      2.00000
      2      -5.7554      2.00000
      3      -3.1685      2.00000
      4       1.1774      2.00000
      5       2.6378      2.00000
      6       3.1117      2.00000
      7       4.0232      2.00000
      8       4.2304      2.00000
      9       5.1035      2.00000
     10       7.8198      0.00000
     11       8.2473      0.00000
     12       8.7806      0.00000
     13      10.6145      0.00000
     14      11.7610      0.00000

 k-point    36 :       0.4444    0.0000    0.5000
  band No.  band energies     occupation 
      1      -5.7701      2.00000
      2      -5.3601      2.00000
      3      -3.7167      2.00000
      4       0.5759      2.00000
      5       2.6816      2.00000
      6       2.8438      2.00000
      7       3.8288      2.00000
      8       4.0985      2.00000
      9       5.7740      2.00000
     10       7.0417      0.00000
     11       8.2589      0.00000
     12       8.9900      0.00000
     13      10.6931      0.00000
     14      11.3409      0.00000

 k-point    37 :       0.1111    0.1111    0.5000
  band No.  band energies     occupation 
      1      -6.2822      2.00000
      2      -6.2382      2.00000
      3      -2.3752      2.00000
      4       2.1555      2.00000
      5       3.1769      2.00000
      6       3.2966      2.00000
      7       4.1800      2.00000
      8       4.3905      2.00000
      9       5.6047      2.00000
     10       6.9786      0.00000
     11       8.3322      0.00000
     12       8.4630      0.00000
     13      10.9215      0.00000
     14      11.0040      0.00000

 k-point    38 :       0.2222    0.1111    0.5000
  band No.  band energies     occupation 
      1      -6.0381      2.00000
      2      -5.9206      2.00000
      3      -2.9254      2.00000
      4       1.6393      2.00000
      5       2.4852      2.00000
      6       2.7602      2.00000
      7       4.1579      2.00000
      8       4.5466      2.00000
      9       5.4802      2.00000
     10       7.3580      0.00000
     11       8.4756      0.00000
     12       8.6719      0.00000
     13      10.7663      0.00000
     14      11.7462      0.00000

 k-point    39 :       0.3333    0.1111    0.5000
  band No.  band energies     occupation 
      1      -5.7921      2.00000
      2      -5.5209      2.00000
      3      -3.5163      2.00000
      4       0.8796      2.00000
      5       2.2266      2.00000
      6       2.4103      2.00000
      7       4.2832      2.00000
      8       4.7443      2.00000
      9       5.5378      2.00000
     10       7.4586      0.00000
     11       7.9877      0.00000
     12       8.7216      0.00000
     13      10.7770      0.00000
     14      11.7297      0.00000

 k-point    40 :       0.4444    0.1111    0.5000
  band No.  band energies     occupation 
      1      -5.6843      2.00000
      2      -5.2836      2.00000
      3      -3.8262      2.00000
      4       0.5684      2.00000
      5       2.1719      2.00000
      6       2.2665      2.00000
      7       4.4942      2.00000
      8       4.5292      2.00000
      9       6.0553      2.00000
     10       6.8165      0.00000
     11       8.0599      0.00000
     12       8.7140      0.00000
     13      10.8894      0.00000
     14      11.3877      0.00000

 k-point    41 :       0.2222    0.2222    0.5000
  band No.  band energies     occupation 
      1      -5.7730      2.00000
      2      -5.6163      2.00000
      3      -3.4150      2.00000
      4       1.2684      2.00000
      5       1.7336      2.00000
      6       2.0955      2.00000
      7       4.6085      2.00000
      8       4.9552      2.00000
      9       5.9804      2.00000
     10       7.1015      0.00000
     11       8.2269      0.00000
     12       8.2644      0.00000
     13      11.1739      0.00000
     14      12.0254      0.00000

 k-point    42 :       0.3333    0.2222    0.5000
  band No.  band energies     occupation 
      1      -5.5634      2.00000
      2      -5.3458      2.00000
      3      -3.8073      2.00000
      4       0.8571      2.00000
      5       1.4817      2.00000
      6       1.6785      2.00000
      7       5.0320      2.00000
      8       5.4562      2.00000
      9       6.0833      2.00000
     10       6.9908      0.00000
     11       7.5974      0.00000
     12       8.0366      0.00000
     13      11.5293      0.00000
     14      12.0982      0.00000

 k-point    43 :       0.3333    0.3333    0.5000
  band No.  band energies     occupation 
      1      -5.3690      2.00000
      2      -5.3690      2.00000
      3      -3.9166      2.00000
      4       1.0786      2.00000
      5       1.1826      2.00000
      6       1.1826      2.00000
      7       5.3695      2.00000
      8       6.3155      1.77931
      9       6.3539      1.11035
     10       6.3539      1.11034
     11       7.4567      0.00000
     12       7.4567      0.00000
     13      12.4601      0.00000
     14      12.8271      0.00000


--------------------------------------------------------------------------------------------------------


 soft charge-density along one line, spin component           1
         0         1         2         3         4         5         6         7         8         9
 total charge-density along one line
 
 pseudopotential strength for first ion, spin component:           1
 51.492  56.025  -0.000  -0.000  -0.044  -0.000  -0.000  -0.064
 56.025  60.960  -0.000  -0.000  -0.048  -0.000  -0.000  -0.070
 -0.000  -0.000  12.684   0.009   0.000  18.283   0.012   0.000
 -0.000  -0.000   0.009  12.700   0.000   0.012  18.305   0.000
 -0.044  -0.048   0.000   0.000  12.698   0.000   0.000  18.304
 -0.000  -0.000  18.283   0.012   0.000  26.363   0.018   0.000
 -0.000  -0.000   0.012  18.305   0.000   0.018  26.395   0.000
 -0.064  -0.070   0.000   0.000  18.304   0.000   0.000  26.393
  0.000   0.000  -0.009   0.000  -0.000  -0.013   0.000  -0.000
  0.013   0.014   0.000  -0.000   0.000   0.000  -0.000   0.000
  0.007   0.008   0.000  -0.000   0.005   0.000  -0.000   0.008
  0.000   0.000   0.000  -0.008  -0.000   0.000  -0.012  -0.000
  0.011   0.012   0.000  -0.000  -0.009   0.000  -0.000  -0.012
 total augmentation occupancy for first ion, spin component:           1
 13.996 -10.324   0.000   0.000   1.888   0.000  -0.000  -0.484   0.000  -0.158  -0.119   0.000  -0.113
-10.324   8.889   0.000   0.000  -1.587   0.000  -0.000   0.414   0.000   0.142   0.106   0.000   0.101
  0.000   0.000   2.582   0.200   0.000  -0.519  -0.172   0.000  -0.047   0.000   0.000  -0.046   0.000
  0.000   0.000   0.200   2.949  -0.000  -0.172  -0.836   0.000  -0.044   0.000   0.000  -0.109  -0.000
  1.888  -1.587  -0.000  -0.000   2.804   0.000   0.000  -0.743   0.000  -0.050  -0.017   0.000  -0.047
  0.000   0.000  -0.519  -0.172   0.000   0.191   0.063   0.000   0.011   0.000   0.000   0.016  -0.000
 -0.000  -0.000  -0.172  -0.836   0.000   0.063   0.308  -0.000   0.016  -0.000  -0.000   0.032  -0.000
 -0.484   0.414   0.000   0.000  -0.743   0.000  -0.000   0.264   0.000   0.015   0.005   0.000   0.011
  0.000   0.000  -0.047  -0.044   0.000   0.011   0.016   0.000   0.010  -0.000  -0.000   0.011   0.000
 -0.158   0.142   0.000   0.000  -0.050   0.000   0.000   0.015  -0.000   0.016   0.004   0.000   0.005
 -0.119   0.106   0.000   0.000  -0.017   0.000  -0.000   0.005  -0.000   0.004   0.008  -0.000  -0.000
  0.000   0.000  -0.046  -0.109   0.000   0.016   0.032   0.000   0.011   0.000  -0.000   0.028   0.000
 -0.113   0.101   0.000   0.000  -0.047  -0.000   0.000   0.011   0.000   0.005  -0.000   0.000   0.010


------------------------ aborting loop because EDIFF is reached ----------------------------------------


    CHARGE:  cpu time    0.0251: real time    0.0252
    FORLOC:  cpu time    0.0010: real time    0.0010
    FORNL :  cpu time    0.0965: real time    0.0968
    STRESS:  cpu time    0.2183: real time    0.2190
    FORCOR:  cpu time    0.0173: real time    0.0174
    FORHAR:  cpu time    0.0041: real time    0.0041
    MIXING:  cpu time    0.0006: real time    0.0006
    OFIELD:  cpu time    0.0000: real time    0.0000

  Number of pair interactions contributing to vdW energy:   32022
  Edisp (eV):   -0.95619
    FORVDW:  cpu time    0.0018: real time    0.0018

  FORCE on cell =-STRESS in cart. coord.  units (eV):
  Direction    XX          YY          ZZ          XY          YZ          ZX
  --------------------------------------------------------------------------------------
  Alpha Z     2.37785     2.37785     2.37785
  Ewald    -241.58330  -241.58330  -202.48796    -0.00000    -0.00000     0.00000
  Hartree    10.03435    10.03435    19.27806     0.00000     0.00000    -0.00000
  E(xc)     -70.50808   -70.50809   -69.97971    -0.00000     0.00000    -0.00000
  Local    -107.08340  -107.08344  -145.95210    -0.00004     0.00000    -0.00000
  n-local   332.60674   333.25705   328.40987    -1.48197    -0.73773    -1.36385
  augment   -81.20689   -81.20685   -78.80304     0.00003    -0.00000    -0.00000
  Kinetic   152.71662   159.80182   148.06647    -7.69825    -0.04452     1.26696
  Fock        0.00000     0.00000     0.00000     0.00000     0.00000     0.00000
  vdW        -1.20813    -1.20813    -0.94781     0.00000    -0.00000     0.00000
  -------------------------------------------------------------------------------------
  Total       0.01351     0.01351    -0.03837     0.00000     0.00000    -0.00000
  in kB       0.22018     0.22018    -0.62540     0.00000     0.00000    -0.00000
  external pressure =       -0.06 kB  Pullay stress =        0.00 kB


 VOLUME and BASIS-vectors are now :
 -----------------------------------------------------------------------------
  energy-cutoff  :      520.00
  volume of cell :       98.30
      direct lattice vectors                 reciprocal lattice vectors
     4.332940014  0.000000000 -0.000000000     0.230790179  0.133246772  0.000000000
    -2.166470007  3.752436125  0.000000000     0.000000000  0.266493544  0.000000000
    -0.000000000 -0.000000000  6.046108917     0.000000000  0.000000000  0.165395631

  length of vectors
     4.332940014  4.332940014  6.046108917     0.266493544  0.266493544  0.165395631


 FORCES acting on ions
    electron-ion (+dipol)            ewald-force                    non-local-force                 convergence-correction
 -----------------------------------------------------------------------------------------------
   -.911E+01 0.108E-04 -.916E-06   0.136E+02 0.147E-05 0.142E-05   -.438E+01 0.126E-19 0.555E-16   0.808E-04 0.482E-08 -.129E-09
   0.455E+01 -.789E+01 -.189E-04   -.680E+01 0.118E+02 -.882E-05   0.219E+01 -.380E+01 0.000E+00   -.404E-04 0.700E-04 0.218E-09
   0.455E+01 0.789E+01 0.195E-04   -.680E+01 -.118E+02 0.740E-05   0.219E+01 0.380E+01 0.000E+00   -.404E-04 -.700E-04 -.905E-10
 -----------------------------------------------------------------------------------------------
   0.260E-04 -.814E-05 -.354E-06   -.888E-15 0.000E+00 -.113E-16   0.444E-15 -.444E-15 0.555E-16   0.493E-09 0.961E-09 -.115E-11
 
 
 POSITION                                       TOTAL-FORCE (eV/Angst)
 -----------------------------------------------------------------------------------
      1.19746      0.00000      2.01537         0.008357      0.000000     -0.000000
     -0.59873      1.03703      4.03074        -0.004178      0.007237      0.000000
      1.56774      2.71540     -0.00000        -0.004178     -0.007237      0.000000
 -----------------------------------------------------------------------------------
    total drift:                                0.000026     -0.000008     -0.000000


--------------------------------------------------------------------------------------------------------



  FREE ENERGIE OF THE ION-ELECTRON SYSTEM (eV)
  ---------------------------------------------------
  free  energy   TOTEN  =       -10.34642490 eV

  energy  without entropy=      -10.34599771  energy(sigma->0) =      -10.34621130
 
 d Force = 0.1602260E-05[ 0.155E-05, 0.166E-05]  d Energy = 0.2316379E-06 0.137E-05
 d Force = 0.2520119E-02[ 0.252E-02, 0.252E-02]  d Ewald  =-0.4249475E-02 0.677E-02


--------------------------------------------------------------------------------------------------------


    POTLOK:  cpu time    0.0191: real time    0.0192


--------------------------------------------------------------------------------------------------------




--------------------------------------------------------------------------------------------------------


    WAVPRE:  cpu time    0.1447: real time    0.2749
    FEWALD:  cpu time    0.0003: real time    0.0003
    GENKIN:  cpu time    0.0058: real time    0.0058
    ORTHCH:  cpu time    0.0187: real time    0.0188
     LOOP+:  cpu time    1.0586: real time    1.2107


--------------------------------------- Iteration     12(   1)  ---------------------------------------


    POTLOK:  cpu time    0.0169: real time    0.0216
    SETDIJ:  cpu time    0.0025: real time    0.0025
     EDDAV:  cpu time    0.3284: real time    0.3295
       DOS:  cpu time    0.0010: real time    0.0006
    CHARGE:  cpu time    0.0253: real time    0.0258
    MIXING:  cpu time    0.0005: real time    0.0005
    --------------------------------------------
      LOOP:  cpu time    0.3746: real time    0.3805

 eigenvalue-minimisations  :  1258
 total energy-change (2. order) :-0.4475004E-03  (-0.2919684E-03)
 number of electron      17.9999993 magnetization 
 augmentation part       -3.6129790 magnetization 

 Broyden mixing:
  rms(total) = 0.43835E-02    rms(broyden)= 0.43834E-02
  rms(prec ) = 0.56066E-02
  weight for this iteration     100.00

 Free energy of the ion-electron system (eV)
  ---------------------------------------------------
  alpha Z        PSCENC =         2.37819121
  Ewald energy   TEWEN  =      -685.69765465
  -Hartree energ DENC   =       -39.32412256
  -exchange      EXHF   =         0.00000000
  -V(xc)+E(xc)   XCENC  =       -83.83350856
  PAW double counting   =      1567.72075562    -1452.36806559
  entropy T*S    EENTRO =        -0.00043639
  eigenvalues    EBANDS =        11.91984890
  atomic energy  EATOM  =       669.81430600
  Solvation  Ediel_sol  =         0.00000000
  ---------------------------------------------------
  free energy    TOTEN  =        -9.39068603 eV

  energy without entropy =       -9.39024964  energy(sigma->0) =       -9.39046784


--------------------------------------------------------------------------------------------------------




--------------------------------------- Iteration     12(   2)  ---------------------------------------


    POTLOK:  cpu time    0.0169: real time    0.0170
    SETDIJ:  cpu time    0.0024: real time    0.0024
     EDDAV:  cpu time    0.3443: real time    0.3454
       DOS:  cpu time    0.0006: real time    0.0006
    CHARGE:  cpu time    0.0251: real time    0.0253
    MIXING:  cpu time    0.0007: real time    0.0006
    --------------------------------------------
      LOOP:  cpu time    0.3900: real time    0.3914

 eigenvalue-minimisations  :  1342
 total energy-change (2. order) :-0.3960747E-06  (-0.1061856E-04)
 number of electron      17.9999993 magnetization 
 augmentation part       -3.6129071 magnetization 

 Broyden mixing:
  rms(total) = 0.16251E-02    rms(broyden)= 0.16251E-02
  rms(prec ) = 0.26119E-02
  weight for this iteration     100.00

 eigenvalues of (default mixing * dielectric matrix)
  average eigenvalue GAMMA=   1.3326
  1.3326

 Free energy of the ion-electron system (eV)
  ---------------------------------------------------
  alpha Z        PSCENC =         2.37819121
  Ewald energy   TEWEN  =      -685.69765465
  -Hartree energ DENC   =       -39.32907823
  -exchange      EXHF   =         0.00000000
  -V(xc)+E(xc)   XCENC  =       -83.83302082
  PAW double counting   =      1568.15633750    -1452.80360185
  entropy T*S    EENTRO =        -0.00043822
  eigenvalues    EBANDS =        11.92427265
  atomic energy  EATOM  =       669.81430600
  Solvation  Ediel_sol  =         0.00000000
  ---------------------------------------------------
  free energy    TOTEN  =        -9.39068643 eV

  energy without entropy =       -9.39024821  energy(sigma->0) =       -9.39046732


--------------------------------------------------------------------------------------------------------




--------------------------------------- Iteration     12(   3)  ---------------------------------------


    POTLOK:  cpu time    0.0168: real time    0.0169
    SETDIJ:  cpu time    0.0024: real time    0.0024
     EDDAV:  cpu time    0.2534: real time    0.2542
       DOS:  cpu time    0.0006: real time    0.0006
    --------------------------------------------
      LOOP:  cpu time    0.2732: real time    0.2740

 eigenvalue-minimisations  :   812
 total energy-change (2. order) : 0.3235896E-05  (-0.4537835E-06)
 number of electron      17.9999993 magnetization 
 augmentation part       -3.6129071 magnetization 

 Free energy of the ion-electron system (eV)
  ---------------------------------------------------
  alpha Z        PSCENC =         2.37819121
  Ewald energy   TEWEN  =      -685.69765465
  -Hartree energ DENC   =       -39.33336844
  -exchange      EXHF   =         0.00000000
  -V(xc)+E(xc)   XCENC  =       -83.83243065
  PAW double counting   =      1568.48246524    -1453.12962467
  entropy T*S    EENTRO =        -0.00043894
  eigenvalues    EBANDS =        11.92787172
  atomic energy  EATOM  =       669.81430600
  Solvation  Ediel_sol  =         0.00000000
  ---------------------------------------------------
  free energy    TOTEN  =        -9.39068319 eV

  energy without entropy =       -9.39024425  energy(sigma->0) =       -9.39046372


--------------------------------------------------------------------------------------------------------




 average (electrostatic) potential at core
  the test charge radii are     1.1897
  (the norm of the test charge is              1.0000)
       1 -88.6539       2 -88.6539       3 -88.6539
 
 
 
 E-fermi :   6.3661     XC(G=0):  -9.2499     alpha+bet :-10.9408


 k-point     1 :       0.0000    0.0000    0.0000
  band No.  band energies     occupation 
      1      -7.3713      2.00000
      2      -4.0801      2.00000
      3      -4.0801      2.00000
      4       3.5076      2.00000
      5       3.7901      2.00000
      6       3.7901      2.00000
      7       4.7466      2.00000
      8       4.7466      2.00000
      9       5.4791      2.00000
     10       7.3684      0.00000
     11       7.3684      0.00000
     12       8.1502      0.00000
     13      11.2619      0.00000
     14      11.2619      0.00000

 k-point     2 :       0.1111    0.0000    0.0000
  band No.  band energies     occupation 
      1      -7.2771      2.00000
      2      -4.0901      2.00000
      3      -4.0469      2.00000
      4       2.7317      2.00000
      5       3.2681      2.00000
      6       3.5564      2.00000
      7       5.0861      2.00000
      8       5.3493      2.00000
      9       5.8041      2.00000
     10       7.0201      0.00000
     11       7.2783      0.00000
     12       7.9547      0.00000
     13      10.9966      0.00000
     14      11.2753      0.00000

 k-point     3 :       0.2222    0.0000    0.0000
  band No.  band energies     occupation 
      1      -7.0048      2.00000
      2      -4.1740      2.00000
      3      -3.9548      2.00000
      4       1.8099      2.00000
      5       2.5782      2.00000
      6       3.1243      2.00000
      7       5.0858      2.00000
      8       5.4882      2.00000
      9       5.6269      2.00000
     10       7.1357      0.00000
     11       7.4037      0.00000
     12       8.0271      0.00000
     13      10.1994      0.00000
     14      11.6461      0.00000

 k-point     4 :       0.3333   -0.0000    0.0000
  band No.  band energies     occupation 
      1      -6.5969      2.00000
      2      -4.4257      2.00000
      3      -3.8366      2.00000
      4       1.3652      2.00000
      5       2.0354      2.00000
      6       2.7630      2.00000
      7       3.8577      2.00000
      8       5.5603      2.00000
      9       5.6357      2.00000
     10       7.0738      0.00000
     11       7.2920      0.00000
     12       9.1269      0.00000
     13       9.5185      0.00000
     14      12.5914      0.00000

 k-point     5 :       0.4444    0.0000    0.0000
  band No.  band energies     occupation 
      1      -6.1942      2.00000
      2      -4.7681      2.00000
      3      -3.7511      2.00000
      4       1.3455      2.00000
      5       1.8205      2.00000
      6       2.5698      2.00000
      7       2.8913      2.00000
      8       5.4810      2.00000
      9       5.6396      2.00000
     10       7.0694      0.00000
     11       7.1497      0.00000
     12       9.1475      0.00000
     13       9.9355      0.00000
     14      13.8009      0.00000

 k-point     6 :       0.1111    0.1111    0.0000
  band No.  band energies     occupation 
      1      -7.0936      2.00000
      2      -4.1188      2.00000
      3      -4.0035      2.00000
      4       2.1165      2.00000
      5       2.4567      2.00000
      6       3.6266      2.00000
      7       4.7760      2.00000
      8       5.7005      2.00000
      9       5.7107      2.00000
     10       7.0553      0.00000
     11       7.3722      0.00000
     12       8.0065      0.00000
     13      10.8303      0.00000
     14      10.8700      0.00000

 k-point     7 :       0.2222    0.1111    0.0000
  band No.  band energies     occupation 
      1      -6.7504      2.00000
      2      -4.2570      2.00000
      3      -3.9399      2.00000
      4       1.5455      2.00000
      5       1.9560      2.00000
      6       3.2347      2.00000
      7       4.4732      2.00000
      8       4.8328      2.00000
      9       5.3502      2.00000
     10       7.5180      0.00000
     11       7.9520      0.00000
     12       8.4726      0.00000
     13      10.1615      0.00000
     14      11.3043      0.00000

 k-point     8 :       0.3333    0.1111    0.0000
  band No.  band energies     occupation 
      1      -6.3241      2.00000
      2      -4.5639      2.00000
      3      -3.8726      2.00000
      4       1.3865      2.00000
      5       1.7745      2.00000
      6       2.7724      2.00000
      7       3.3723      2.00000
      8       4.8048      2.00000
      9       5.0469      2.00000
     10       7.6641      0.00000
     11       7.9429      0.00000
     12       9.5064      0.00000
     13       9.7108      0.00000
     14      12.3880      0.00000

 k-point     9 :       0.4444    0.1111    0.0000
  band No.  band energies     occupation 
      1      -6.0734      2.00000
      2      -4.7853      2.00000
      3      -3.8435      2.00000
      4       1.4337      2.00000
      5       1.8225      2.00000
      6       2.6225      2.00000
      7       2.7445      2.00000
      8       4.8553      2.00000
      9       4.8863      2.00000
     10       7.6902      0.00000
     11       7.9190      0.00000
     12       9.5359      0.00000
     13       9.9796      0.00000
     14      13.5251      0.00000

 k-point    10 :       0.2222    0.2222    0.0000
  band No.  band energies     occupation 
      1      -6.3771      2.00000
      2      -4.3824      2.00000
      3      -4.0278      2.00000
      4       1.5060      2.00000
      5       1.6222      2.00000
      6       3.1479      2.00000
      7       3.9101      2.00000
      8       4.2483      2.00000
      9       4.2563      2.00000
     10       8.4572      0.00000
     11       8.6634      0.00000
     12       8.8385      0.00000
     13      10.6852      0.00000
     14      10.9885      0.00000

 k-point    11 :       0.3333    0.2222    0.0000
  band No.  band energies     occupation 
      1      -6.0270      2.00000
      2      -4.5870      2.00000
      3      -4.1072      2.00000
      4       1.6052      2.00000
      5       1.7570      2.00000
      6       2.8378      2.00000
      7       3.1149      2.00000
      8       3.8934      2.00000
      9       3.9591      2.00000
     10       8.6743      0.00000
     11       8.9374      0.00000
     12       9.6316      0.00000
     13      10.5757      0.00000
     14      12.0769      0.00000

 k-point    12 :       0.3333    0.3333    0.0000
  band No.  band energies     occupation 
      1      -5.8874      2.00000
      2      -4.4160      2.00000
      3      -4.4160      2.00000
      4       1.8155      2.00000
      5       1.8155      2.00000
      6       3.0929      2.00000
      7       3.0929      2.00000
      8       3.2702      2.00000
      9       3.3546      2.00000
     10       9.3278      0.00000
     11       9.3278      0.00000
     12       9.5847      0.00000
     13      11.4416      0.00000
     14      12.2742      0.00000

 k-point    13 :       0.0000    0.0000    0.2500
  band No.  band energies     occupation 
      1      -7.1499      2.00000
      2      -5.4432      2.00000
      3      -2.6372      2.00000
      4       2.8814      2.00000
      5       3.6116      2.00000
      6       4.0003      2.00000
      7       4.9374      2.00000
      8       5.1382      2.00000
      9       5.5241      2.00000
     10       7.0367      0.00000
     11       7.0664      0.00000
     12       7.6185      0.00000
     13      10.5266      0.00000
     14      11.8914      0.00000

 k-point    14 :       0.1111    0.0000    0.2500
  band No.  band energies     occupation 
      1      -7.0592      2.00000
      2      -5.3798      2.00000
      3      -2.7350      2.00000
      4       2.5708      2.00000
      5       3.4403      2.00000
      6       3.8726      2.00000
      7       4.5720      2.00000
      8       5.1039      2.00000
      9       5.1701      2.00000
     10       7.3544      0.00000
     11       7.4758      0.00000
     12       8.0090      0.00000
     13      10.7066      0.00000
     14      11.8488      0.00000

 k-point    15 :       0.2222    0.0000    0.2500
  band No.  band energies     occupation 
      1      -6.8024      2.00000
      2      -5.1950      2.00000
      3      -3.0696      2.00000
      4       2.1961      2.00000
      5       2.9857      2.00000
      6       3.4665      2.00000
      7       3.8751      2.00000
      8       4.5110      2.00000
      9       4.9921      2.00000
     10       7.7299      0.00000
     11       8.3603      0.00000
     12       8.7781      0.00000
     13      11.0995      0.00000
     14      11.5384      0.00000

 k-point    16 :       0.3333   -0.0000    0.2500
  band No.  band energies     occupation 
      1      -6.4295      2.00000
      2      -4.9487      2.00000
      3      -3.5771      2.00000
      4       1.8754      2.00000
      5       2.2932      2.00000
      6       3.0779      2.00000
      7       3.2980      2.00000
      8       4.5158      2.00000
      9       4.8718      2.00000
     10       7.7454      0.00000
     11       8.4444      0.00000
     12       9.5255      0.00000
     13      10.4897      0.00000
     14      11.9022      0.00000

 k-point    17 :       0.4444    0.0000    0.2500
  band No.  band energies     occupation 
      1      -6.0665      2.00000
      2      -4.8948      2.00000
      3      -3.8665      2.00000
      4       1.1841      2.00000
      5       1.9312      2.00000
      6       2.8064      2.00000
      7       3.7055      2.00000
      8       4.5709      2.00000
      9       4.8040      2.00000
     10       7.6113      0.00000
     11       8.3490      0.00000
     12       9.2108      0.00000
     13       9.9855      0.00000
     14      12.2816      0.00000

 k-point    18 :      -0.4444   -0.0000    0.2500
  band No.  band energies     occupation 
      1      -6.0166      2.00000
      2      -5.0921      2.00000
      3      -3.6276      2.00000
      4       0.8103      2.00000
      5       1.7758      2.00000
      6       2.7793      2.00000
      7       4.5369      2.00000
      8       4.7301      2.00000
      9       4.8863      2.00000
     10       7.4748      0.00000
     11       8.1258      0.00000
     12       8.4189      0.00000
     13       9.6987      0.00000
     14      12.8914      0.00000

 k-point    19 :      -0.3333    0.0000    0.2500
  band No.  band energies     occupation 
      1      -6.3866      2.00000
      2      -5.1555      2.00000
      3      -3.2422      2.00000
      4       1.0503      2.00000
      5       1.8450      2.00000
      6       2.9460      2.00000
      7       4.9378      2.00000
      8       5.0470      2.00000
      9       5.7022      2.00000
     10       7.1287      0.00000
     11       7.6084      0.00000
     12       7.9612      0.00000
     13       9.6497      0.00000
     14      13.1431      0.00000

 k-point    20 :      -0.2222   -0.0000    0.2500
  band No.  band energies     occupation 
      1      -6.7891      2.00000
      2      -5.2622      2.00000
      3      -2.9170      2.00000
      4       1.8699      2.00000
      5       2.1678      2.00000
      6       3.2702      2.00000
      7       5.2416      2.00000
      8       5.3856      2.00000
      9       5.9285      2.00000
     10       6.9048      0.00000
     11       7.4588      0.00000
     12       7.5965      0.00000
     13       9.9136      0.00000
     14      12.4500      0.00000

 k-point    21 :      -0.1111   -0.0000    0.2500
  band No.  band energies     occupation 
      1      -7.0576      2.00000
      2      -5.3880      2.00000
      3      -2.7117      2.00000
      4       2.5934      2.00000
      5       3.0518      2.00000
      6       3.7000      2.00000
      7       5.0450      2.00000
      8       5.4145      2.00000
      9       5.6479      2.00000
     10       6.9653      0.00000
     11       6.9798      0.00000
     12       7.9468      0.00000
     13      10.4053      0.00000
     14      11.7989      0.00000

 k-point    22 :       0.1111    0.1111    0.2500
  band No.  band energies     occupation 
      1      -6.8811      2.00000
      2      -5.2763      2.00000
      3      -2.9028      2.00000
      4       2.2325      2.00000
      5       2.5727      2.00000
      6       3.5285      2.00000
      7       4.5005      2.00000
      8       5.1393      2.00000
      9       5.4630      2.00000
     10       7.2712      0.00000
     11       7.8809      0.00000
     12       8.0946      0.00000
     13      10.5054      0.00000
     14      11.8659      0.00000

 k-point    23 :       0.2222    0.1111    0.2500
  band No.  band energies     occupation 
      1      -6.5607      2.00000
      2      -5.0657      2.00000
      3      -3.3299      2.00000
      4       1.8749      2.00000
      5       2.2807      2.00000
      6       3.1992      2.00000
      7       3.4805      2.00000
      8       4.5905      2.00000
      9       5.5896      2.00000
     10       7.3658      0.00000
     11       8.2543      0.00000
     12       9.2143      0.00000
     13      10.8860      0.00000
     14      11.3557      0.00000

 k-point    24 :       0.3333    0.1111    0.2500
  band No.  band energies     occupation 
      1      -6.1766      2.00000
      2      -4.8744      2.00000
      3      -3.7992      2.00000
      4       1.5256      2.00000
      5       1.7807      2.00000
      6       2.8883      2.00000
      7       3.4412      2.00000
      8       4.1427      2.00000
      9       5.6622      2.00000
     10       7.2198      0.00000
     11       8.5847      0.00000
     12       9.4516      0.00000
     13      10.3960      0.00000
     14      12.1060      0.00000

 k-point    25 :       0.4444    0.1111    0.2500
  band No.  band energies     occupation 
      1      -5.9316      2.00000
      2      -4.9750      2.00000
      3      -3.8426      2.00000
      4       0.9833      2.00000
      5       1.6494      2.00000
      6       2.8419      2.00000
      7       3.6772      2.00000
      8       4.2515      2.00000
      9       5.7210      2.00000
     10       7.1204      0.00000
     11       8.5936      0.00000
     12       8.8503      0.00000
     13      10.1248      0.00000
     14      12.7432      0.00000

 k-point    26 :      -0.4444    0.1111    0.2500
  band No.  band energies     occupation 
      1      -6.1307      2.00000
      2      -5.0797      2.00000
      3      -3.5281      2.00000
      4       0.8972      2.00000
      5       1.7779      2.00000
      6       2.8563      2.00000
      7       3.7497      2.00000
      8       5.1595      2.00000
      9       5.7841      2.00000
     10       7.0412      0.00000
     11       7.8625      0.00000
     12       8.6406      0.00000
     13      10.0390      0.00000
     14      12.8773      0.00000

 k-point    27 :      -0.3333    0.1111    0.2500
  band No.  band energies     occupation 
      1      -6.5442      2.00000
      2      -5.1479      2.00000
      3      -3.1788      2.00000
      4       1.4301      2.00000
      5       2.0350      2.00000
      6       3.0922      2.00000
      7       4.0290      2.00000
      8       5.5689      2.00000
      9       6.0814      2.00000
     10       6.7765      0.00000
     11       7.5212      0.00000
     12       8.4951      0.00000
     13      10.1319      0.00000
     14      12.1034      0.00000

 k-point    28 :       0.2222    0.2222    0.2500
  band No.  band energies     occupation 
      1      -6.2001      2.00000
      2      -4.9736      2.00000
      3      -3.6220      2.00000
      4       1.2093      2.00000
      5       1.9403      2.00000
      6       2.7762      2.00000
      7       3.2120      2.00000
      8       4.9761      2.00000
      9       5.8954      2.00000
     10       7.0827      0.00000
     11       8.0939      0.00000
     12       9.2886      0.00000
     13      10.8818      0.00000
     14      11.4233      0.00000

 k-point    29 :       0.3333    0.2222    0.2500
  band No.  band energies     occupation 
      1      -5.8858      2.00000
      2      -4.8781      2.00000
      3      -3.9648      2.00000
      4       1.1929      2.00000
      5       1.4985      2.00000
      6       2.3932      2.00000
      7       3.5094      2.00000
      8       4.4358      2.00000
      9       5.6509      2.00000
     10       7.3802      0.00000
     11       8.6948      0.00000
     12       9.1659      0.00000
     13      10.9035      0.00000
     14      12.1440      0.00000

 k-point    30 :       0.4444    0.2222    0.2500
  band No.  band energies     occupation 
      1      -5.8692      2.00000
      2      -4.9453      2.00000
      3      -3.8925      2.00000
      4       1.0004      2.00000
      5       1.6011      2.00000
      6       2.4199      2.00000
      7       3.4423      2.00000
      8       4.7806      2.00000
      9       5.4797      2.00000
     10       7.5822      0.00000
     11       8.2949      0.00000
     12       9.1353      0.00000
     13      10.8085      0.00000
     14      12.4160      0.00000

 k-point    31 :       0.3333    0.3333    0.2500
  band No.  band energies     occupation 
      1      -5.7456      2.00000
      2      -4.8758      2.00000
      3      -4.0646      2.00000
      4       1.1430      2.00000
      5       1.5004      2.00000
      6       1.9559      2.00000
      7       3.7383      2.00000
      8       4.6815      2.00000
      9       5.0552      2.00000
     10       8.0910      0.00000
     11       8.6940      0.00000
     12       8.8041      0.00000
     13      11.8348      0.00000
     14      12.1582      0.00000

 k-point    32 :       0.0000    0.0000    0.5000
  band No.  band energies     occupation 
      1      -6.4953      2.00000
      2      -6.4953      2.00000
      3      -1.8572      2.00000
      4       2.2442      2.00000
      5       3.8348      2.00000
      6       3.8348      2.00000
      7       5.1370      2.00000
      8       5.5561      2.00000
      9       5.5561      2.00000
     10       6.7881      0.00000
     11       6.9072      0.00000
     12       6.9072      0.00000
     13      10.1634      0.00000
     14      11.6519      0.00000

 k-point    33 :       0.1111    0.0000    0.5000
  band No.  band energies     occupation 
      1      -6.4214      2.00000
      2      -6.4060      2.00000
      3      -2.0405      2.00000
      4       2.2483      2.00000
      5       3.6226      2.00000
      6       3.7368      2.00000
      7       4.4966      2.00000
      8       5.0037      2.00000
      9       5.2707      2.00000
     10       7.1041      0.00000
     11       7.4249      0.00000
     12       7.8756      0.00000
     13      10.4429      0.00000
     14      11.2996      0.00000

 k-point    34 :       0.2222    0.0000    0.5000
  band No.  band energies     occupation 
      1      -6.2204      2.00000
      2      -6.1463      2.00000
      3      -2.5288      2.00000
      4       2.0146      2.00000
      5       2.8562      2.00000
      6       3.4440      2.00000
      7       4.2318      2.00000
      8       4.4727      2.00000
      9       4.9230      2.00000
     10       7.6201      0.00000
     11       8.2128      0.00000
     12       8.6052      0.00000
     13      10.6263      0.00000
     14      11.5993      0.00000

 k-point    35 :       0.3333   -0.0000    0.5000
  band No.  band energies     occupation 
      1      -5.9610      2.00000
      2      -5.7525      2.00000
      3      -3.1689      2.00000
      4       1.1783      2.00000
      5       2.6422      2.00000
      6       3.1120      2.00000
      7       4.0214      2.00000
      8       4.2297      2.00000
      9       5.1081      2.00000
     10       7.8291      0.00000
     11       8.2525      0.00000
     12       8.7806      0.00000
     13      10.6159      0.00000
     14      11.7672      0.00000

 k-point    36 :       0.4444    0.0000    0.5000
  band No.  band energies     occupation 
      1      -5.7676      2.00000
      2      -5.3566      2.00000
      3      -3.7184      2.00000
      4       0.5763      2.00000
      5       2.6849      2.00000
      6       2.8455      2.00000
      7       3.8266      2.00000
      8       4.0971      2.00000
      9       5.7832      2.00000
     10       7.0509      0.00000
     11       8.2677      0.00000
     12       8.9925      0.00000
     13      10.6975      0.00000
     14      11.3448      0.00000

 k-point    37 :       0.1111    0.1111    0.5000
  band No.  band energies     occupation 
      1      -6.2795      2.00000
      2      -6.2355      2.00000
      3      -2.3733      2.00000
      4       2.1634      2.00000
      5       3.1760      2.00000
      6       3.2960      2.00000
      7       4.1787      2.00000
      8       4.3899      2.00000
      9       5.6044      2.00000
     10       6.9748      0.00000
     11       8.3335      0.00000
     12       8.4623      0.00000
     13      10.9224      0.00000
     14      11.0021      0.00000

 k-point    38 :       0.2222    0.1111    0.5000
  band No.  band energies     occupation 
      1      -6.0354      2.00000
      2      -5.9179      2.00000
      3      -2.9252      2.00000
      4       1.6417      2.00000
      5       2.4865      2.00000
      6       2.7597      2.00000
      7       4.1587      2.00000
      8       4.5513      2.00000
      9       5.4795      2.00000
     10       7.3588      0.00000
     11       8.4808      0.00000
     12       8.6749      0.00000
     13      10.7668      0.00000
     14      11.7465      0.00000

 k-point    39 :       0.3333    0.1111    0.5000
  band No.  band energies     occupation 
      1      -5.7895      2.00000
      2      -5.5178      2.00000
      3      -3.5175      2.00000
      4       0.8801      2.00000
      5       2.2275      2.00000
      6       2.4106      2.00000
      7       4.2847      2.00000
      8       4.7480      2.00000
      9       5.5425      2.00000
     10       7.4681      0.00000
     11       7.9924      0.00000
     12       8.7243      0.00000
     13      10.7797      0.00000
     14      11.7349      0.00000

 k-point    40 :       0.4444    0.1111    0.5000
  band No.  band energies     occupation 
      1      -5.6818      2.00000
      2      -5.2799      2.00000
      3      -3.8283      2.00000
      4       0.5688      2.00000
      5       2.1718      2.00000
      6       2.2676      2.00000
      7       4.4951      2.00000
      8       4.5318      2.00000
      9       6.0649      2.00000
     10       6.8244      0.00000
     11       8.0685      0.00000
     12       8.7157      0.00000
     13      10.8944      0.00000
     14      11.3910      0.00000

 k-point    41 :       0.2222    0.2222    0.5000
  band No.  band energies     occupation 
      1      -5.7703      2.00000
      2      -5.6135      2.00000
      3      -3.4160      2.00000
      4       1.2700      2.00000
      5       1.7322      2.00000
      6       2.0955      2.00000
      7       4.6142      2.00000
      8       4.9619      2.00000
      9       5.9819      2.00000
     10       7.1042      0.00000
     11       8.2334      0.00000
     12       8.2685      0.00000
     13      11.1737      0.00000
     14      12.0257      0.00000

 k-point    42 :       0.3333    0.2222    0.5000
  band No.  band energies     occupation 
      1      -5.5606      2.00000
      2      -5.3425      2.00000
      3      -3.8093      2.00000
      4       0.8576      2.00000
      5       1.4810      2.00000
      6       1.6784      2.00000
      7       5.0394      2.00000
      8       5.4631      2.00000
      9       6.0880      2.00000
     10       6.9998      0.00000
     11       7.6019      0.00000
     12       8.0384      0.00000
     13      11.5305      0.00000
     14      12.1009      0.00000

 k-point    43 :       0.3333    0.3333    0.5000
  band No.  band energies     occupation 
      1      -5.3658      2.00000
      2      -5.3658      2.00000
      3      -3.9191      2.00000
      4       1.0800      2.00000
      5       1.1815      2.00000
      6       1.1815      2.00000
      7       5.3800      2.00000
      8       6.3275      1.72552
      9       6.3600      1.13724
     10       6.3600      1.13723
     11       7.4579      0.00000
     12       7.4579      0.00000
     13      12.4589      0.00000
     14      12.8265      0.00000


--------------------------------------------------------------------------------------------------------


 soft charge-density along one line, spin component           1
         0         1         2         3         4         5         6         7         8         9
 total charge-density along one line
 
 pseudopotential strength for first ion, spin component:           1
 51.491  56.024  -0.000  -0.000  -0.044  -0.000  -0.000  -0.064
 56.024  60.959  -0.000  -0.000  -0.048  -0.000  -0.000  -0.070
 -0.000  -0.000  12.684   0.009   0.000  18.283   0.012   0.000
 -0.000  -0.000   0.009  12.700   0.000   0.012  18.305   0.000
 -0.044  -0.048   0.000   0.000  12.698   0.000   0.000  18.303
 -0.000  -0.000  18.283   0.012   0.000  26.363   0.018   0.000
 -0.000  -0.000   0.012  18.305   0.000   0.018  26.395   0.000
 -0.064  -0.070   0.000   0.000  18.303   0.000   0.000  26.392
  0.000   0.000  -0.009   0.000  -0.000  -0.013   0.000  -0.000
  0.013   0.014   0.000  -0.000   0.000   0.000  -0.000   0.000
  0.007   0.008   0.000  -0.000   0.005   0.000  -0.000   0.008
  0.000   0.000   0.000  -0.008  -0.000   0.000  -0.012  -0.000
  0.011   0.012   0.000  -0.000  -0.009   0.000  -0.000  -0.012
 total augmentation occupancy for first ion, spin component:           1
 14.012 -10.336   0.000  -0.000   1.884   0.000   0.000  -0.482  -0.000  -0.158  -0.118   0.000  -0.113
-10.336   8.899   0.000   0.000  -1.582   0.000  -0.000   0.412   0.000   0.142   0.105   0.000   0.101
  0.000   0.000   2.584   0.199   0.000  -0.521  -0.171   0.000  -0.047   0.000   0.000  -0.046   0.000
 -0.000   0.000   0.199   2.945  -0.000  -0.171  -0.834   0.000  -0.044   0.000   0.000  -0.109   0.000
  1.884  -1.582  -0.000  -0.000   2.805   0.000   0.000  -0.743   0.000  -0.050  -0.017   0.000  -0.047
 -0.000   0.000  -0.521  -0.171   0.000   0.192   0.063   0.000   0.011   0.000   0.000   0.016  -0.000
  0.000  -0.000  -0.171  -0.834   0.000   0.063   0.308  -0.000   0.016   0.000  -0.000   0.032  -0.000
 -0.482   0.412   0.000   0.000  -0.743   0.000  -0.000   0.264   0.000   0.015   0.004   0.000   0.011
 -0.000   0.000  -0.047  -0.044   0.000   0.011   0.016   0.000   0.010  -0.000  -0.000   0.011   0.000
 -0.158   0.142   0.000   0.000  -0.050   0.000   0.000   0.015  -0.000   0.016   0.004  -0.000   0.005
 -0.118   0.105   0.000   0.000  -0.017  -0.000   0.000   0.004  -0.000   0.004   0.008  -0.000  -0.000
  0.000   0.000  -0.046  -0.109   0.000   0.016   0.032  -0.000   0.011   0.000  -0.000   0.028  -0.000
 -0.113   0.101   0.000   0.000  -0.047  -0.000  -0.000   0.011   0.000   0.005  -0.000  -0.000   0.010


------------------------ aborting loop because EDIFF is reached ----------------------------------------


    CHARGE:  cpu time    0.0247: real time    0.0248
    FORLOC:  cpu time    0.0009: real time    0.0010
    FORNL :  cpu time    0.0957: real time    0.0959
    STRESS:  cpu time    0.2172: real time    0.2179
    FORCOR:  cpu time    0.0175: real time    0.0175
    FORHAR:  cpu time    0.0038: real time    0.0038
    MIXING:  cpu time    0.0006: real time    0.0006
    OFIELD:  cpu time    0.0000: real time    0.0000

  Number of pair interactions contributing to vdW energy:   32022
  Edisp (eV):   -0.95580
    FORVDW:  cpu time    0.0018: real time    0.0018

  FORCE on cell =-STRESS in cart. coord.  units (eV):
  Direction    XX          YY          ZZ          XY          YZ          ZX
  --------------------------------------------------------------------------------------
  Alpha Z     2.37819     2.37819     2.37819
  Ewald    -241.48426  -241.48425  -202.72979    -0.00000    -0.00000     0.00000
  Hartree    10.05554    10.05554    19.22616     0.00000     0.00000    -0.00000
  E(xc)     -70.50643   -70.50643   -69.98460    -0.00000     0.00000    -0.00000
  Local    -107.17205  -107.17209  -145.71647    -0.00004     0.00000    -0.00000
  n-local   332.58537   333.24450   328.43516    -1.47683    -0.73480    -1.35715
  augment   -81.20065   -81.20061   -78.81575     0.00003    -0.00000     0.00000
  Kinetic   152.67865   159.78012   148.13204    -7.71240    -0.03640     1.28775
  Fock        0.00000     0.00000     0.00000     0.00000     0.00000     0.00000
  vdW        -1.20929    -1.20929    -0.95147     0.00000    -0.00000     0.00000
  -------------------------------------------------------------------------------------
  Total       0.00538     0.00538    -0.02652     0.00000    -0.00000     0.00000
  in kB       0.08775     0.08775    -0.43236     0.00000    -0.00000     0.00000
  external pressure =       -0.09 kB  Pullay stress =        0.00 kB


 VOLUME and BASIS-vectors are now :
 -----------------------------------------------------------------------------
  energy-cutoff  :      520.00
  volume of cell :       98.29
      direct lattice vectors                 reciprocal lattice vectors
     4.334671922 -0.000000000 -0.000000000     0.230697967  0.133193533  0.000000000
    -2.167335961  3.753936001  0.000000000    -0.000000000  0.266387067 -0.000000000
    -0.000000000  0.000000000  6.040413083     0.000000000  0.000000000  0.165551592

  length of vectors
     4.334671922  4.334671922  6.040413083     0.266387067  0.266387067  0.165551592


 FORCES acting on ions
    electron-ion (+dipol)            ewald-force                    non-local-force                 convergence-correction
 -----------------------------------------------------------------------------------------------
   -.909E+01 0.108E-04 -.912E-06   0.136E+02 0.147E-05 0.142E-05   -.438E+01 0.277E-16 0.000E+00   0.168E-02 0.218E-07 -.667E-09
   0.455E+01 -.787E+01 -.189E-04   -.678E+01 0.117E+02 -.879E-05   0.219E+01 -.379E+01 0.555E-16   -.839E-03 0.145E-02 0.781E-09
   0.455E+01 0.787E+01 0.195E-04   -.678E+01 -.117E+02 0.737E-05   0.219E+01 0.379E+01 0.000E+00   -.840E-03 -.145E-02 -.157E-09
 -----------------------------------------------------------------------------------------------
   0.259E-04 -.819E-05 -.353E-06   0.000E+00 0.000E+00 -.113E-16   0.000E+00 0.000E+00 0.555E-16   0.520E-08 0.973E-08 -.421E-10
 
 
 POSITION                                       TOTAL-FORCE (eV/Angst)
 -----------------------------------------------------------------------------------
      1.19906      0.00000      2.01347         0.005370     -0.000000     -0.000000
     -0.59953      1.03842      4.02694        -0.002685      0.004651      0.000000
      1.56780      2.71552     -0.00000        -0.002685     -0.004651      0.000000
 -----------------------------------------------------------------------------------
    total drift:                                0.000026     -0.000008     -0.000000


--------------------------------------------------------------------------------------------------------



  FREE ENERGIE OF THE ION-ELECTRON SYSTEM (eV)
  ---------------------------------------------------
  free  energy   TOTEN  =       -10.34648276 eV

  energy  without entropy=      -10.34604382  energy(sigma->0) =      -10.34626329
 
 d Force = 0.2315663E-04[ 0.181E-04, 0.282E-04]  d Energy = 0.5786298E-04-0.347E-04
 d Force = 0.4581718E-01[ 0.458E-01, 0.459E-01]  d Ewald  = 0.4372192E-01 0.210E-02


--------------------------------------------------------------------------------------------------------


    POTLOK:  cpu time    0.0193: real time    0.0193


--------------------------------------------------------------------------------------------------------


 Conjugate gradient step on ions:
 trial-energy change:   -0.000058  1 .order   -0.000061   -0.000075   -0.000047
  (g-gl).g = 0.442E-04      g.g   = 0.397E-04  gl.gl    = 0.132E-02
 g(Force)  = 0.101E-04   g(Stress)= 0.295E-04 ortho     = 0.617E-05
 gamma     =   0.03339
 trial     =   1.88487
 opt step  =   5.10694  (harmonic =   5.10694) maximal distance =0.00304591
 next E    =   -10.346527   (d E  =  -0.00010)


--------------------------------------------------------------------------------------------------------


  
 reached required accuracy - stopping structural energy minimisation
 writing wavefunctions
     LOOP+:  cpu time    1.5074: real time    1.7309
    4ORBIT:  cpu time    0.0000: real time    0.0000

 total amount of memory used by VASP MPI-rank0    48763. kBytes
=======================================================================

   base      :      30000. kBytes
   nonl-proj :       6255. kBytes
   fftplans  :       2372. kBytes
   grid      :       3330. kBytes
   one-center:         16. kBytes
   wavefun   :       6790. kBytes
 
  
  
 General timing and accounting informations for this job:
 ========================================================
  
                  Total CPU time used (sec):       31.384
                            User time (sec):       30.232
                          System time (sec):        1.152
                         Elapsed time (sec):       33.003
  
                   Maximum memory used (kb):       76224.
                   Average memory used (kb):           0.
  
                          Minor page faults:        43147
                          Major page faults:           18
                 Voluntary context switches:         1304
