Phosphorus - aP42                       
   1.00000000000000     
    12.2106976857737859    0.0075840702320909    0.0536658138444752
    -1.7814060758762875   12.9291103909438778    0.0271738581716013
    -1.9648226819850592   -3.5219783367626869    5.7469295270728269
   P 
    42
Direct
  0.1487447227337282  0.3267697383473213  0.7370108161864417
  0.8512552922662695  0.6732302616526784  0.2629891538135556
  0.2748307795694976  0.4728865645222253  0.7521779698866621
  0.7251691904305070  0.5271134054777723  0.2478220001133354
  0.1506816322651852  0.5818429777198435  0.7393450670714553
  0.8493183377348120  0.4181570222801566  0.2606549329285445
  0.2792577437043930  0.7235095331259602  0.7523731764097802
  0.7207422262956121  0.2764904668740396  0.2476267935902172
  0.1677336479030680  0.8401879720488773  0.7311769258930008
  0.8322663380969304  0.1598119989511241  0.2688231041070018
  0.2981494899618390  0.9722182810975680  0.7240773246200785
  0.7018504810381616  0.0277817149024311  0.2759227043799201
  0.1637293278579905  0.0692350253724999  0.7310462603388669
  0.8362706571420118  0.9307649966274949  0.2689537396611333
  0.2762678974270161  0.2232824898997692  0.7498762051816221
  0.7237321025729839  0.7767174951002325  0.2501237948183778
  0.3504496540158525  0.4908593488807765  0.2964778003542810
  0.6495503159841449  0.5091406511192239  0.7035221696457240
  0.4095922857673536  0.5812670532797208  0.1241440118984953
  0.5904077142326468  0.4187329467202790  0.8758559961015053
  0.3520100968617605  0.7423866187014442  0.2980160618717702
  0.6479899331382420  0.2576133812985560  0.7019839381282296
  0.4147203284579100  0.8302405228128747  0.1254203979906477
  0.5852796715420905  0.1697594771871254  0.8745796170093567
  0.3734333117259055  0.0024810653630195  0.2806271239803559
  0.6265666582740919 -0.0024810833630210  0.7193728460196416
  0.4373276393486162  0.0824427045289470  0.0972461718505437
  0.5626723306513883  0.9175573174710551  0.9027538061494611
  0.3680800720033744  0.2312243850640827  0.2826292961321035
  0.6319199579966210  0.7687755849359220  0.7173707338678992
  0.4120883221552918  0.3342284940104197  0.1245834837311221
  0.5879117078447034  0.6657715059895798  0.8754165462688802
  0.1561868065491435  0.3983631862399489  0.0947468082438462
  0.8438132084508613  0.6016368137600511  0.9052532057561549
  0.1580139763130942  0.6875680431064640  0.0969468680631181
  0.8419860386869105  0.3124319568935359  0.9030531389368789
  0.1753246257697691  0.9551467343500757  0.0935955076740727
  0.8246753742302309  0.0448532616499236  0.9064045073259247
  0.1711974815814488  0.1319269961356873  0.0936400956858414
  0.8288025334185561  0.8680730188643175  0.9063599193141562
  0.0791361434049780  0.5518207904074292  0.1712947493692557
  0.9208638565950223  0.4481792095925641  0.8287052656307415
 
  0.00000000E+00  0.00000000E+00  0.00000000E+00
  0.00000000E+00  0.00000000E+00  0.00000000E+00
  0.00000000E+00  0.00000000E+00  0.00000000E+00
  0.00000000E+00  0.00000000E+00  0.00000000E+00
  0.00000000E+00  0.00000000E+00  0.00000000E+00
  0.00000000E+00  0.00000000E+00  0.00000000E+00
  0.00000000E+00  0.00000000E+00  0.00000000E+00
  0.00000000E+00  0.00000000E+00  0.00000000E+00
  0.00000000E+00  0.00000000E+00  0.00000000E+00
  0.00000000E+00  0.00000000E+00  0.00000000E+00
  0.00000000E+00  0.00000000E+00  0.00000000E+00
  0.00000000E+00  0.00000000E+00  0.00000000E+00
  0.00000000E+00  0.00000000E+00  0.00000000E+00
  0.00000000E+00  0.00000000E+00  0.00000000E+00
  0.00000000E+00  0.00000000E+00  0.00000000E+00
  0.00000000E+00  0.00000000E+00  0.00000000E+00
  0.00000000E+00  0.00000000E+00  0.00000000E+00
  0.00000000E+00  0.00000000E+00  0.00000000E+00
  0.00000000E+00  0.00000000E+00  0.00000000E+00
  0.00000000E+00  0.00000000E+00  0.00000000E+00
  0.00000000E+00  0.00000000E+00  0.00000000E+00
  0.00000000E+00  0.00000000E+00  0.00000000E+00
  0.00000000E+00  0.00000000E+00  0.00000000E+00
  0.00000000E+00  0.00000000E+00  0.00000000E+00
  0.00000000E+00  0.00000000E+00  0.00000000E+00
  0.00000000E+00  0.00000000E+00  0.00000000E+00
  0.00000000E+00  0.00000000E+00  0.00000000E+00
  0.00000000E+00  0.00000000E+00  0.00000000E+00
  0.00000000E+00  0.00000000E+00  0.00000000E+00
  0.00000000E+00  0.00000000E+00  0.00000000E+00
  0.00000000E+00  0.00000000E+00  0.00000000E+00
  0.00000000E+00  0.00000000E+00  0.00000000E+00
  0.00000000E+00  0.00000000E+00  0.00000000E+00
  0.00000000E+00  0.00000000E+00  0.00000000E+00
  0.00000000E+00  0.00000000E+00  0.00000000E+00
  0.00000000E+00  0.00000000E+00  0.00000000E+00
  0.00000000E+00  0.00000000E+00  0.00000000E+00
  0.00000000E+00  0.00000000E+00  0.00000000E+00
  0.00000000E+00  0.00000000E+00  0.00000000E+00
  0.00000000E+00  0.00000000E+00  0.00000000E+00
  0.00000000E+00  0.00000000E+00  0.00000000E+00
  0.00000000E+00  0.00000000E+00  0.00000000E+00
