Phosphorus                              
   1.00000000000000     
    12.9825496674000007    0.0000000000000000    0.0000000000000000
     0.0848524310000000   12.9822723716000006    0.0000000000000000
    -8.8922368229999993   -8.8343068928000008   43.4272174445999966
   P    Te
   168    12
Selective dynamics
Direct
  0.5777850150878763  0.9305449721212682  0.0165199991207174   F   F   F
  0.0777850151013695  0.4305449724139763  0.0165199991207174   F   F   F
  0.3279800415280647  0.9224300382096331  0.0220999997115712   F   F   F
  0.8279800411668958  0.4224300086154287  0.0220999997115712   F   F   F
  0.8288949726919697  0.9197050333007581  0.0223200004521686   F   F   F
  0.3288949727845036  0.4197050332853536  0.0223200004521686   F   F   F
  0.5789450407300549  0.4201349913779637  0.0224849991424279   F   F   F
  0.0789450407050794  0.9201350211262280  0.0224849991424279   F   F   F
  0.4711499214064858  0.8339999918017540  0.0330849997661673   F   F   F
  0.9711499809351594  0.3339999914012068  0.0330849997661673   F   F   F
  0.7041900157816130  0.8315500616125533  0.0342100001892902   F   F   F
  0.2041900158006484  0.3315500021314364  0.0342100001892902   F   F   F
  0.2159349918149758  0.8252649904052163  0.0362249985278638   F   F   F
  0.7159349918001752  0.3252649903127818  0.0362249985278638   F   F   F
  0.4636250138396960  0.3248450159991307  0.0367299988776608   F   F   F
  0.9636250139012219  0.8248450160145353  0.0367299988776608   F   F   F
  0.5999749898629290  0.0846550166983633  0.0520099997629657   F   F   F
  0.0999749899149833  0.5846550464466205  0.0520099997629657   F   F   F
  0.8525500301761255  0.0715599954113486  0.0581699982326214   F   F   F
  0.3525500297655171  0.5715600252366357  0.0581699982326214   F   F   F
  0.3508249521494875  0.0734150111823766  0.0583599992155399   F   F   F
  0.8508249524783338  0.5734150410076637  0.0583599992155399   F   F   F
  0.1032450198931585  0.0706249996715727  0.0584749989160471   F   F   F
  0.6032450199058488  0.5706250071587036  0.0584749989160471   F   F   F
  0.5321850180391507  0.8863750102488339  0.0836599990693543   F   F   F
  0.0321850180561682  0.3863750100023395  0.0836599990693543   F   F   F
  0.7099500298223873  0.8861100671219191  0.0847000032569980   F   F   F
  0.2099500298404138  0.3861100077948620  0.0847000032569980   F   F   F
  0.2675250172458945  0.8784750100899501  0.0860949978148966   F   F   F
  0.7675250172285786  0.3784750103826582  0.0860949978148966   F   F   F
  0.5076650380971302  0.0583449900260007  0.0861200019727519   F   F   F
  0.0076650380761905  0.5583449602315227  0.0861200019727519   F   F   F
  0.4804649949198136  0.3799149989968953  0.0867850035477815   F   F   F
  0.9804649952103972  0.8799149993204125  0.0867850035477815   F   F   F
  0.7366750240480329  0.0579549967944502  0.0869000032482887   F   F   F
  0.2366750240225528  0.5579550266197373  0.0869000032482887   F   F   F
  0.4989149570447609  0.5512250066111406  0.0901750028077615   F   F   F
  0.9989149571064857  0.0512250065957360  0.0901750028077615   F   F   F
  0.2510800361872043  0.0498099997395869  0.0907350033427008   F   F   F
  0.7510799765250198  0.5498099922832651  0.0907350033427008   F   F   F
  0.6343899965026623  0.3114299774076343  0.1003000065697677   F   F   F
  0.1343899965179673  0.8114299774230389  0.1003000065697677   F   F   F
  0.1885700226011764  0.8656100034749130  0.1497000008875418   F   F   F
  0.6885700225858713  0.3656100034595084  0.1497000008875418   F   F   F
  0.4501900077012735  0.2489200234151738  0.1592649966538460   F   F   F
  0.9501900076812291  0.7489200830503435  0.1592649966538460   F   F   F
  0.9487749336397542  0.0010850140024345  0.1598249971887853   F   F   F
  0.4487749338508920  0.5010850429804137  0.1598249971887853   F   F   F
  0.4420449733853076  0.7633249759783496  0.1631000041859849   F   F   F
  0.9420449736010852  0.2633249759629450  0.1631000041859849   F   F   F
  0.1200850009614172  0.0195349994882577  0.1632149964487652   F   F   F
  0.6200850009866841  0.5195350050496899  0.1632149964487652   F   F   F
  0.4416550397915344  0.9923349619908421  0.1638799905860608   F   F   F
  0.9416550401618622  0.4923349618984076  0.1638799905860608   F   F   F
  0.6215249896065842  0.2324749827487338  0.1639049947208875   F   F   F
  0.1215249896218893  0.7324749827641384  0.1639049947208875   F   F   F
  0.6138899922165422  0.7900499701433930  0.1652999967395488   F   F   F
  0.1138899922320462  0.2900499701279884  0.1652999967395488   F   F   F
  0.6136249900178186  0.9678149819375790  0.1663399934664298   F   F   F
  0.1136249899562998  0.4678149819221744  0.1663399934664298   F   F   F
  0.4293750524476607  0.3967550098640160  0.1915250122486114   F   F   F
  0.9293750526994771  0.8967550396893031  0.1915250122486114   F   F   F
  0.4265849590280339  0.1491750180829428  0.1916400045113846   F   F   F
  0.9265850185132081  0.6491750479082299  0.1916400045113846   F   F   F
  0.4284399747628100  0.6474499702476635  0.1918300092246881   F   F   F
  0.9284400346741037  0.1474499702322589  0.1918300092246881   F   F   F
  0.4153450131861334  0.9000250101463863  0.1979900002566026   F   F   F
  0.9153450724812089  0.4000250101309746  0.1979900002566026   F   F   F
  0.1751549839709696  0.0363749973413334  0.2132699936581304   F   F   F
  0.6751549840284596  0.5363749861876599  0.2132699936581304   F   F   F
  0.6747350096576312  0.2840650081860119  0.2137750238279281   F   F   F
  0.1747350096729363  0.7840650082014164  0.2137750238279281   F   F   F
  0.6684499978854319  0.7958099841789590  0.2157900035376343   F   F   F
  0.1684499979004315  0.2958099842405773  0.2157900035376343   F   F   F
  0.6660000085716788  0.0288500171151185  0.2169149816015050   F   F   F
  0.1660000085749047  0.5288500189791989  0.2169149816015050   F   F   F
  0.0798649787857499  0.9210550188781710  0.2275149971237340   F   F   F
  0.5798649787704448  0.4210550188627664  0.2275149971237340   F   F   F
  0.5802949666847610  0.6711050272132226  0.2276799827806926   F   F   F
  0.0802949667002650  0.1711050271978181  0.2276799827806926   F   F   F
  0.5775699615284395  0.1720200031708004  0.2279000133182763   F   F   F
  0.0775699615276366  0.6720199585098996  0.2279000133182763   F   F   F
  0.5694550276295445  0.9222150444703487  0.2334800064713960   F   F   F
  0.0694550275720545  0.4222149849122090  0.2334800064713960   F   F   F
  0.9366611958179707  0.5780077857068903  0.2678204727508664   T   T   T
  0.4370320626977850  0.0780405995086685  0.2677588790223918   T   T   T
  0.9253938916054775  0.3277966219052673  0.2739784255758144   T   T   T
  0.4255333054517998  0.8277897963586087  0.2739772816280932   T   T   T
  0.9222986578202550  0.8308224709348749  0.2743038587518078   T   T   T
  0.4224632320834438  0.3309148395667798  0.2742333499840290   T   T   T
  0.4220351303131268  0.5805682992112071  0.2748810478198916   T   T   T
  0.9219428638599630  0.0804368223230459  0.2749027592165548   T   T   T
  0.8379708025522780  0.4720514643374041  0.2842410140269401   T   T   T
  0.3381026937381827  0.9721025178127197  0.2841136688409009   T   T   T
  0.8354549624123133  0.7034462552841813  0.2854511002103618   T   T   T
  0.3355923521025986  0.2034156591060363  0.2853051895961598   T   T   T
  0.8271960952523256  0.2178745428568216  0.2886853495701138   T   T   T
  0.3271425219885534  0.7179148274640209  0.2886403069658953   T   T   T
  0.3268074988416653  0.4642602168606474  0.2890128514257939   T   T   T
  0.8267753949222285  0.9642456348529180  0.2891028197774638   T   T   T
  0.0899540666287914  0.6009689044381711  0.3039292635655178   T   T   T
  0.5901036524054907  0.1010683921756854  0.3039565655854159   T   T   T
  0.0747447588481329  0.8549758847700571  0.3106217446261756   T   T   T
  0.5747638919849936  0.3550684016369209  0.3106054599987723   T   T   T
  0.0766942294587575  0.3518546313930463  0.3107047496493982   T   T   T
  0.5766367744697048  0.8519695397286249  0.3107791466806835   T   T   T
  0.0734398313270811  0.1049765882149752  0.3112917632663375   T   T   T
  0.5734122686520670  0.6051457240488816  0.3113193639439047   T   T   T
  0.8886893191578213  0.5326698606103200  0.3351973610432029   T   T   T
  0.3884182848256399  0.0327738231232315  0.3350722637338902   T   T   T
  0.8880333838560476  0.7103316567593184  0.3361242152285941   T   T   T
  0.3878036941979022  0.2103996539845522  0.3359888093330565   T   T   T
  0.8800735192702992  0.2693263137649659  0.3389665865093701   T   T   T
  0.3797999575785366  0.7693211735344931  0.3389273144632130   T   T   T
  0.0617395903361372  0.5091385800239352  0.3380678405211318   T   T   T
  0.5615153629959491  0.0093188902220110  0.3380790514352204   T   T   T
  0.3803580862520781  0.4814708985882851  0.3393391166079353   T   T   T
  0.8805313836635859  0.9815105180940011  0.3394286626222807   T   T   T
  0.0611525750040776  0.7373961180611822  0.3388620510124999   T   T   T
  0.5609935901117560  0.2375086628219762  0.3388366007459827   T   T   T
  0.5527890869501905  0.5001369147866604  0.3429446316021990   T   T   T
  0.0529245895327763  0.0000931816720395  0.3429649352380725   T   T   T
  0.0523286648263307  0.2531056922708497  0.3434146093557261   T   T   T
  0.5520804580579125  0.7531793854077301  0.3434588535093370   T   T   T
  0.3116944303018871  0.6356039488947565  0.3528981174149996   T   T   T
  0.8119283177949927  0.1357234758194985  0.3529867725963759   T   T   T
  0.8663205236236284  0.1897480692855766  0.4025099351472526   T   T   T
  0.3665076347775060  0.6895678772415429  0.4024155238815119   T   T   T
  0.2509153620556316  0.4539656956387236  0.4150056114045863   T   T   T
  0.7508634178005728  0.9540974572208535  0.4150886038650765   T   T   T
  0.0023405542179723  0.9489423819497297  0.4155912459506556   T   T   T
  0.5022671358806930  0.4484812722833525  0.4154650064782445   T   T   T
  0.7668238319312638  0.4434409966490229  0.4200794962823579   T   T   T
  0.2666875487138788  0.9438206237706204  0.4201347802301469   T   T   T
  0.0196351008111975  0.1197186516078128  0.4156541066480264   T   T   T
  0.5197208943515382  0.6192300851981654  0.4154643464396694   T   T   T
  0.9933959165968036  0.4409512524300604  0.4204375176347573   T   T   T
  0.4932882521407360  0.9412482899328364  0.4204505361045380   T   T   T
  0.2339970390242057  0.6250946495846510  0.4177798330874335   T   T   T
  0.7338205602720140  0.1252094896502376  0.4178653655858673   T   T   T
  0.7891734091024700  0.6144431284952829  0.4204717650648402   T   T   T
  0.2891577184298318  0.1148743032283019  0.4205709417358175   T   T   T
  0.9646519681141280  0.6116536794375481  0.4186217151607279   T   T   T
  0.4646916903672728  0.1120245809331176  0.4187742612087425   T   T   T
  0.3981008834643078  0.4357523733752143  0.4480152457391284   T   T   T
  0.8980803459513573  0.9359722194260505  0.4480981316768466   T   T   T
  0.1521350356815703  0.4345490058767037  0.4481818685018293   T   T   T
  0.6519552901912459  0.9346126046805442  0.4482218565523924   T   T   T
  0.6486209528487124  0.4335174636361608  0.4483676528600200   T   T   T
  0.1486858856526234  0.9338859984125728  0.4484844516992122   T   T   T
  0.9040186543213298  0.4211857452421364  0.4559099263185758   T   T   T
  0.4038846760418459  0.9212748890451885  0.4559024192689442   T   T   T
  0.0363165315047841  0.1814764019628782  0.4654185068479582   T   T   T
  0.5364188788706163  0.6812457392717365  0.4652083067146740   T   T   T
  0.2859415652892172  0.6842288580058521  0.4678793991425927   T   T   T
  0.7857747338200307  0.1842803765219527  0.4679749622226116   T   T   T
  0.7999189144088954  0.6749627755882253  0.4713139404959628   T   T   T
  0.2999277712225460  0.1751991920357171  0.4714240138480862   T   T   T
  0.0263906284530681  0.6728029749415554  0.4687453423584267   T   T   T
  0.5263879048312441  0.1727508943134690  0.4689291756346595   T   T   T
  0.9241703636865941  0.0916816425482737  0.4828648131511680   T   T   T
  0.4243440640762215  0.5915938750517188  0.4827309393526453   T   T   T
  0.6707081220420130  0.5899882273487954  0.4825315409807706   T   T   T
  0.1707351730437545  0.0902757107607056  0.4826664776070959   T   T   T
  0.1718970953557374  0.5905595310827529  0.4826184753400459   T   T   T
  0.6718701460647517  0.0904692034732052  0.4827314301187758   T   T   T
  0.9294334716673902  0.5800117348303445  0.4900051975501202   T   T   T
  0.4292067586014651  0.0799255091310166  0.4900897790756026   T   T   T
  0.1298983540492832  0.3711596053635677  0.5214022902910679   T   T   T
  0.6215375753163190  0.3642639227900487  0.5224797044172121   T   T   T
  0.1205890699071723  0.8635614666301813  0.5226635793689922   T   T   T
  0.6289557873525792  0.8699253890938660  0.5216070574967705   T   T   T
  0.3129044543188028  0.5060680766816702  0.5394412573547842   T   T   T
  0.4829852925570887  0.3894996308918970  0.5629732466332638   T   T   T
  0.8060999072905732  0.4990861067730782  0.5374947389688907   T   T   T
  0.9818949144762188  0.3828532025096087  0.5589988150993194   T   T   T
  0.4805721245854316  0.8812589350817404  0.5591346949280211   T   T   T
  0.9822282366417565  0.8878523071473994  0.5632771922507368   T   T   T
  0.3052216038893413 -0.0019279355112997  0.5376475875001357   T   T   T
  0.8120981805473497  0.0045001222731857  0.5399758076506275   T   T   T
 
  0.00000000E+00  0.00000000E+00  0.00000000E+00
  0.00000000E+00  0.00000000E+00  0.00000000E+00
  0.00000000E+00  0.00000000E+00  0.00000000E+00
  0.00000000E+00  0.00000000E+00  0.00000000E+00
  0.00000000E+00  0.00000000E+00  0.00000000E+00
  0.00000000E+00  0.00000000E+00  0.00000000E+00
  0.00000000E+00  0.00000000E+00  0.00000000E+00
  0.00000000E+00  0.00000000E+00  0.00000000E+00
  0.00000000E+00  0.00000000E+00  0.00000000E+00
  0.00000000E+00  0.00000000E+00  0.00000000E+00
  0.00000000E+00  0.00000000E+00  0.00000000E+00
  0.00000000E+00  0.00000000E+00  0.00000000E+00
  0.00000000E+00  0.00000000E+00  0.00000000E+00
  0.00000000E+00  0.00000000E+00  0.00000000E+00
  0.00000000E+00  0.00000000E+00  0.00000000E+00
  0.00000000E+00  0.00000000E+00  0.00000000E+00
  0.00000000E+00  0.00000000E+00  0.00000000E+00
  0.00000000E+00  0.00000000E+00  0.00000000E+00
  0.00000000E+00  0.00000000E+00  0.00000000E+00
  0.00000000E+00  0.00000000E+00  0.00000000E+00
  0.00000000E+00  0.00000000E+00  0.00000000E+00
  0.00000000E+00  0.00000000E+00  0.00000000E+00
  0.00000000E+00  0.00000000E+00  0.00000000E+00
  0.00000000E+00  0.00000000E+00  0.00000000E+00
  0.00000000E+00  0.00000000E+00  0.00000000E+00
  0.00000000E+00  0.00000000E+00  0.00000000E+00
  0.00000000E+00  0.00000000E+00  0.00000000E+00
  0.00000000E+00  0.00000000E+00  0.00000000E+00
  0.00000000E+00  0.00000000E+00  0.00000000E+00
  0.00000000E+00  0.00000000E+00  0.00000000E+00
  0.00000000E+00  0.00000000E+00  0.00000000E+00
  0.00000000E+00  0.00000000E+00  0.00000000E+00
  0.00000000E+00  0.00000000E+00  0.00000000E+00
  0.00000000E+00  0.00000000E+00  0.00000000E+00
  0.00000000E+00  0.00000000E+00  0.00000000E+00
  0.00000000E+00  0.00000000E+00  0.00000000E+00
  0.00000000E+00  0.00000000E+00  0.00000000E+00
  0.00000000E+00  0.00000000E+00  0.00000000E+00
  0.00000000E+00  0.00000000E+00  0.00000000E+00
  0.00000000E+00  0.00000000E+00  0.00000000E+00
  0.00000000E+00  0.00000000E+00  0.00000000E+00
  0.00000000E+00  0.00000000E+00  0.00000000E+00
  0.00000000E+00  0.00000000E+00  0.00000000E+00
  0.00000000E+00  0.00000000E+00  0.00000000E+00
  0.00000000E+00  0.00000000E+00  0.00000000E+00
  0.00000000E+00  0.00000000E+00  0.00000000E+00
  0.00000000E+00  0.00000000E+00  0.00000000E+00
  0.00000000E+00  0.00000000E+00  0.00000000E+00
  0.00000000E+00  0.00000000E+00  0.00000000E+00
  0.00000000E+00  0.00000000E+00  0.00000000E+00
  0.00000000E+00  0.00000000E+00  0.00000000E+00
  0.00000000E+00  0.00000000E+00  0.00000000E+00
  0.00000000E+00  0.00000000E+00  0.00000000E+00
  0.00000000E+00  0.00000000E+00  0.00000000E+00
  0.00000000E+00  0.00000000E+00  0.00000000E+00
  0.00000000E+00  0.00000000E+00  0.00000000E+00
  0.00000000E+00  0.00000000E+00  0.00000000E+00
  0.00000000E+00  0.00000000E+00  0.00000000E+00
  0.00000000E+00  0.00000000E+00  0.00000000E+00
  0.00000000E+00  0.00000000E+00  0.00000000E+00
  0.00000000E+00  0.00000000E+00  0.00000000E+00
  0.00000000E+00  0.00000000E+00  0.00000000E+00
  0.00000000E+00  0.00000000E+00  0.00000000E+00
  0.00000000E+00  0.00000000E+00  0.00000000E+00
  0.00000000E+00  0.00000000E+00  0.00000000E+00
  0.00000000E+00  0.00000000E+00  0.00000000E+00
  0.00000000E+00  0.00000000E+00  0.00000000E+00
  0.00000000E+00  0.00000000E+00  0.00000000E+00
  0.00000000E+00  0.00000000E+00  0.00000000E+00
  0.00000000E+00  0.00000000E+00  0.00000000E+00
  0.00000000E+00  0.00000000E+00  0.00000000E+00
  0.00000000E+00  0.00000000E+00  0.00000000E+00
  0.00000000E+00  0.00000000E+00  0.00000000E+00
  0.00000000E+00  0.00000000E+00  0.00000000E+00
  0.00000000E+00  0.00000000E+00  0.00000000E+00
  0.00000000E+00  0.00000000E+00  0.00000000E+00
  0.00000000E+00  0.00000000E+00  0.00000000E+00
  0.00000000E+00  0.00000000E+00  0.00000000E+00
  0.00000000E+00  0.00000000E+00  0.00000000E+00
  0.00000000E+00  0.00000000E+00  0.00000000E+00
  0.00000000E+00  0.00000000E+00  0.00000000E+00
  0.00000000E+00  0.00000000E+00  0.00000000E+00
  0.00000000E+00  0.00000000E+00  0.00000000E+00
  0.00000000E+00  0.00000000E+00  0.00000000E+00
  0.00000000E+00  0.00000000E+00  0.00000000E+00
  0.00000000E+00  0.00000000E+00  0.00000000E+00
  0.00000000E+00  0.00000000E+00  0.00000000E+00
  0.00000000E+00  0.00000000E+00  0.00000000E+00
  0.00000000E+00  0.00000000E+00  0.00000000E+00
  0.00000000E+00  0.00000000E+00  0.00000000E+00
  0.00000000E+00  0.00000000E+00  0.00000000E+00
  0.00000000E+00  0.00000000E+00  0.00000000E+00
  0.00000000E+00  0.00000000E+00  0.00000000E+00
  0.00000000E+00  0.00000000E+00  0.00000000E+00
  0.00000000E+00  0.00000000E+00  0.00000000E+00
  0.00000000E+00  0.00000000E+00  0.00000000E+00
  0.00000000E+00  0.00000000E+00  0.00000000E+00
  0.00000000E+00  0.00000000E+00  0.00000000E+00
  0.00000000E+00  0.00000000E+00  0.00000000E+00
  0.00000000E+00  0.00000000E+00  0.00000000E+00
  0.00000000E+00  0.00000000E+00  0.00000000E+00
  0.00000000E+00  0.00000000E+00  0.00000000E+00
  0.00000000E+00  0.00000000E+00  0.00000000E+00
  0.00000000E+00  0.00000000E+00  0.00000000E+00
  0.00000000E+00  0.00000000E+00  0.00000000E+00
  0.00000000E+00  0.00000000E+00  0.00000000E+00
  0.00000000E+00  0.00000000E+00  0.00000000E+00
  0.00000000E+00  0.00000000E+00  0.00000000E+00
  0.00000000E+00  0.00000000E+00  0.00000000E+00
  0.00000000E+00  0.00000000E+00  0.00000000E+00
  0.00000000E+00  0.00000000E+00  0.00000000E+00
  0.00000000E+00  0.00000000E+00  0.00000000E+00
  0.00000000E+00  0.00000000E+00  0.00000000E+00
  0.00000000E+00  0.00000000E+00  0.00000000E+00
  0.00000000E+00  0.00000000E+00  0.00000000E+00
  0.00000000E+00  0.00000000E+00  0.00000000E+00
  0.00000000E+00  0.00000000E+00  0.00000000E+00
  0.00000000E+00  0.00000000E+00  0.00000000E+00
  0.00000000E+00  0.00000000E+00  0.00000000E+00
  0.00000000E+00  0.00000000E+00  0.00000000E+00
  0.00000000E+00  0.00000000E+00  0.00000000E+00
  0.00000000E+00  0.00000000E+00  0.00000000E+00
  0.00000000E+00  0.00000000E+00  0.00000000E+00
  0.00000000E+00  0.00000000E+00  0.00000000E+00
  0.00000000E+00  0.00000000E+00  0.00000000E+00
  0.00000000E+00  0.00000000E+00  0.00000000E+00
  0.00000000E+00  0.00000000E+00  0.00000000E+00
  0.00000000E+00  0.00000000E+00  0.00000000E+00
  0.00000000E+00  0.00000000E+00  0.00000000E+00
  0.00000000E+00  0.00000000E+00  0.00000000E+00
  0.00000000E+00  0.00000000E+00  0.00000000E+00
  0.00000000E+00  0.00000000E+00  0.00000000E+00
  0.00000000E+00  0.00000000E+00  0.00000000E+00
  0.00000000E+00  0.00000000E+00  0.00000000E+00
  0.00000000E+00  0.00000000E+00  0.00000000E+00
  0.00000000E+00  0.00000000E+00  0.00000000E+00
  0.00000000E+00  0.00000000E+00  0.00000000E+00
  0.00000000E+00  0.00000000E+00  0.00000000E+00
  0.00000000E+00  0.00000000E+00  0.00000000E+00
  0.00000000E+00  0.00000000E+00  0.00000000E+00
  0.00000000E+00  0.00000000E+00  0.00000000E+00
  0.00000000E+00  0.00000000E+00  0.00000000E+00
  0.00000000E+00  0.00000000E+00  0.00000000E+00
  0.00000000E+00  0.00000000E+00  0.00000000E+00
  0.00000000E+00  0.00000000E+00  0.00000000E+00
  0.00000000E+00  0.00000000E+00  0.00000000E+00
  0.00000000E+00  0.00000000E+00  0.00000000E+00
  0.00000000E+00  0.00000000E+00  0.00000000E+00
  0.00000000E+00  0.00000000E+00  0.00000000E+00
  0.00000000E+00  0.00000000E+00  0.00000000E+00
  0.00000000E+00  0.00000000E+00  0.00000000E+00
  0.00000000E+00  0.00000000E+00  0.00000000E+00
  0.00000000E+00  0.00000000E+00  0.00000000E+00
  0.00000000E+00  0.00000000E+00  0.00000000E+00
  0.00000000E+00  0.00000000E+00  0.00000000E+00
  0.00000000E+00  0.00000000E+00  0.00000000E+00
  0.00000000E+00  0.00000000E+00  0.00000000E+00
  0.00000000E+00  0.00000000E+00  0.00000000E+00
  0.00000000E+00  0.00000000E+00  0.00000000E+00
  0.00000000E+00  0.00000000E+00  0.00000000E+00
  0.00000000E+00  0.00000000E+00  0.00000000E+00
  0.00000000E+00  0.00000000E+00  0.00000000E+00
  0.00000000E+00  0.00000000E+00  0.00000000E+00
  0.00000000E+00  0.00000000E+00  0.00000000E+00
  0.00000000E+00  0.00000000E+00  0.00000000E+00
  0.00000000E+00  0.00000000E+00  0.00000000E+00
  0.00000000E+00  0.00000000E+00  0.00000000E+00
  0.00000000E+00  0.00000000E+00  0.00000000E+00
  0.00000000E+00  0.00000000E+00  0.00000000E+00
  0.00000000E+00  0.00000000E+00  0.00000000E+00
  0.00000000E+00  0.00000000E+00  0.00000000E+00
  0.00000000E+00  0.00000000E+00  0.00000000E+00
  0.00000000E+00  0.00000000E+00  0.00000000E+00
  0.00000000E+00  0.00000000E+00  0.00000000E+00
  0.00000000E+00  0.00000000E+00  0.00000000E+00
  0.00000000E+00  0.00000000E+00  0.00000000E+00
  0.00000000E+00  0.00000000E+00  0.00000000E+00
  0.00000000E+00  0.00000000E+00  0.00000000E+00
  0.00000000E+00  0.00000000E+00  0.00000000E+00
  0.00000000E+00  0.00000000E+00  0.00000000E+00
