VP-Te
1.0
       12.9825496674         0.0000000000         0.0000000000
        0.0848524310        12.9822723716         0.0000000000
       -8.8922368230        -8.8343068928        43.4272174446
    P   Te
  168   12
S
Cartesian
7.433181914	11.93464554	0.717417594	F	F	F
0.899480865	5.443509358	0.717417594	F	F	F
4.139769179	11.77999982	0.959741493	F	F	F
10.58861779	5.28886325	0.959741493	F	F	F
10.64073463	11.74267951	0.969295513	F	F	F
4.107033582	5.251543324	0.969295513	F	F	F
7.351890284	5.255667508	0.976460947	F	F	F
0.903041668	11.74680408	0.976460947	F	F	F
5.893294529	10.53493201	1.436789479	F	F	F
12.34214392	4.043795819	1.436789479	F	F	F
8.908537476	10.49318775	1.485645117	F	F	F
2.374836422	4.002050792	1.485645117	F	F	F
2.551291231	10.39379213	1.573150888	F	F	F
9.000139849	3.902655943	1.573150888	F	F	F
5.71998681	3.892742394	1.595081648	F	F	F
12.25368786	10.38387858	1.595081648	F	F	F
7.333903054	0.639542185	2.258649569	F	F	F
0.885054439	7.130678757	2.258649569	F	F	F
10.55708375	0.415119735	2.526161162	F	F	F
4.108235129	6.906256308	2.526161162	F	F	F
4.041880874	0.437523528	2.534412376	F	F	F
10.57558193	6.928660101	2.534412376	F	F	F
0.826402763	0.400286896	2.539406493	F	F	F
7.360103813	6.891423179	2.539406493	F	F	F
6.240404979	10.7680837	3.633120971	F	F	F
-0.29329607	4.276947511	3.633120971	F	F	F
8.538977629	10.75545642	3.678285459	F	F	F
2.005276575	4.264319464	3.678285459	F	F	F
2.782120454	10.64401222	3.738866191	F	F	F
9.230969072	4.152876038	3.738866191	F	F	F
5.829937833	-0.003359975	3.739952052	F	F	F
-0.618910788	6.487775824	3.739952052	F	F	F
5.498184567	4.16547464	3.76883122	F	F	F
12.03188562	10.65661083	3.76883122	F	F	F
8.796102302	-0.015313744	3.773825337	F	F	F
2.347253686	6.475822829	3.773825337	F	F	F
5.722103511	6.359519525	3.916049455	F	F	F
12.17095213	-0.131616661	3.916049455	F	F	F
2.457048402	-0.154933882	3.94036872	F	F	F
8.990748676	6.336202207	3.94036872	F	F	F
7.370533817	3.156987752	4.355750195	F	F	F
0.921685199	9.648123938	4.355750195	F	F	F
1.190400937	9.915089083	6.50105449	F	F	F
7.639249555	3.423952897	6.50105449	F	F	F
4.449513536	1.824551685	6.916435641	F	F	F
10.98321459	8.315688645	6.916435641	F	F	F
10.89640804	-1.397857127	6.940754906	F	F	F
4.447559427	5.093279435	6.940754906	F	F	F
4.353316939	8.468817255	7.082979347	F	F	F
10.80216556	1.977681069	7.082979347	F	F	F
0.10932068	-1.188282684	7.087973141	F	F	F
6.64302173	5.302853574	7.087973141	F	F	F
4.360750837	11.43499663	7.116851986	F	F	F
10.80959946	4.943860443	7.116851986	F	F	F
6.631223085	1.570066521	7.117937846	F	F	F
0.182374467	8.061202707	7.117937846	F	F	F
6.567008257	8.796332999	7.178518902	F	F	F
0.033307208	2.305196813	7.178518902	F	F	F
6.569403749	11.09493915	7.223683066	F	F	F
0.035702699	4.603802964	7.223683066	F	F	F
3.904962805	3.458790867	8.317398353	F	F	F
10.43866386	9.94992744	8.317398353	F	F	F
3.846709976	0.243624103	8.322392147	F	F	F
10.3804118	6.734760676	8.322392147	F	F	F
3.911383084	6.710686688	8.330643523	F	F	F
10.36023248	0.219550502	8.330643523	F	F	F
3.708032602	9.935265399	8.598154793	F	F	F
10.15688199	3.444129213	8.598154793	F	F	F
0.380597495	-1.411862452	9.261722389	F	F	F
6.914298544	5.079273589	9.261722389	F	F	F
6.882946243	1.799255141	9.283654444	F	F	F
0.434097625	8.290391327	9.283654444	F	F	F
6.826855894	8.425066855	9.371159406	F	F	F
0.293154845	1.93393067	9.371159406	F	F	F
6.719966797	-1.541754737	9.420014073	F	F	F
0.271118179	4.949381473	9.420014073	F	F	F
-0.908112424	9.947449817	9.880343252	F	F	F
5.540736194	3.456313631	9.880343252	F	F	F
5.566068793	6.701073412	9.88750812	F	F	F
-0.967632256	0.209937226	9.88750812	F	F	F
5.486386137	0.219871876	9.897063434	F	F	F
-0.962462485	6.711007482	9.897063434	F	F	F
5.395070857	9.909812862	10.13938701	F	F	F
-1.138630198	3.418675903	10.13938701	F	F	F
9.759913885	5.146443022	11.57422171	T	T	T
3.226212835	-1.344693163	11.57422171	T	T	T
9.583746039	1.854111312	11.81654594	T	T	T
3.134897034	8.345247498	11.81654594	T	T	T
9.588916075	8.355181831	11.82609996	T	T	T
3.055215026	1.864045645	11.82609996	T	T	T
3.080547243	5.108806199	11.83326482	T	T	T
9.529396248	-1.382329987	11.83326482	T	T	T
8.35016577	3.615737329	12.29359336	T	T	T
1.901317155	10.1068739	12.29359336	T	T	T
8.328129616	6.631188256	12.34244932	T	T	T
1.794427793	0.14005207	12.34244932	T	T	T
8.187185931	0.27472766	12.42995493	T	T	T
1.738337311	6.765863653	12.42995493	T	T	T
1.706985276	3.485845468	12.45188569	T	T	T
8.240686325	9.976981654	12.45188569	T	T	T
-1.535597146	5.120989712	13.11545393	T	T	T
4.913251859	-1.370146473	13.11545393	T	T	T
-1.738948402	8.345568423	13.3829652	T	T	T
4.709900603	1.854432237	13.3829652	T	T	T
-1.759127858	1.830358505	13.39121722	T	T	T
4.774573576	8.321494304	13.39121722	T	T	T
-1.81737949	-1.384808031	13.39621037	T	T	T
4.716321658	5.106328445	13.39621037	T	T	T
8.585580988	3.961315961	14.48992566	T	T	T
2.051879938	-2.529820225	14.48992566	T	T	T
8.58797712	6.25992198	14.53509047	T	T	T
2.054275297	-0.231214206	14.53509047	T	T	T
8.43890922	0.503916219	14.59567088	T	T	T
1.990060602	6.995052404	14.59567088	T	T	T
-2.188315381	3.621258482	14.59675674	T	T	T
4.26053285	-2.869877679	14.59675674	T	T	T
1.978261824	3.262265219	14.62563623	T	T	T
8.511962874	9.753401405	14.62563623	T	T	T
-2.180882257	6.587437856	14.63062938	T	T	T
4.267966748	0.09630167	14.63062938	T	T	T
4.173723489	3.471839877	14.77285382	T	T	T
-2.275125132	9.962975676	14.77285382	T	T	T
-2.361930931	0.249431309	14.79717373	T	T	T
4.171770019	6.740567108	14.79717373	T	T	T
0.982033999	5.141165896	15.21255488	T	T	T
7.430882618	-1.349970289	15.21255488	T	T	T
7.699598286	-1.083005597	17.3578595	T	T	T
1.250749671	5.408130976	17.3578595	T	T	T
-0.369465122	2.228916586	17.77324065	T	T	T
6.164236701	8.720052772	17.77324065	T	T	T
-3.549668824	8.696734813	17.79755927	T	T	T
2.899180171	2.205598627	17.79755927	T	T	T
6.274029937	2.089296417	17.93978371	T	T	T
-0.174818684	8.580432216	17.93978371	T	T	T
-3.410602134	-2.091492032	17.94477815	T	T	T
3.123098988	4.399644153	17.94477815	T	T	T
9.240194538	2.07734278	17.97365635	T	T	T
2.791345923	8.568479353	17.97365635	T	T	T
-0.609685319	4.412242953	17.97474221	T	T	T
5.839163299	-2.078893233	17.97474221	T	T	T
6.616006979	4.30079933	18.03532391	T	T	T
0.08230593	-2.190336856	18.03532391	T	T	T
8.914579823	4.28817148	18.08048743	T	T	T
2.380878774	-2.202964706	18.08048743	T	T	T
1.261180164	1.673696034	19.17420271	T	T	T
7.794881603	8.164832607	19.17420271	T	T	T
-1.954298789	1.636459047	19.17919716	T	T	T
4.57940265	8.12759562	19.17919716	T	T	T
4.513048494	1.658862939	19.18744788	T	T	T
-1.935800121	8.149999511	19.18744788	T	T	T
7.736229253	1.434440942	19.45495915	T	T	T
1.28738064	7.925577901	19.45495915	T	T	T
-3.632404092	-1.818759527	20.1185274	T	T	T
2.901296811	4.672376465	20.1185274	T	T	T
-0.378856494	4.662462653	20.14045945	T	T	T
6.069992124	-1.828673533	20.14045945	T	T	T
6.246447232	4.563068101	20.22796377	T	T	T
-0.287253817	-1.928068085	20.22796377	T	T	T
-3.720860093	4.521323271	20.27681843	T	T	T
2.72798855	-1.969812915	20.27681843	T	T	T
7.71824296	-3.181684701	20.73714697	T	T	T
1.26939434	3.309451195	20.73714697	T	T	T
4.514250121	3.313575617	20.74431313	T	T	T
-2.019450929	-3.177560665	20.74431313	T	T	T
-1.967333778	3.276255041	20.75386844	T	T	T
4.48151426	-3.214881048	20.75386844	T	T	T
7.721803546	3.121609518	20.99619137	T	T	T
1.188101723	-3.369526668	20.99619137	T	T	T
-3.546637955	1.026355698	22.43102737	T	T	T
2.944637072	1.026355698	22.43102737	T	T	T
-3.543077398	7.329649696	22.69007048	T	T	T
2.948197146	7.329649696	22.69007048	T	T	T
-1.382879397	2.089268719	24.27204382	T	T	T
0.780879028	-0.036556236	24.27204382	T	T	T
5.108395437	2.089268719	24.27204382	T	T	T
7.272153475	-0.036556236	24.27204382	T	T	T
0.784439491	6.26673815	24.53108693	T	T	T
7.275714325	6.26673815	24.53108693	T	T	T
-1.464171505	-4.589709407	24.53108952	T	T	T
5.027103328	-4.589709407	24.53108952	T	T	T

