  PAW_PBE P 06Sep2000                    
   5.00000000000000     
 parameters from PSCTR are:
   VRHFIN =P : s2p3
   LEXCH  = PE
   EATOM  =   176.0430 eV,   12.9388 Ry

   TITEL  = PAW_PBE P 06Sep2000
   LULTRA =        F    use ultrasoft PP ?
   IUNSCR =        1    unscreen: 0-lin 1-nonlin 2-no
   RPACOR =    1.500    partial core radius
   POMASS =   30.974; ZVAL   =    5.000    mass and valenz
   RCORE  =    1.900    outmost cutoff radius
   RWIGS  =    2.330; RWIGS  =    1.233    wigner-seitz radius (au A)
   ENMAX  =  255.040; ENMIN  =  191.280 eV
   ICORE  =        2    local potential
   LCOR   =        T    correct aug charges
   LPAW   =        T    paw PP
   EAUG   =  342.924
   DEXC   =    0.000
   RMAX   =    1.935    core radius for proj-oper
   RAUG   =    1.300    factor for augmentation sphere
   RDEP   =    1.931    radius for radial grids
   RDEPT  =    1.794    core radius for aug-charge
 
   Atomic configuration
    6 entries
     n  l   j            E        occ.
     1  0  0.50     -2084.0982   2.0000
     2  0  0.50      -173.9859   2.0000
     2  1  1.50      -124.4865   6.0000
     3  0  0.50       -13.9692   2.0000
     3  1  0.50        -5.5067   3.0000
     3  2  1.50        -5.4423   0.0000
   Description
     l       E           TYP  RCUT    TYP  RCUT
     0    -13.9691527     23  1.900
     0    -11.7794650     23  1.900
     1     -5.5066937     23  1.900
     1     -0.2556953     23  1.900
     2     -5.4423304     23  1.900
   Error from kinetic energy argument (eV)
   NDATA  =      100
   STEP   =   20.000   1.050
  32.8      30.5      29.4      27.3      26.3      24.3      22.4      21.5
  19.8      18.2      17.4      16.0      14.6      13.3      12.2      11.1
  10.1      9.17      8.33      7.19      6.52      5.90      5.08      4.59
  4.14      3.55      3.04      2.74      2.34      2.00      1.71      1.46
  1.24      1.06     0.898     0.763     0.614     0.522     0.419     0.356
 0.285     0.229     0.183     0.147     0.117     0.937E-01 0.745E-01 0.557E-01
 0.439E-01 0.324E-01 0.236E-01 0.182E-01 0.131E-01 0.934E-02 0.628E-02 0.462E-02
 0.356E-02 0.285E-02 0.252E-02 0.240E-02 0.235E-02 0.231E-02 0.221E-02 0.203E-02
 0.181E-02 0.153E-02 0.125E-02 0.100E-02 0.784E-03 0.658E-03 0.575E-03 0.534E-03
 0.511E-03 0.486E-03 0.444E-03 0.394E-03 0.331E-03 0.273E-03 0.224E-03 0.196E-03
 0.178E-03 0.168E-03 0.157E-03 0.139E-03 0.119E-03 0.993E-04 0.846E-04 0.751E-04
 0.696E-04 0.645E-04 0.570E-04 0.491E-04 0.411E-04 0.361E-04 0.331E-04 0.304E-04
 0.268E-04 0.231E-04 0.196E-04 0.177E-04
END of PSCTR-controll parameters
 local part
   98.2657514061040     
  0.20052013E+02  0.20050713E+02  0.20057150E+02  0.20067871E+02  0.20082863E+02
  0.20102108E+02  0.20125577E+02  0.20153231E+02  0.20185018E+02  0.20220871E+02
  0.20260709E+02  0.20304432E+02  0.20351928E+02  0.20403068E+02  0.20457706E+02
  0.20515687E+02  0.20576838E+02  0.20640979E+02  0.20707913E+02  0.20777435E+02
  0.20849325E+02  0.20923352E+02  0.20999271E+02  0.21076823E+02  0.21155734E+02
  0.21235718E+02  0.21316471E+02  0.21397676E+02  0.21479003E+02  0.21560108E+02
  0.21640635E+02  0.21720215E+02  0.21798471E+02  0.21875015E+02  0.21949450E+02
  0.22021370E+02  0.22090364E+02  0.22156013E+02  0.22217894E+02  0.22275580E+02
  0.22328641E+02  0.22376648E+02  0.22419170E+02  0.22455781E+02  0.22486058E+02
  0.22509587E+02  0.22525957E+02  0.22534772E+02  0.22535643E+02  0.22528197E+02
  0.22512076E+02  0.22486936E+02  0.22452454E+02  0.22408327E+02  0.22354273E+02
  0.22290033E+02  0.22215374E+02  0.22130091E+02  0.22034006E+02  0.21926970E+02
  0.21808866E+02  0.21679608E+02  0.21539144E+02  0.21387455E+02  0.21224555E+02
  0.21050493E+02  0.20865355E+02  0.20669260E+02  0.20462364E+02  0.20244857E+02
  0.20016966E+02  0.19778951E+02  0.19531107E+02  0.19273763E+02  0.19007278E+02
  0.18732045E+02  0.18448486E+02  0.18157050E+02  0.17858214E+02  0.17552481E+02
  0.17240376E+02  0.16922447E+02  0.16599260E+02  0.16271398E+02  0.15939460E+02
  0.15604057E+02  0.15265811E+02  0.14925351E+02  0.14583310E+02  0.14240326E+02
  0.13897034E+02  0.13554068E+02  0.13212058E+02  0.12871623E+02  0.12533375E+02
  0.12197911E+02  0.11865814E+02  0.11537649E+02  0.11213964E+02  0.10895281E+02
  0.10582101E+02  0.10274900E+02  0.99741256E+01  0.96801960E+01  0.93934999E+01
  0.91143941E+01  0.88432027E+01  0.85802161E+01  0.83256902E+01  0.80798461E+01
  0.78428693E+01  0.76149100E+01  0.73960824E+01  0.71864651E+01  0.69861017E+01
  0.67950009E+01  0.66131370E+01  0.64404513E+01  0.62768525E+01  0.61222184E+01
  0.59763965E+01  0.58392061E+01  0.57104393E+01  0.55898632E+01  0.54772210E+01
  0.53722343E+01  0.52746050E+01  0.51840169E+01  0.51001381E+01  0.50226231E+01
  0.49511145E+01  0.48852458E+01  0.48246428E+01  0.47689265E+01  0.47177147E+01
  0.46706242E+01  0.46272730E+01  0.45872822E+01  0.45502778E+01  0.45158926E+01
  0.44837679E+01  0.44535555E+01  0.44249187E+01  0.43975340E+01  0.43710925E+01
  0.43453013E+01  0.43198842E+01  0.42945826E+01  0.42691569E+01  0.42433867E+01
  0.42170713E+01  0.41900305E+01  0.41621044E+01  0.41331539E+01  0.41030602E+01
  0.40717254E+01  0.40390714E+01  0.40050404E+01  0.39695937E+01  0.39327112E+01
  0.38943913E+01  0.38546492E+01  0.38135168E+01  0.37710411E+01  0.37272837E+01
  0.36823192E+01  0.36362342E+01  0.35891264E+01  0.35411027E+01  0.34922788E+01
  0.34427769E+01  0.33927255E+01  0.33422574E+01  0.32915084E+01  0.32406167E+01
  0.31897210E+01  0.31389595E+01  0.30884691E+01  0.30383836E+01  0.29888333E+01
  0.29399439E+01  0.28918353E+01  0.28446210E+01  0.27984074E+01  0.27532929E+01
  0.27093675E+01  0.26667124E+01  0.26253993E+01  0.25854901E+01  0.25470370E+01
  0.25100818E+01  0.24746562E+01  0.24407818E+01  0.24084700E+01  0.23777223E+01
  0.23485304E+01  0.23208767E+01  0.22947346E+01  0.22700690E+01  0.22468367E+01
  0.22249869E+01  0.22044621E+01  0.21851984E+01  0.21671261E+01  0.21501708E+01
  0.21342538E+01  0.21192928E+01  0.21052027E+01  0.20918966E+01  0.20792861E+01
  0.20672822E+01  0.20557963E+01  0.20447403E+01  0.20340278E+01  0.20235746E+01
  0.20132990E+01  0.20031227E+01  0.19929712E+01  0.19827742E+01  0.19724662E+01
  0.19619866E+01  0.19512803E+01  0.19402979E+01  0.19289959E+01  0.19173367E+01
  0.19052891E+01  0.18928279E+01  0.18799343E+01  0.18665956E+01  0.18528052E+01
  0.18385622E+01  0.18238718E+01  0.18087443E+01  0.17931956E+01  0.17772461E+01
  0.17609212E+01  0.17442502E+01  0.17272663E+01  0.17100061E+01  0.16925092E+01
  0.16748176E+01  0.16569753E+01  0.16390281E+01  0.16210226E+01  0.16030063E+01
  0.15850267E+01  0.15671312E+01  0.15493665E+01  0.15317780E+01  0.15144099E+01
  0.14973044E+01  0.14805017E+01  0.14640391E+01  0.14479516E+01  0.14322707E+01
  0.14170250E+01  0.14022393E+01  0.13879350E+01  0.13741298E+01  0.13608374E+01
  0.13480679E+01  0.13358274E+01  0.13241183E+01  0.13129390E+01  0.13022845E+01
  0.12921461E+01  0.12825117E+01  0.12733661E+01  0.12646909E+01  0.12564650E+01
  0.12486646E+01  0.12412638E+01  0.12342345E+01  0.12275470E+01  0.12211700E+01
  0.12150713E+01  0.12092176E+01  0.12035752E+01  0.11981103E+01  0.11927889E+01
  0.11875777E+01  0.11824436E+01  0.11773549E+01  0.11722806E+01  0.11671915E+01
  0.11620598E+01  0.11568596E+01  0.11515670E+01  0.11461602E+01  0.11406200E+01
  0.11349293E+01  0.11290738E+01  0.11230414E+01  0.11168229E+01  0.11104118E+01
  0.11038039E+01  0.10969978E+01  0.10899947E+01  0.10827981E+01  0.10754140E+01
  0.10678504E+01  0.10601178E+01  0.10522284E+01  0.10441962E+01  0.10360371E+01
  0.10277681E+01  0.10194076E+01  0.10109750E+01  0.10024906E+01  0.99397528E+00
  0.98545023E+00  0.97693693E+00  0.96845684E+00  0.96003119E+00  0.95168079E+00
  0.94342587E+00  0.93528584E+00  0.92727919E+00  0.91942325E+00  0.91173412E+00
  0.90422650E+00  0.89691357E+00  0.88980694E+00  0.88291652E+00  0.87625047E+00
  0.86981518E+00  0.86361523E+00  0.85765336E+00  0.85193050E+00  0.84644577E+00
  0.84119654E+00  0.83617845E+00  0.83138552E+00  0.82681020E+00  0.82244347E+00
  0.81827496E+00  0.81429308E+00  0.81048513E+00  0.80683742E+00  0.80333546E+00
  0.79996407E+00  0.79670754E+00  0.79354979E+00  0.79047448E+00  0.78746522E+00
  0.78450568E+00  0.78157976E+00  0.77867172E+00  0.77576630E+00  0.77284890E+00
  0.76990565E+00  0.76692355E+00  0.76389059E+00  0.76079580E+00  0.75762933E+00
  0.75438257E+00  0.75104814E+00  0.74761996E+00  0.74409328E+00  0.74046470E+00
  0.73673216E+00  0.73289495E+00  0.72895367E+00  0.72491022E+00  0.72076775E+00
  0.71653060E+00  0.71220422E+00  0.70779514E+00  0.70331083E+00  0.69875965E+00
  0.69415071E+00  0.68949383E+00  0.68479936E+00  0.68007811E+00  0.67534127E+00
  0.67060021E+00  0.66586647E+00  0.66115154E+00  0.65646684E+00  0.65182357E+00
  0.64723260E+00  0.64270436E+00  0.63824879E+00  0.63387519E+00  0.62959219E+00
  0.62540765E+00  0.62132861E+00  0.61736122E+00  0.61351073E+00  0.60978140E+00
  0.60617651E+00  0.60269836E+00  0.59934820E+00  0.59612628E+00  0.59303187E+00
  0.59006321E+00  0.58721763E+00  0.58449152E+00  0.58188041E+00  0.57937902E+00
  0.57698132E+00  0.57468060E+00  0.57246952E+00  0.57034024E+00  0.56828445E+00
  0.56629346E+00  0.56435833E+00  0.56246988E+00  0.56061886E+00  0.55879597E+00
  0.55699198E+00  0.55519782E+00  0.55340465E+00  0.55160393E+00  0.54978753E+00
  0.54794776E+00  0.54607747E+00  0.54417008E+00  0.54221964E+00  0.54022089E+00
  0.53816928E+00  0.53606099E+00  0.53389299E+00  0.53166302E+00  0.52936962E+00
  0.52701212E+00  0.52459065E+00  0.52210611E+00  0.51956015E+00  0.51695516E+00
  0.51429422E+00  0.51158104E+00  0.50881997E+00  0.50601587E+00  0.50317413E+00
  0.50030054E+00  0.49740130E+00  0.49448288E+00  0.49155201E+00  0.48861561E+00
  0.48568068E+00  0.48275426E+00  0.47984336E+00  0.47695488E+00  0.47409558E+00
  0.47127194E+00  0.46849018E+00  0.46575616E+00  0.46307532E+00  0.46045269E+00
  0.45789276E+00  0.45539953E+00  0.45297643E+00  0.45062628E+00  0.44835133E+00
  0.44615318E+00  0.44403284E+00  0.44199064E+00  0.44002630E+00  0.43813894E+00
  0.43632704E+00  0.43458852E+00  0.43292074E+00  0.43132054E+00  0.42978426E+00
  0.42830781E+00  0.42688669E+00  0.42551604E+00  0.42419072E+00  0.42290531E+00
  0.42165421E+00  0.42043165E+00  0.41923179E+00  0.41804874E+00  0.41687665E+00
  0.41570974E+00  0.41454234E+00  0.41336900E+00  0.41218447E+00  0.41098380E+00
  0.40976235E+00  0.40851585E+00  0.40724043E+00  0.40593261E+00  0.40458942E+00
  0.40320830E+00  0.40178723E+00  0.40032467E+00  0.39881959E+00  0.39727149E+00
  0.39568037E+00  0.39404675E+00  0.39237163E+00  0.39065651E+00  0.38890332E+00
  0.38711445E+00  0.38529266E+00  0.38344110E+00  0.38156324E+00  0.37966287E+00
  0.37774401E+00  0.37581089E+00  0.37386794E+00  0.37191970E+00  0.36997078E+00
  0.36802584E+00  0.36608953E+00  0.36416644E+00  0.36226106E+00  0.36037774E+00
  0.35852063E+00  0.35669368E+00  0.35490056E+00  0.35314467E+00  0.35142907E+00
  0.34975649E+00  0.34812929E+00  0.34654945E+00  0.34501854E+00  0.34353772E+00
  0.34210774E+00  0.34072892E+00  0.33940116E+00  0.33812394E+00  0.33689634E+00
  0.33571705E+00  0.33458437E+00  0.33349624E+00  0.33245029E+00  0.33144383E+00
  0.33047390E+00  0.32953730E+00  0.32863060E+00  0.32775020E+00  0.32689236E+00
  0.32605324E+00  0.32522890E+00  0.32441541E+00  0.32360882E+00  0.32280522E+00
  0.32200080E+00  0.32119187E+00  0.32037486E+00  0.31954641E+00  0.31870338E+00
  0.31784284E+00  0.31696214E+00  0.31605893E+00  0.31513112E+00  0.31417699E+00
  0.31319511E+00  0.31218441E+00  0.31114418E+00  0.31007403E+00  0.30897395E+00
  0.30784426E+00  0.30668563E+00  0.30549905E+00  0.30428584E+00  0.30304759E+00
  0.30178619E+00  0.30050377E+00  0.29920271E+00  0.29788558E+00  0.29655513E+00
  0.29521427E+00  0.29386603E+00  0.29251352E+00  0.29115992E+00  0.28980843E+00
  0.28846226E+00  0.28712458E+00  0.28579848E+00  0.28448697E+00  0.28319292E+00
  0.28191906E+00  0.28066794E+00  0.27944191E+00  0.27824311E+00  0.27707343E+00
  0.27593451E+00  0.27482773E+00  0.27375420E+00  0.27271473E+00  0.27170984E+00
  0.27073977E+00  0.26980446E+00  0.26890355E+00  0.26803641E+00  0.26720214E+00
  0.26639954E+00  0.26562722E+00  0.26488351E+00  0.26416656E+00  0.26347429E+00
  0.26280450E+00  0.26215479E+00  0.26152266E+00  0.26090550E+00  0.26030065E+00
  0.25970536E+00  0.25911688E+00  0.25853247E+00  0.25794942E+00  0.25736506E+00
  0.25677682E+00  0.25618224E+00  0.25557897E+00  0.25496484E+00  0.25433782E+00
  0.25369607E+00  0.25303797E+00  0.25236210E+00  0.25166726E+00  0.25095250E+00
  0.25021710E+00  0.24946058E+00  0.24868274E+00  0.24788358E+00  0.24706339E+00
  0.24622268E+00  0.24536219E+00  0.24448289E+00  0.24358594E+00  0.24267273E+00
  0.24174480E+00  0.24080385E+00  0.23985175E+00  0.23889047E+00  0.23792210E+00
  0.23694881E+00  0.23597283E+00  0.23499643E+00  0.23402189E+00  0.23305150E+00
  0.23208752E+00  0.23113213E+00  0.23018746E+00  0.22925556E+00  0.22833834E+00
  0.22743760E+00  0.22655498E+00  0.22569197E+00  0.22484988E+00  0.22402985E+00
  0.22323282E+00  0.22245952E+00  0.22171048E+00  0.22098604E+00  0.22028629E+00
  0.21961113E+00  0.21896025E+00  0.21833314E+00  0.21772907E+00  0.21714716E+00
  0.21658632E+00  0.21604530E+00  0.21552272E+00  0.21501705E+00  0.21452663E+00
  0.21404971E+00  0.21358445E+00  0.21312893E+00  0.21268120E+00  0.21223927E+00
  0.21180113E+00  0.21136478E+00  0.21092828E+00  0.21048969E+00  0.21004717E+00
  0.20959896E+00  0.20914339E+00  0.20867890E+00  0.20820407E+00  0.20771762E+00
  0.20721842E+00  0.20670549E+00  0.20617803E+00  0.20563540E+00  0.20507717E+00
  0.20450305E+00  0.20391297E+00  0.20330703E+00  0.20268552E+00  0.20204887E+00
  0.20139773E+00  0.20073289E+00  0.20005527E+00  0.19936596E+00  0.19866618E+00
  0.19795724E+00  0.19724056E+00  0.19651768E+00  0.19579017E+00  0.19505968E+00
  0.19432789E+00  0.19359651E+00  0.19286726E+00  0.19214184E+00  0.19142191E+00
  0.19070912E+00  0.19000503E+00  0.18931113E+00  0.18862883E+00  0.18795942E+00
  0.18730409E+00  0.18666390E+00  0.18603979E+00  0.18543254E+00  0.18484279E+00
  0.18427102E+00  0.18371756E+00  0.18318259E+00  0.18266610E+00  0.18216794E+00
  0.18168780E+00  0.18122522E+00  0.18077958E+00  0.18035014E+00  0.17993600E+00
  0.17953617E+00  0.17914953E+00  0.17877487E+00  0.17841088E+00  0.17805620E+00
  0.17770939E+00  0.17736896E+00  0.17703340E+00  0.17670117E+00  0.17637075E+00
  0.17604061E+00  0.17570927E+00  0.17537526E+00  0.17503720E+00  0.17469377E+00
  0.17434372E+00  0.17398590E+00  0.17361928E+00  0.17324291E+00  0.17285598E+00
  0.17245781E+00  0.17204783E+00  0.17162564E+00  0.17119094E+00  0.17074362E+00
  0.17028367E+00  0.16981124E+00  0.16932662E+00  0.16883024E+00  0.16832265E+00
  0.16780452E+00  0.16727664E+00  0.16673991E+00  0.16619533E+00  0.16564396E+00
  0.16508697E+00  0.16452556E+00  0.16396102E+00  0.16339465E+00  0.16282777E+00
  0.16226175E+00  0.16169793E+00  0.16113764E+00  0.16058218E+00  0.16003282E+00
  0.15949077E+00  0.15895718E+00  0.15843312E+00  0.15791958E+00  0.15741745E+00
  0.15692753E+00  0.15645051E+00  0.15598695E+00  0.15553732E+00  0.15510194E+00
  0.15468101E+00  0.15427463E+00  0.15388273E+00  0.15350514E+00  0.15314157E+00
  0.15279159E+00  0.15245466E+00  0.15213016E+00  0.15181734E+00  0.15151535E+00
  0.15122329E+00  0.15094014E+00  0.15066486E+00  0.15039633E+00  0.15013338E+00
  0.14987483E+00  0.14961945E+00  0.14936602E+00  0.14911332E+00  0.14886014E+00
  0.14860530E+00  0.14834767E+00  0.14808613E+00  0.14781968E+00  0.14754732E+00
  0.14726819E+00  0.14698148E+00  0.14668647E+00  0.14638254E+00  0.14606920E+00
  0.14574604E+00  0.14541275E+00  0.14506917E+00  0.14471523E+00  0.14435098E+00
  0.14397657E+00  0.14359229E+00  0.14319852E+00  0.14279573E+00  0.14238450E+00
  0.14196552E+00  0.14153952E+00  0.14110733E+00  0.14066986E+00  0.14022804E+00
  0.13978288E+00  0.13933542E+00  0.13888672E+00  0.13843787E+00  0.13798996E+00
  0.13754408E+00  0.13710129E+00  0.13666265E+00  0.13622917E+00  0.13580181E+00
  0.13538148E+00  0.13496904E+00  0.13456525E+00  0.13417082E+00  0.13378637E+00
  0.13341242E+00  0.13304941E+00  0.13269768E+00  0.13235747E+00  0.13202890E+00
  0.13171202E+00  0.13140675E+00  0.13111292E+00  0.13083026E+00  0.13055839E+00
  0.13029686E+00  0.13004512E+00  0.12980255E+00  0.12956845E+00  0.12934204E+00
  0.12912251E+00  0.12890897E+00  0.12870052E+00  0.12849619E+00  0.12829501E+00
  0.12809600E+00  0.12789814E+00  0.12770046E+00  0.12750198E+00  0.12730174E+00
  0.12709882E+00  0.12689236E+00  0.12668152E+00  0.12646554E+00  0.12624371E+00
  0.12601541E+00  0.12578007E+00  0.12553722E+00  0.12528648E+00  0.12502753E+00
  0.12476016E+00  0.12448427E+00  0.12419982E+00  0.12390687E+00  0.12360560E+00
  0.12329625E+00  0.12297916E+00  0.12265475E+00  0.12232350E+00  0.12198600E+00
  0.12164287E+00  0.12129480E+00  0.12094255E+00  0.12058689E+00  0.12022867E+00
  0.11986873E+00  0.11950796E+00  0.11914724E+00  0.11878747E+00  0.11842954E+00
  0.11807432E+00  0.11772266E+00  0.11737538E+00  0.11703325E+00  0.11669701E+00
  0.11636734E+00  0.11604485E+00  0.11573011E+00  0.11542360E+00  0.11512572E+00
  0.11483681E+00  0.11455714E+00  0.11428685E+00  0.11402605E+00  0.11377474E+00
  0.11353282E+00  0.11330014E+00  0.11307645E+00  0.11286142E+00  0.11265465E+00
  0.11245568E+00  0.11226397E+00  0.11207892E+00  0.11189990E+00  0.11172621E+00
  0.11155712E+00  0.11139187E+00  0.11122967E+00  0.11106970E+00  0.11091116E+00
  0.11075321E+00  0.11059506E+00  0.11043590E+00  0.11027496E+00  0.11011149E+00
  0.10994478E+00  0.10977417E+00  0.10959904E+00  0.10941883E+00  0.10923305E+00
  0.10904125E+00  0.10884306E+00  0.10863819E+00  0.10842642E+00  0.10820759E+00
  0.10798163E+00  0.10774855E+00  0.10750843E+00  0.10726143E+00  0.10700778E+00
  0.10674779E+00  0.10648182E+00  0.10621030E+00  0.10593373E+00  0.10565265E+00
  0.10536765E+00  0.10507935E+00  0.10478843E+00  0.10449559E+00  0.10420154E+00
  0.10390701E+00  0.10361275E+00  0.10331950E+00  0.10302799E+00  0.10273894E+00
  0.10245306E+00  0.10217100E+00  0.10189341E+00  0.10162088E+00  0.10135396E+00
  0.10109314E+00  0.10083886E+00  0.10059152E+00  0.10035143E+00  0.10011884E+00
  0.99893936E-01  0.99676845E-01  0.99467609E-01  0.99266203E-01  0.99072534E-01
  0.98886436E-01  0.98707680E-01  0.98535971E-01  0.98370953E-01  0.98212215E-01
  0.98059292E-01  0.97911672E-01  0.97768800E-01  0.97630084E-01  0.97494900E-01
  0.97362601E-01  0.97232516E-01  0.97103966E-01  0.96976264E-01  0.96848724E-01
  0.96720667E-01  0.96591431E-01  0.96460372E-01  0.96326877E-01  0.96190362E-01
  0.96050285E-01  0.95906143E-01  0.95757486E-01  0.95603910E-01  0.95445069E-01
  0.95280676E-01  0.95110502E-01  0.94934383E-01  0.94752218E-01  0.94563972E-01
 gradient corrections used for XC
           5
 core charge-density (partial)
  0.80656469E+00  0.80628811E+00  0.80545892E+00  0.80407873E+00  0.80215024E+00
  0.79967720E+00  0.79666443E+00  0.79311776E+00  0.78904407E+00  0.78445120E+00
  0.77934801E+00  0.77374425E+00  0.76765063E+00  0.76107870E+00  0.75404087E+00
  0.74655036E+00  0.73862114E+00  0.73026791E+00  0.72150603E+00  0.71235152E+00
  0.70282095E+00  0.69293144E+00  0.68270057E+00  0.67214639E+00  0.66128730E+00
  0.65014203E+00  0.63872960E+00  0.62706924E+00  0.61518035E+00  0.60308246E+00
  0.59079517E+00  0.57833807E+00  0.56573076E+00  0.55299274E+00  0.54014337E+00
  0.52720186E+00  0.51418718E+00  0.50111807E+00  0.48801294E+00  0.47488989E+00
  0.46176660E+00  0.44866040E+00  0.43558811E+00  0.42256613E+00  0.40961032E+00
  0.39673603E+00  0.38395804E+00  0.37129059E+00  0.35874728E+00  0.34634113E+00
  0.33408453E+00  0.32198922E+00  0.31006630E+00  0.29832623E+00  0.28677877E+00
  0.27543306E+00  0.26429754E+00  0.25337999E+00  0.24268755E+00  0.23222668E+00
  0.22200319E+00  0.21202223E+00  0.20228835E+00  0.19280545E+00  0.18357682E+00
  0.17460515E+00  0.16589255E+00  0.15744056E+00  0.14925017E+00  0.14132184E+00
  0.13365550E+00  0.12625060E+00  0.11910611E+00  0.11222055E+00  0.10559200E+00
  0.99218134E-01  0.93096232E-01  0.87223210E-01  0.81595639E-01  0.76209765E-01
  0.71061537E-01  0.66146623E-01  0.61460436E-01  0.56998156E-01  0.52754748E-01
  0.48724989E-01  0.44903482E-01  0.41284683E-01  0.37862918E-01  0.34632400E-01
  0.31587254E-01  0.28721529E-01  0.26029220E-01  0.23504284E-01  0.21140654E-01
  0.18932258E-01  0.16873034E-01  0.14956940E-01  0.13177974E-01  0.11530179E-01
  0.10007664E-01  0.86046077E-02  0.73152724E-02  0.61340140E-02  0.50552903E-02
  0.40736696E-02  0.31838381E-02  0.23806074E-02  0.16589199E-02  0.10138551E-02
  0.44063394E-03 -0.65376722E-04 -0.50866056E-03 -0.89354879E-03 -0.12242178E-02
 -0.15046873E-02 -0.17388191E-02 -0.19303161E-02 -0.20827224E-02 -0.21994232E-02
 -0.22836455E-02 -0.23384592E-02 -0.23667786E-02 -0.23713643E-02 -0.23548251E-02
 -0.23196209E-02 -0.22680651E-02 -0.22023280E-02 -0.21244399E-02 -0.20362949E-02
 -0.19396543E-02 -0.18361509E-02 -0.17272928E-02 -0.16144678E-02 -0.14989477E-02
 -0.13818926E-02 -0.12643557E-02 -0.11472876E-02 -0.10315408E-02 -0.91787500E-03
 -0.80696080E-03 -0.69938499E-03 -0.59565491E-03 -0.49620303E-03 -0.40139146E-03
 -0.31151642E-03 -0.22681259E-03 -0.14745740E-03 -0.73575230E-04 -0.52415152E-05
  0.57513304E-04  0.11469990E-03  0.16636631E-03  0.21259436E-03  0.25349614E-03
  0.28921070E-03  0.31990085E-03  0.34575010E-03  0.36695976E-03  0.38374614E-03
  0.39633803E-03  0.40497414E-03  0.40990084E-03  0.41136998E-03  0.40963687E-03
  0.40495838E-03  0.39759126E-03  0.38779047E-03  0.37580777E-03  0.36189040E-03
  0.34627984E-03  0.32921076E-03  0.31091007E-03  0.29159611E-03  0.27147786E-03
  0.25075442E-03  0.22961441E-03  0.20823563E-03  0.18678468E-03  0.16541679E-03
  0.14427562E-03  0.12349322E-03  0.10319000E-03  0.83474853E-04  0.64445230E-04
  0.46187359E-04  0.28776479E-04  0.12277127E-04 -0.32565332E-05 -0.17780339E-04
 -0.31259729E-04 -0.43669316E-04 -0.54992426E-04 -0.65220628E-04 -0.74353240E-04
 -0.82396822E-04 -0.89364666E-04 -0.95276273E-04 -0.10015683E-03 -0.10403670E-03
 -0.10695087E-03 -0.10893848E-03 -0.11004229E-03 -0.11030821E-03 -0.10978477E-03
 -0.10852271E-03 -0.10657451E-03 -0.10399393E-03 -0.10083564E-03 -0.97154785E-04
 -0.93006637E-04 -0.88446237E-04 -0.83528066E-04 -0.78305740E-04 -0.72831726E-04
 -0.67157083E-04 -0.61331231E-04 -0.55401734E-04 -0.49414114E-04 -0.43411686E-04
 -0.37435415E-04 -0.31523794E-04 -0.25712748E-04 -0.20035554E-04 -0.14522781E-04
 -0.92022563E-05 -0.40990411E-05  0.76457029E-06  0.53690365E-05  0.96975399E-05
  0.13735942E-04  0.17472727E-04  0.20898930E-04  0.24008054E-04  0.26795985E-04
  0.29260881E-04  0.31403071E-04  0.33224934E-04  0.34730778E-04  0.35926713E-04
  0.36820519E-04  0.37421510E-04  0.37740400E-04  0.37789163E-04  0.37580894E-04
  0.37129672E-04  0.36450424E-04  0.35558787E-04  0.34470979E-04  0.33203668E-04
  0.31773846E-04  0.30198709E-04  0.28495539E-04  0.26681596E-04  0.24774009E-04
  0.22789680E-04  0.20745186E-04  0.18656698E-04  0.16539895E-04  0.14409895E-04
  0.12281187E-04  0.10167570E-04  0.80821014E-05  0.60370533E-05  0.40438707E-05
  0.21131409E-05  0.25456787E-06 -0.15230467E-05 -0.32118160E-05 -0.48047746E-05
 -0.62958796E-05 -0.76800053E-05 -0.89529335E-05 -0.10111338E-04 -0.11152766E-04
 -0.12075613E-04 -0.12879094E-04 -0.13563215E-04 -0.14128732E-04 -0.14577121E-04
 -0.14910530E-04 -0.15131740E-04 -0.15244122E-04 -0.15251585E-04 -0.15158532E-04
 -0.14969812E-04 -0.14690672E-04 -0.14326701E-04 -0.13883791E-04 -0.13368079E-04
 -0.12785904E-04 -0.12143757E-04 -0.11448236E-04 -0.10706000E-04 -0.99237273E-05
 -0.91080706E-05 -0.82656194E-05 -0.74028613E-05 -0.65261467E-05 -0.56416549E-05
 -0.47553634E-05 -0.38730192E-05 -0.30001130E-05 -0.21418560E-05 -0.13031585E-05
 -0.48861248E-06  0.29752414E-06  0.10513403E-05  0.17692822E-05  0.24481604E-05
  0.30851559E-05  0.36778219E-05  0.42240849E-05  0.47222427E-05  0.51709601E-05
  0.55692632E-05  0.59165308E-05  0.62124855E-05  0.64571813E-05  0.66509911E-05
  0.67945918E-05  0.68889491E-05  0.69353000E-05  0.69351354E-05  0.68901810E-05
  0.68023782E-05  0.66738639E-05  0.65069501E-05  0.63041032E-05  0.60679232E-05
  0.58011227E-05  0.55065061E-05  0.51869491E-05  0.48453784E-05  0.44847518E-05
  0.41080391E-05  0.37182032E-05  0.33181825E-05  0.29108734E-05  0.24991143E-05
  0.20856702E-05  0.16732184E-05  0.12643351E-05  0.86148345E-06  0.46700202E-06
  0.83095312E-07 -0.28817527E-06 -0.64489896E-06 -0.98532210E-06 -0.13078534E-05
 -0.16110679E-05 -0.18937103E-05 -0.21546964E-05 -0.23931138E-05 -0.26082221E-05
 -0.27994510E-05 -0.29663980E-05 -0.31088257E-05 -0.32266570E-05 -0.33199704E-05
 -0.33889942E-05 -0.34341002E-05 -0.34557965E-05 -0.34547197E-05 -0.34316268E-05
 -0.33873868E-05 -0.33229711E-05 -0.32394446E-05 -0.31379560E-05 -0.30197279E-05
 -0.28860469E-05 -0.27382538E-05 -0.25777334E-05 -0.24059047E-05 -0.22242109E-05
 -0.20341101E-05 -0.18370658E-05 -0.16345375E-05 -0.14279723E-05 -0.12187960E-05
 -0.10084054E-05 -0.79816065E-06 -0.58937781E-06 -0.38332247E-06 -0.18120348E-06
  0.15832636E-07  0.20670674E-06  0.39041158E-06  0.56601568E-06  0.73266671E-06
  0.88959420E-06  0.10361118E-05  0.11716186E-05  0.12956008E-05  0.14076313E-05
  0.15073703E-05  0.15945646E-05  0.16690462E-05  0.17307311E-05  0.17796171E-05
  0.18157812E-05  0.18393770E-05  0.18506312E-05  0.18498402E-05  0.18373662E-05
  0.18136327E-05  0.17791206E-05  0.17343630E-05  0.16799409E-05  0.16164778E-05
  0.15446348E-05  0.14651056E-05  0.13786110E-05  0.12858940E-05  0.11877143E-05
  0.10848433E-05  0.97805935E-06  0.86814213E-06  0.75586844E-06  0.64200722E-06
  0.52731517E-06  0.41253249E-06  0.29837877E-06  0.18554920E-06  0.74711066E-07
 -0.33499614E-07 -0.13848104E-06 -0.23966834E-06 -0.33653601E-06 -0.42860000E-06
 -0.51541948E-06 -0.59659836E-06 -0.67178646E-06 -0.74068032E-06 -0.80302381E-06
 -0.85860834E-06 -0.90727283E-06 -0.94890337E-06 -0.98343265E-06 -0.10108390E-05
 -0.10311454E-05 -0.10444180E-05 -0.10507646E-05 -0.10503328E-05 -0.10433080E-05
 -0.10299113E-05 -0.10103973E-05 -0.98505131E-06 -0.95418708E-06 -0.91814395E-06
 -0.87728416E-06 -0.83199000E-06 -0.78266093E-06 -0.72971071E-06 -0.67356444E-06
 -0.61465573E-06 -0.55342374E-06 -0.49031044E-06 -0.42575775E-06 -0.36020491E-06
 -0.29408581E-06 -0.22782653E-06 -0.16184289E-06 -0.96538237E-07 -0.32301232E-07
  0.30496082E-07  0.91500153E-07  0.15037759E-06  0.20681670E-06  0.26052878E-06
  0.31124938E-06  0.35873920E-06  0.40278498E-06  0.44320010E-06  0.47982506E-06
  0.51252775E-06  0.54120357E-06  0.56577537E-06  0.58619325E-06  0.60243413E-06
  0.61450127E-06  0.62242354E-06  0.62625464E-06  0.62607214E-06  0.62197639E-06
  0.61408937E-06  0.60255339E-06  0.58752972E-06  0.56919715E-06  0.54775044E-06
  0.52339874E-06  0.49636399E-06  0.46687920E-06  0.43518682E-06  0.40153697E-06
  0.36618574E-06  0.32939351E-06  0.29142320E-06  0.25253868E-06  0.21300305E-06
  0.17307712E-06  0.13301783E-06  0.93076785E-07  0.53498862E-07  0.14520854E-07
 -0.23629774E-07 -0.60736052E-07 -0.96592580E-07 -0.13100651E-06 -0.16379843E-06
 -0.19480313E-06 -0.22387028E-06 -0.25086502E-06 -0.27566838E-06 -0.29817767E-06
 -0.31830670E-06 -0.33598593E-06 -0.35116252E-06 -0.36380024E-06 -0.37387933E-06
 -0.38139620E-06 -0.38636314E-06 -0.38880781E-06 -0.38877276E-06 -0.38631482E-06
 -0.38150442E-06 -0.37442485E-06 -0.36517144E-06 -0.35385074E-06 -0.34057959E-06
 -0.32548416E-06 -0.30869899E-06 -0.29036599E-06 -0.27063337E-06 -0.24965461E-06
 -0.22758740E-06 -0.20459262E-06 -0.18083322E-06 -0.15647322E-06 -0.13167669E-06
 -0.10660672E-06 -0.81424469E-07 -0.56288203E-07 -0.31352415E-07 -0.67669512E-08
  0.17323798E-07  0.40781658E-07  0.63475381E-07  0.85281288E-07  0.10608386E-06
  0.12577628E-06  0.14426087E-06  0.16144950E-06  0.17726391E-06  0.19163600E-06
  0.20450799E-06  0.21583258E-06  0.22557298E-06  0.23370294E-06  0.24020666E-06
  0.24507867E-06  0.24832365E-06  0.24995617E-06  0.25000039E-06  0.24848972E-06
  0.24546642E-06  0.24098112E-06  0.23509239E-06  0.22786615E-06  0.21937518E-06
  0.20969846E-06  0.19892062E-06  0.18713126E-06  0.17442432E-06  0.16089741E-06
  0.14665115E-06  0.13178846E-06  0.11641392E-06  0.10063308E-06  0.84551777E-07
  0.68275530E-07  0.51908860E-07  0.35554689E-07  0.19313745E-07  0.32839901E-08
 -0.12439921E-07 -0.27767151E-07 -0.42611154E-07 -0.56890119E-07 -0.70527370E-07
 -0.83451733E-07 -0.95597852E-07 -0.10690648E-06 -0.11732470E-06 -0.12680614E-06
 -0.13531112E-06 -0.14280673E-06 -0.14926694E-06 -0.15467259E-06 -0.15901138E-06
 -0.16227779E-06 -0.16447301E-06 -0.16560477E-06 -0.16568719E-06 -0.16474053E-06
 -0.16279097E-06 -0.15987033E-06 -0.15601577E-06 -0.15126942E-06 -0.14567809E-06
 -0.13929282E-06 -0.13216853E-06 -0.12436362E-06 -0.11593950E-06 -0.10696018E-06
 -0.97491838E-07 -0.87602361E-07 -0.77360898E-07 -0.66837415E-07 -0.56102254E-07
 -0.45225692E-07 -0.34277518E-07 -0.23326612E-07 -0.12440547E-07 -0.16851977E-08
  0.88756292E-08  0.19180541E-07  0.29170892E-07  0.38791085E-07  0.47988855E-07
  0.56715522E-07  0.64926224E-07  0.72580114E-07  0.79640536E-07  0.86075167E-07
  0.91856134E-07  0.96960099E-07  0.10136832E-06  0.10506666E-06  0.10804562E-06
  0.11030029E-06  0.11183028E-06  0.11263967E-06  0.11273686E-06  0.11213449E-06
  0.11084923E-06  0.10890165E-06  0.10631598E-06  0.10311994E-06  0.99344448E-07
  0.95023434E-07  0.90193536E-07  0.84893838E-07  0.79165591E-07  0.73051915E-07
  0.66597505E-07  0.59848326E-07  0.52851315E-07  0.45654070E-07  0.38304553E-07
  0.30850785E-07  0.23340558E-07  0.15821142E-07  0.83390102E-08  0.93956622E-09
 -0.63331115E-08 -0.13436516E-07 -0.20329941E-07 -0.26974701E-07 -0.33334326E-07
 -0.39374748E-07 -0.45064466E-07 -0.50374690E-07 -0.55279469E-07 -0.59755800E-07
 -0.63783716E-07 -0.67346352E-07 -0.70429996E-07 -0.73024112E-07 -0.75121353E-07
 -0.76717547E-07 -0.77811667E-07 -0.78405782E-07 -0.78504988E-07 -0.78117327E-07
 -0.77253685E-07 -0.75927674E-07 -0.74155502E-07 -0.71955832E-07 -0.69349619E-07
 -0.66359948E-07 -0.63011854E-07 -0.59332133E-07 -0.55349151E-07 -0.51092644E-07
 -0.46593509E-07 -0.41883599E-07 -0.36995511E-07 -0.31962373E-07 -0.26817635E-07
 -0.21594858E-07 -0.16327506E-07 -0.11048745E-07 -0.57912463E-08 -0.58699299E-09
  0.45329012E-08  0.95383680E-08  0.14400550E-07  0.19091958E-07  0.23586612E-07
  0.27860179E-07  0.31890087E-07  0.35655642E-07  0.39138116E-07  0.42320828E-07
  0.45189216E-07  0.47730888E-07  0.49935659E-07  0.51795581E-07  0.53304951E-07
  0.54460306E-07  0.55260414E-07  0.55706236E-07  0.55800893E-07  0.55549600E-07
  0.54959610E-07  0.54040129E-07  0.52802231E-07  0.51258758E-07  0.49424214E-07
  0.47314646E-07  0.44947525E-07  0.42341613E-07  0.39516827E-07  0.36494103E-07
  0.33295244E-07  0.29942779E-07  0.26459813E-07  0.22869872E-07  0.19196758E-07
  0.15464397E-07  0.11696689E-07  0.79173675E-08  0.41498509E-08  0.41710991E-09
 -0.32584677E-08 -0.68552042E-08 -0.10352253E-07 -0.13729711E-07 -0.16968728E-07
 -0.20051601E-07 -0.22961869E-07 -0.25684388E-07 -0.28205406E-07 -0.30512624E-07
 -0.32595248E-07 -0.34444030E-07 -0.36051302E-07 -0.37410996E-07 -0.38518657E-07
 -0.39371442E-07 -0.39968116E-07 -0.40309031E-07 -0.40396101E-07 -0.40232763E-07
 -0.39823936E-07 -0.39175964E-07 -0.38296558E-07 -0.37194724E-07 -0.35880691E-07
 -0.34365831E-07 -0.32662564E-07 -0.30784276E-07 -0.28745215E-07 -0.26560393E-07
 -0.24245482E-07 -0.21816711E-07 -0.19290754E-07 -0.16684624E-07 -0.14015562E-07
 -0.11300933E-07 -0.85581095E-08 -0.58043748E-08 -0.30568123E-08 -0.33220694E-09
  0.23530532E-08  0.49830709E-08  0.75425292E-08  0.10016777E-07  0.12391905E-07
  0.14654826E-07  0.16793335E-07  0.18796174E-07  0.20653087E-07  0.22354866E-07
  0.23893392E-07  0.25261666E-07  0.26453840E-07  0.27465230E-07  0.28292329E-07
  0.28932814E-07  0.29385534E-07  0.29650511E-07  0.29728913E-07  0.29623032E-07
  0.29336257E-07  0.28873034E-07  0.28238820E-07  0.27440043E-07  0.26484039E-07
  0.25379001E-07  0.24133912E-07  0.22758482E-07  0.21263073E-07  0.19658630E-07
  0.17956607E-07  0.16168885E-07  0.14307695E-07  0.12385539E-07  0.10415112E-07
  0.84092153E-08  0.63806827E-08  0.43422987E-08  0.23067224E-08  0.28641129E-09
 -0.17064514E-08 -0.36600272E-08 -0.55628899E-08 -0.74040889E-08 -0.91732095E-08
 -0.10860429E-07 -0.12456567E-07 -0.13953133E-07 -0.15342370E-07 -0.16617286E-07
 -0.17771694E-07 -0.18800229E-07 -0.19698375E-07 -0.20462480E-07 -0.21089764E-07
 -0.21578324E-07 -0.21927133E-07 -0.22136034E-07 -0.22205731E-07 -0.22137767E-07
 -0.21934508E-07 -0.21599115E-07 -0.21135511E-07 -0.20548351E-07 -0.19842979E-07
 -0.19025387E-07 -0.18102171E-07 -0.17080481E-07 -0.15967967E-07 -0.14772730E-07
 -0.13503264E-07 -0.12168397E-07 -0.10777234E-07 -0.93390980E-08 -0.78634704E-08
 -0.63599286E-08 -0.48380882E-08 -0.33075430E-08 -0.17778069E-08 -0.25825714E-09
  0.12419216E-08  0.27137901E-08  0.41487060E-08  0.55383726E-08  0.68748842E-08
  0.81507697E-08  0.93590316E-08  0.10493183E-07  0.11547279E-07  0.12515946E-07
  0.13394408E-07  0.14178506E-07  0.14864715E-07  0.15450157E-07  0.15932611E-07
  0.16310517E-07  0.16582974E-07  0.16749741E-07  0.16811226E-07  0.16768475E-07
  0.16623160E-07  0.16377556E-07  0.16034524E-07  0.15597479E-07  0.15070368E-07
  0.14457635E-07  0.13764190E-07  0.12995368E-07  0.12156897E-07  0.11254852E-07
  0.10295617E-07  0.92858412E-08  0.82323932E-08  0.71423177E-08  0.60227897E-08
  0.48810689E-08  0.37244544E-08  0.25602394E-08  0.13956670E-08  0.23788618E-09
 -0.90608992E-09 -0.20294256E-08 -0.31255017E-08 -0.41879532E-08 -0.52107049E-08
 -0.61880044E-08 -0.71144533E-08 -0.79850350E-08 -0.87951410E-08 -0.95405932E-08
 -0.10217664E-07 -0.10823092E-07 -0.11354099E-07 -0.11808397E-07 -0.12184198E-07
 -0.12480216E-07 -0.12695672E-07 -0.12830289E-07 -0.12884289E-07 -0.12858385E-07
 -0.12753768E-07 -0.12572097E-07 -0.12315480E-07 -0.11986457E-07 -0.11587979E-07
 -0.11123382E-07 -0.10596365E-07 -0.10010962E-07 -0.93715120E-08 -0.86826289E-08
 -0.79491700E-08 -0.71762036E-08 -0.63689744E-08 -0.55328704E-08 -0.46733872E-08
 -0.37960934E-08 -0.29065959E-08 -0.20105049E-08 -0.11133997E-08 -0.22079495E-09
  0.66189216E-09  0.15293737E-08  0.23765216E-08  0.31983972E-08  0.39902787E-08
  0.47476874E-08  0.54664120E-08  0.61425309E-08  0.67724326E-08  0.73528336E-08
  0.78807947E-08  0.83537342E-08  0.87694397E-08  0.91260764E-08  0.94221941E-08
  0.96567308E-08  0.98290149E-08  0.99387638E-08  0.99860812E-08  0.99714516E-08
  0.98957324E-08  0.97601443E-08  0.95662592E-08  0.93159863E-08  0.90115562E-08
  0.86555033E-08  0.82506468E-08  0.78000696E-08  0.73070965E-08  0.67752709E-08
  0.62083301E-08  0.56101808E-08  0.49848726E-08  0.43365715E-08  0.36695336E-08
  0.29880773E-08  0.22965566E-08  0.15993340E-08  0.90075374E-09  0.20511541E-09
 -0.48335164E-09 -0.11605133E-08 -0.18223549E-08 -0.24650042E-08 -0.30847530E-08
 -0.36780785E-08 -0.42416619E-08 -0.47724066E-08 -0.52674542E-08 -0.57241991E-08
 -0.61403017E-08 -0.65136990E-08 -0.68426141E-08 -0.71255637E-08 -0.73613634E-08
 kinetic energy density (partial)
  0.15021074E+03  0.15015973E+03  0.15000681E+03  0.14975226E+03  0.14939658E+03
  0.14894046E+03  0.14838476E+03  0.14773055E+03  0.14697908E+03  0.14613178E+03
  0.14519026E+03  0.14415631E+03  0.14303186E+03  0.14181902E+03  0.14052006E+03
  0.13913738E+03  0.13767353E+03  0.13613120E+03  0.13451318E+03  0.13282240E+03
  0.13106188E+03  0.12923475E+03  0.12734423E+03  0.12539361E+03  0.12338625E+03
  0.12132558E+03  0.11921509E+03  0.11705829E+03  0.11485874E+03  0.11262002E+03
  0.11034572E+03  0.10803944E+03  0.10570478E+03  0.10334532E+03  0.10096462E+03
  0.98566214E+02  0.96153601E+02  0.93730227E+02  0.91299490E+02  0.88864728E+02
  0.86429212E+02  0.83996138E+02  0.81568626E+02  0.79149708E+02  0.76742327E+02
  0.74349332E+02  0.71973470E+02  0.69617387E+02  0.67283618E+02  0.64974591E+02
  0.62692619E+02  0.60439899E+02  0.58218511E+02  0.56030415E+02  0.53877450E+02
  0.51761335E+02  0.49683665E+02  0.47645915E+02  0.45649438E+02  0.43695465E+02
  0.41785108E+02  0.39919359E+02  0.38099095E+02  0.36325075E+02  0.34597947E+02
  0.32918245E+02  0.31286399E+02  0.29702729E+02  0.28167456E+02  0.26680700E+02
  0.25242485E+02  0.23852743E+02  0.22511316E+02  0.21217964E+02  0.19972361E+02
  0.18774107E+02  0.17622728E+02  0.16517680E+02  0.15458354E+02  0.14444080E+02
  0.13474130E+02  0.12547724E+02  0.11664033E+02  0.10822181E+02  0.10021254E+02
  0.92602980E+01  0.85383285E+01  0.78543300E+01  0.72072617E+01  0.65960608E+01
  0.60196460E+01  0.54769207E+01  0.49667768E+01  0.44880975E+01  0.40397607E+01
  0.36206414E+01  0.32296152E+01  0.28655606E+01  0.25273618E+01  0.22139108E+01
  0.19241101E+01  0.16568746E+01  0.14111335E+01  0.11858328E+01  0.97993609E+00
  0.79242715E+00  0.62231077E+00  0.46861435E+00  0.33038910E+00  0.20671107E+00
  0.96682221E-01 -0.56883655E-03 -0.85886045E-01 -0.16008531E+00 -0.22395400E+00
 -0.27825054E+00 -0.32370413E+00 -0.36101456E+00 -0.39085207E+00 -0.41385740E+00
 -0.43064182E+00 -0.44178731E+00 -0.44784678E+00 -0.44934440E+00 -0.44677594E+00
 -0.44060923E+00 -0.43128465E+00 -0.41921566E+00 -0.40478942E+00 -0.38836740E+00
 -0.37028610E+00 -0.35085773E+00 -0.33037097E+00 -0.30909174E+00 -0.28726401E+00
 -0.26511062E+00 -0.24283409E+00 -0.22061749E+00 -0.19862530E+00 -0.17700423E+00
 -0.15588416E+00 -0.13537891E+00 -0.11558719E+00 -0.96593398E-01 -0.78468482E-01
 -0.61270784E-01 -0.45046860E-01 -0.29832286E-01 -0.15652449E-01 -0.25233275E-02
  0.95477614E-02  0.20561426E-01  0.30525493E-01  0.39454316E-01  0.47368122E-01
  0.54292369E-01  0.60257139E-01  0.65296554E-01  0.69448224E-01  0.72752714E-01
  0.75253047E-01  0.76994230E-01  0.78022811E-01  0.78386461E-01  0.78133585E-01
  0.77312960E-01  0.75973400E-01  0.74163448E-01  0.71931090E-01  0.69323503E-01
  0.66386816E-01  0.63165907E-01  0.59704211E-01  0.56043562E-01  0.52224048E-01
  0.48283891E-01  0.44259347E-01  0.40184620E-01  0.36091799E-01  0.32010814E-01
  0.27969396E-01  0.23993070E-01  0.20105144E-01  0.16326725E-01  0.12676739E-01
  0.91719635E-02  0.58270743E-02  0.26546956E-02 -0.33453714E-03 -0.31319093E-02
 -0.57305515E-02 -0.81253588E-02 -0.10312905E-01 -0.12291352E-01 -0.14060359E-01
 -0.15620982E-01 -0.16975581E-01 -0.18127719E-01 -0.19082059E-01 -0.19844271E-01
 -0.20420926E-01 -0.20819405E-01 -0.21047793E-01 -0.21114793E-01 -0.21029627E-01
 -0.20801952E-01 -0.20441767E-01 -0.19959335E-01 -0.19365099E-01 -0.18669609E-01
 -0.17883447E-01 -0.17017162E-01 -0.16081204E-01 -0.15085865E-01 -0.14041228E-01
 -0.12957109E-01 -0.11843018E-01 -0.10708116E-01 -0.95611754E-02 -0.84105513E-02
 -0.72641514E-02 -0.61294125E-02 -0.50132814E-02 -0.39221988E-02 -0.28620877E-02
 -0.18383456E-02 -0.85583994E-03  0.81092762E-04  0.96864483E-03  0.18035321E-02
  0.25829858E-02  0.33047420E-02  0.39670282E-02  0.45685482E-02  0.51084648E-02
  0.55863802E-02  0.60023157E-02  0.63566893E-02  0.66502922E-02  0.68842646E-02
  0.70600706E-02  0.71794720E-02  0.72445026E-02  0.72574411E-02  0.72207848E-02
  0.71372233E-02  0.70096113E-02  0.68409435E-02  0.66343284E-02  0.63929638E-02
  0.61201122E-02  0.58190777E-02  0.54931833E-02  0.51457495E-02  0.47800738E-02
  0.43994115E-02  0.40069575E-02  0.36058297E-02  0.31990529E-02  0.27895450E-02
  0.23801038E-02  0.19733957E-02  0.15719450E-02  0.11781252E-02  0.79415143E-03
  0.42207395E-03  0.63773376E-04 -0.27904323E-03 -0.60484490E-03 -0.91227811E-03
 -0.12001671E-02 -0.14675128E-02 -0.17134914E-02 -0.19374512E-02 -0.21389090E-02
 -0.23175454E-02 -0.24731997E-02 -0.26058636E-02 -0.27156746E-02 -0.28029089E-02
 -0.28679732E-02 -0.29113968E-02 -0.29338227E-02 -0.29359991E-02 -0.29187698E-02
 -0.28830651E-02 -0.28298924E-02 -0.27603264E-02 -0.26755001E-02 -0.25765946E-02
 -0.24648305E-02 -0.23414584E-02 -0.22077498E-02 -0.20649887E-02 -0.19144628E-02
 -0.17574558E-02 -0.15952394E-02 -0.14290660E-02 -0.12601618E-02 -0.10897203E-02
 -0.91889650E-03 -0.74880089E-03 -0.58049488E-03 -0.41498602E-03 -0.25322401E-03
 -0.96097180E-04  0.55570530E-04  0.20102206E-03  0.33956923E-03  0.47059428E-03
  0.59355084E-03  0.70796451E-03  0.81343298E-03  0.90962562E-03  0.99628281E-03
  0.10732147E-02  0.11402997E-02  0.11974827E-02  0.12447727E-02  0.12822402E-02
  0.13100149E-02  0.13282820E-02  0.13372796E-02  0.13372945E-02  0.13286595E-02
  0.13117488E-02  0.12869746E-02  0.12547831E-02  0.12156502E-02  0.11700779E-02
  0.11185901E-02  0.10617284E-02  0.10000482E-02  0.93411497E-03  0.86450022E-03
  0.79177777E-03  0.71652020E-03  0.63929537E-03  0.56066311E-03  0.48117201E-03
  0.40135654E-03  0.32173420E-03  0.24280298E-03  0.16503899E-03  0.88894320E-04
  0.14795084E-04 -0.56860254E-04 -0.12570237E-03 -0.19139232E-03 -0.25362257E-03
 -0.31211778E-03 -0.36663540E-03 -0.41696600E-03 -0.46293342E-03 -0.50439472E-03
 -0.54123990E-03 -0.57339147E-03 -0.60080379E-03 -0.62346231E-03 -0.64138255E-03
 -0.65460905E-03 -0.66321407E-03 -0.66729623E-03 -0.66697905E-03 -0.66240931E-03
 -0.65375541E-03 -0.64120563E-03 -0.62496626E-03 -0.60525981E-03 -0.58232305E-03
 -0.55640515E-03 -0.52776569E-03 -0.49667275E-03 -0.46340099E-03 -0.42822977E-03
 -0.39144124E-03 -0.35331857E-03 -0.31414414E-03 -0.27419785E-03 -0.23375551E-03
 -0.19308720E-03 -0.15245591E-03 -0.11211605E-03 -0.72312224E-04 -0.33278014E-04
  0.47650938E-05  0.41608693E-04  0.77058320E-04  0.11093421E-03  0.14307195E-03
  0.17332300E-03  0.20155509E-03  0.22765259E-03  0.25151663E-03  0.27306525E-03
  0.29223334E-03  0.30897255E-03  0.32325106E-03  0.33505328E-03  0.34437947E-03
  0.35124520E-03  0.35568086E-03  0.35773098E-03  0.35745356E-03  0.35491930E-03
  0.35021077E-03  0.34342159E-03  0.33465548E-03  0.32402537E-03  0.31165240E-03
  0.29766496E-03  0.28219766E-03  0.26539036E-03  0.24738715E-03  0.22833530E-03
  0.20838434E-03  0.18768501E-03  0.16638834E-03  0.14464471E-03  0.12260294E-03
  0.10040944E-03  0.78207345E-04  0.56135783E-04  0.34329102E-04  0.12916197E-04
 -0.79801283E-05 -0.28243736E-04 -0.47765680E-04 -0.66444670E-04 -0.84187472E-04
 -0.10090926E-03 -0.11653388E-03 -0.13099411E-03 -0.14423178E-03 -0.15619790E-03
 -0.16685272E-03 -0.17616566E-03 -0.18411532E-03 -0.19068929E-03 -0.19588402E-03
 -0.19970458E-03 -0.20216440E-03 -0.20328496E-03 -0.20309543E-03 -0.20163229E-03
 -0.19893891E-03 -0.19506508E-03 -0.19006655E-03 -0.18400454E-03 -0.17694519E-03
 -0.16895902E-03 -0.16012042E-03 -0.15050706E-03 -0.14019931E-03 -0.12927973E-03
 -0.11783247E-03 -0.10594271E-03 -0.93696135E-04 -0.81178364E-04 -0.68474464E-04
 -0.55668420E-04 -0.42842659E-04 -0.30077582E-04 -0.17451129E-04 -0.50383620E-05
  0.70889168E-05  0.18862521E-04  0.30218202E-04  0.41095945E-04  0.51440221E-04
  0.61200215E-04  0.70330018E-04  0.78788776E-04  0.86540818E-04  0.93555737E-04
  0.99808446E-04  0.10527919E-03  0.10995355E-03  0.11382237E-03  0.11688169E-03
  0.11913266E-03  0.12058137E-03  0.12123872E-03  0.12112023E-03  0.12024578E-03
  0.11863947E-03  0.11632928E-03  0.11334686E-03  0.10972721E-03  0.10550842E-03
  0.10073133E-03  0.95439227E-04  0.89677501E-04  0.83493348E-04  0.76935414E-04
  0.70053469E-04  0.62898075E-04  0.55520256E-04  0.47971177E-04  0.40301827E-04
  0.32562710E-04  0.24803548E-04  0.17072999E-04  0.94183803E-05  0.18854134E-05
 -0.54820170E-05 -0.12642088E-04 -0.19555247E-04 -0.26184397E-04 -0.32495067E-04
 -0.38455559E-04 -0.44037080E-04 -0.49213846E-04 -0.53963169E-04 -0.58265528E-04
 -0.62104607E-04 -0.65467326E-04 -0.68343842E-04 -0.70727536E-04 -0.72614976E-04
 -0.74005867E-04 -0.74902980E-04 -0.75312060E-04 -0.75241728E-04 -0.74703360E-04
 -0.73710952E-04 -0.72280978E-04 -0.70432231E-04 -0.68185652E-04 -0.65564161E-04
 -0.62592464E-04 -0.59296864E-04 -0.55705065E-04 -0.51845971E-04 -0.47749482E-04
 -0.43446285E-04 -0.38967657E-04 -0.34345251E-04 -0.29610901E-04 -0.24796420E-04
 -0.19933407E-04 -0.15053058E-04 -0.10185986E-04 -0.53620437E-05 -0.61016070E-06
  0.40418148E-05  0.85672614E-05  0.12940921E-04  0.17139022E-04  0.21139395E-04
  0.24921567E-04  0.28466859E-04  0.31758451E-04  0.34781452E-04  0.37522944E-04
  0.39972023E-04  0.42119816E-04  0.43959497E-04  0.45486282E-04  0.46697413E-04
  0.47592135E-04  0.48171654E-04  0.48439089E-04  0.48399412E-04  0.48059380E-04
  0.47427451E-04  0.46513700E-04  0.45329723E-04  0.43888532E-04  0.42204446E-04
  0.40292976E-04  0.38170707E-04  0.35855170E-04  0.33364719E-04  0.30718399E-04
  0.27935817E-04  0.25037007E-04  0.22042303E-04  0.18972206E-04  0.15847255E-04
  0.12687903E-04  0.95143886E-05  0.63466239E-05  0.32040738E-05  0.10564874E-06
 -0.29304001E-05 -0.58865786E-05 -0.87462413E-05 -0.11493676E-04 -0.14114179E-04
 -0.16594128E-04 -0.18921040E-04 -0.21083626E-04 -0.23071834E-04 -0.24876890E-04
 -0.26491318E-04 -0.27908968E-04 -0.29125022E-04 -0.30135996E-04 -0.30939738E-04
 -0.31535412E-04 -0.31923476E-04 -0.32105656E-04 -0.32084909E-04 -0.31865379E-04
 -0.31452351E-04 -0.30852193E-04 -0.30072296E-04 -0.29121013E-04 -0.28007581E-04
 -0.26742056E-04 -0.25335227E-04 -0.23798543E-04 -0.22144024E-04 -0.20384182E-04
 -0.18531928E-04 -0.16600494E-04 -0.14603337E-04 -0.12554059E-04 -0.10466319E-04
 -0.83537450E-05 -0.62298575E-05 -0.41079841E-05 -0.20011840E-05  0.77827625E-07
  0.21167499E-05  0.41037642E-05  0.60275966E-05  0.78775767E-05  0.96436910E-05
  0.11316632E-04  0.12887841E-04  0.14349546E-04  0.15694797E-04  0.16917488E-04
  0.18012383E-04  0.18975127E-04  0.19802262E-04  0.20491225E-04  0.21040350E-04
  0.21448862E-04  0.21716864E-04  0.21845319E-04  0.21836029E-04  0.21691608E-04
  0.21415451E-04  0.21011701E-04  0.20485205E-04  0.19841475E-04  0.19086640E-04
  0.18227401E-04  0.17270973E-04  0.16225036E-04  0.15097680E-04  0.13897345E-04
  0.12632765E-04  0.11312909E-04  0.99469214E-05  0.85440625E-05  0.71136514E-05
  0.56650065E-05  0.42073894E-05  0.27499488E-05  0.13016669E-05 -0.12869264E-06
 -0.15326339E-05 -0.29019765E-05 -0.42288990E-05 -0.55059811E-05 -0.67262414E-05
 -0.78831720E-05 -0.89707701E-05 -0.99835657E-05 -0.10916645E-04 -0.11765671E-04
 -0.12526901E-04 -0.13197194E-04 -0.13774026E-04 -0.14255491E-04 -0.14640300E-04
 -0.14927781E-04 -0.15117872E-04 -0.15211109E-04 -0.15208611E-04 -0.15112069E-04
 -0.14923718E-04 -0.14646319E-04 -0.14283130E-04 -0.13837881E-04 -0.13314738E-04
 -0.12718274E-04 -0.12053432E-04 -0.11325490E-04 -0.10540020E-04 -0.97028527E-05
 -0.88200344E-05 -0.78977874E-05 -0.69424689E-05 -0.59605301E-05 -0.49584745E-05
 -0.39428181E-05 -0.29200484E-05 -0.18965861E-05 -0.87874670E-06  0.12729662E-06
  0.11155478E-05  0.20802219E-05  0.30157766E-05  0.39169422E-05  0.47787488E-05
  0.55965522E-05  0.63660563E-05  0.70833336E-05  0.77448431E-05  0.83474453E-05
  0.88884147E-05  0.93654496E-05  0.97766789E-05  0.10120666E-04  0.10396412E-04
  0.10603352E-04  0.10741353E-04  0.10810706E-04  0.10812121E-04  0.10746710E-04
  0.10615978E-04  0.10421806E-04  0.10166431E-04  0.98524328E-05  0.94827041E-05
  0.90604339E-05  0.85890809E-05  0.80723482E-05  0.75141566E-05  0.69186172E-05
  0.62900031E-05  0.56327206E-05  0.49512803E-05  0.42502676E-05  0.35343135E-05
  0.28080659E-05  0.20761602E-05  0.13431921E-05  0.61368932E-06 -0.10791445E-06
 -0.81730535E-06 -0.15103137E-05 -0.21829372E-05 -0.28313627E-05 -0.34519864E-05
 -0.40414327E-05 -0.45965709E-05 -0.51145309E-05 -0.55927158E-05 -0.60288143E-05
 -0.64208096E-05 -0.67669875E-05 -0.70659417E-05 -0.73165780E-05 -0.75181154E-05
 -0.76700866E-05 -0.77723353E-05 -0.78250128E-05 -0.78285719E-05 -0.77837593E-05
 -0.76916069E-05 -0.75534204E-05 -0.73707675E-05 -0.71454642E-05 -0.68795596E-05
 -0.65753196E-05 -0.62352104E-05 -0.58618795E-05 -0.54581371E-05 -0.50269364E-05
 -0.45713532E-05 -0.40945654E-05 -0.35998317E-05 -0.30904709E-05 -0.25698402E-05
 -0.20413143E-05 -0.15082647E-05 -0.97403883E-06 -0.44194012E-06  0.84791549E-07
  0.60299863E-06  0.11096240E-05  0.16017281E-05  0.20765051E-05  0.25312980E-05
  0.29636126E-05  0.33711303E-05  0.37517196E-05  0.41034463E-05  0.44245824E-05
  0.47136132E-05  0.49692440E-05  0.51904041E-05  0.53762502E-05  0.55261680E-05
  0.56397729E-05  0.57169085E-05  0.57576444E-05  0.57622720E-05  0.57313000E-05
  0.56654477E-05  0.55656374E-05  0.54329858E-05  0.52687946E-05  0.50745393E-05
  0.48518580E-05  0.46025387E-05  0.43285064E-05  0.40318092E-05  0.37146039E-05
  0.33791414E-05  0.30277512E-05  0.26628266E-05  0.22868085E-05  0.19021703E-05
  0.15114020E-05  0.11169947E-05  0.72142573E-06  0.32714332E-06 -0.63447780E-07
 -0.44800034E-06 -0.82423822E-06 -0.11899692E-05 -0.15430972E-05 -0.18816337E-05
 -0.22037082E-05 -0.25075782E-05 -0.27916379E-05 -0.30544258E-05 -0.32946320E-05
 -0.35111037E-05 -0.37028500E-05 -0.38690458E-05 -0.40090345E-05 -0.41223293E-05
 -0.42086139E-05 -0.42677424E-05 -0.42997369E-05 -0.43047858E-05 -0.42832400E-05
 -0.42356081E-05 -0.41625517E-05 -0.40648785E-05 -0.39435360E-05 -0.37996032E-05
 -0.36342822E-05 -0.34488895E-05 -0.32448460E-05 -0.30236668E-05 -0.27869509E-05
 -0.25363700E-05 -0.22736575E-05 -0.20005967E-05 -0.17190096E-05 -0.14307450E-05
 -0.11376667E-05 -0.84164230E-06 -0.54453127E-06 -0.24817406E-06  0.45619067E-07
  0.33507864E-06  0.61848621E-06  0.89418419E-06  0.11605851E-05  0.14161803E-05
  0.16595481E-05  0.18893615E-05  0.21043945E-05  0.23035288E-05  0.24857584E-05
  0.26501952E-05  0.27960720E-05  0.29227457E-05  0.30296997E-05  0.31165456E-05
  0.31830230E-05  0.32290001E-05  0.32544725E-05  0.32595615E-05  0.32445117E-05
  0.32096875E-05  0.31555698E-05  0.30827512E-05  0.29919309E-05  0.28839087E-05
  0.27595795E-05  0.26199256E-05  0.24660103E-05  0.22989699E-05  0.21200059E-05
  0.19303769E-05  0.17313897E-05  0.15243914E-05  0.13107598E-05  0.10918953E-05
  0.86921150E-06  0.64412669E-06  0.41805502E-06  0.19239793E-06 -0.31464258E-07
 -0.25218051E-06 -0.46843690E-06 -0.67896423E-06 -0.88254511E-06 -0.10780208E-05
 -0.12642974E-05 -0.14403518E-05 -0.16052370E-05 -0.17580867E-05 -0.18981200E-05
 -0.20246444E-05 -0.21370594E-05 -0.22348587E-05 -0.23176323E-05 -0.23850675E-05
 -0.24369496E-05 -0.24731620E-05 -0.24936857E-05 -0.24985979E-05 -0.24880706E-05
 -0.24623681E-05 -0.24218442E-05 -0.23669389E-05 -0.22981748E-05 -0.22161524E-05
 -0.21215460E-05 -0.20150980E-05 -0.18976140E-05 -0.17699568E-05 -0.16330404E-05
 -0.14878240E-05 -0.13353050E-05 -0.11765133E-05 -0.10125035E-05 -0.84434922E-06
 -0.67313543E-06 -0.49995218E-06 -0.32588771E-06 -0.15202179E-06  0.20580678E-07
  0.19087608E-06  0.35784813E-06  0.52051376E-06  0.67792870E-06  0.82919280E-06
  0.97345489E-06  0.11099175E-05  0.12378408E-05  0.13565468E-05  0.14654223E-05
  0.15639221E-05  0.16515714E-05  0.17279678E-05  0.17927828E-05  0.18457631E-05
  0.18867308E-05  0.19155840E-05  0.19322963E-05  0.19369159E-05  0.19295645E-05
  0.19104356E-05  0.18797924E-05  0.18379656E-05  0.17853500E-05  0.17224017E-05
  0.16496347E-05  0.15676165E-05  0.14769643E-05  0.13783408E-05  0.12724492E-05
  0.11600285E-05  0.10418489E-05  0.91870612E-06  0.79141679E-06  0.66081279E-06
  0.52773618E-06  0.39303386E-06  0.25755240E-06  0.12213276E-06 -0.12394652E-07
 -0.14521504E-06 -0.27553396E-06 -0.40258191E-06 -0.52561877E-06 -0.64393795E-06
 -0.75687032E-06 -0.86378783E-06 -0.96410683E-06 -0.10572912E-05 -0.11428548E-05
 -0.12203644E-05 -0.12894408E-05 -0.13497614E-05 -0.14010610E-05 -0.14431328E-05
 atomic pseudo charge-density
  0.50000000E+01  0.49870182E+01  0.49483140E+01  0.48846007E+01  0.47970344E+01
  0.46871684E+01  0.45568934E+01  0.44083678E+01  0.42439438E+01  0.40660922E+01
  0.38773303E+01  0.36801562E+01  0.34769917E+01  0.32701351E+01  0.30617245E+01
  0.28537111E+01  0.26478426E+01  0.24456547E+01  0.22484698E+01  0.20574021E+01
  0.18733662E+01  0.16970900E+01  0.15291292E+01  0.13698831E+01  0.12196110E+01
  0.10784490E+01  0.94642517E+00  0.82347543E+00  0.70945718E+00  0.60416251E+00
  0.50733003E+00  0.41865551E+00  0.33780147E+00  0.26440556E+00  0.19808802E+00
  0.13845803E+00  0.85119323E-01  0.37674904E-01 -0.42689518E-02 -0.41099351E-01
 -0.73194026E-01 -0.10091911E+00 -0.12462738E+00 -0.14465689E+00 -0.16133001E+00
 -0.17495272E+00 -0.18581421E+00 -0.19418673E+00 -0.20032555E+00 -0.20446919E+00
 -0.20683975E+00 -0.20764327E+00 -0.20707035E+00 -0.20529665E+00 -0.20248356E+00
 -0.19877891E+00 -0.19431762E+00 -0.18922243E+00 -0.18360464E+00 -0.17756478E+00
 -0.17119334E+00 -0.16457146E+00 -0.15777157E+00 -0.15085804E+00 -0.14388781E+00
 -0.13691096E+00 -0.12997128E+00 -0.12310677E+00 -0.11635018E+00 -0.10972945E+00
 -0.10326817E+00 -0.96985971E-01 -0.90898914E-01 -0.85019855E-01 -0.79358768E-01
 -0.73923052E-01 -0.68717814E-01 -0.63746129E-01 -0.59009278E-01 -0.54506968E-01
 -0.50237531E-01 -0.46198111E-01 -0.42384826E-01 -0.38792921E-01 -0.35416907E-01
 -0.32250684E-01 -0.29287650E-01 -0.26520808E-01 -0.23942849E-01 -0.21546238E-01
 -0.19323284E-01 -0.17266203E-01 -0.15367173E-01 -0.13618386E-01 -0.12012090E-01
 -0.10540626E-01 -0.91964606E-02 -0.79722140E-02 -0.68606822E-02 -0.58548576E-02
 -0.49479443E-02 -0.41333718E-02 -0.34048041E-02 -0.27561482E-02 -0.21815592E-02
 -0.16754437E-02 -0.12324613E-02 -0.84752511E-03 -0.51580042E-03 -0.23270213E-03
  0.61084913E-05  0.20472812E-03  0.36701644E-03  0.49660178E-03  0.59688733E-03
  0.67105778E-03  0.72208626E-03  0.75274162E-03  0.76559589E-03  0.76303185E-03
  0.74725078E-03  0.72028016E-03  0.68398143E-03  0.64005775E-03  0.59006158E-03
  0.53540235E-03  0.47735385E-03  0.41706158E-03  0.35554996E-03  0.29372933E-03
  0.23240280E-03  0.17227295E-03  0.11394824E-03  0.57949400E-04  0.47154022E-05
 -0.45390589E-04 -0.92075571E-04 -0.13511124E-03 -0.17432872E-03 -0.20961353E-03
 -0.24090075E-03 -0.26817037E-03 -0.29144288E-03 -0.31077500E-03 -0.32625574E-03
 -0.33800249E-03 -0.34615743E-03 -0.35088410E-03 -0.35236413E-03 -0.35079419E-03
 -0.34638310E-03 -0.33934917E-03 -0.32991764E-03 -0.31831834E-03 -0.30478352E-03
 -0.28954586E-03 -0.27283656E-03 -0.25488371E-03 -0.23591071E-03 -0.21613491E-03
 -0.19576632E-03 -0.17500657E-03 -0.15404787E-03 -0.13307226E-03 -0.11225079E-03
 -0.91743058E-04 -0.71696628E-04 -0.52246738E-04 -0.33516023E-04 -0.15614369E-04
  0.13611479E-05  0.17326222E-04  0.32209205E-04  0.45950902E-04  0.58504310E-04
  0.69834270E-04  0.79917075E-04  0.88740010E-04  0.96300851E-04  0.10260731E-03
  0.10767644E-03  0.11153405E-03  0.11421398E-03  0.11575751E-03  0.11621264E-03
  0.11563335E-03  0.11407897E-03  0.11161341E-03  0.10830446E-03  0.10422313E-03
  0.99442902E-04  0.94039116E-04  0.88088275E-04  0.81667427E-04  0.74853559E-04
  0.67723017E-04  0.60350959E-04  0.52810842E-04  0.45173942E-04  0.37508917E-04
  0.29881400E-04  0.22353638E-04  0.14984169E-04  0.78275425E-05  0.93407645E-06
 -0.56503383E-05 -0.11884397E-04 -0.17731499E-04 -0.23159823E-04 -0.28142367E-04
 -0.32656951E-04 -0.36686178E-04 -0.40217371E-04 -0.43242466E-04 -0.45757883E-04
 -0.47764365E-04 -0.49266792E-04 -0.50273969E-04 -0.50798394E-04 -0.50856010E-04
 -0.50465936E-04 -0.49650186E-04 -0.48433377E-04 -0.46842430E-04 -0.44906258E-04
 -0.42655465E-04 -0.40122023E-04 -0.37338970E-04 -0.34340101E-04 -0.31159665E-04
 -0.27832071E-04 -0.24391609E-04 -0.20872171E-04 -0.17306997E-04 -0.13728428E-04
 -0.10167678E-04 -0.66546213E-05 -0.32176026E-05  0.11674058E-06  0.33236307E-05
  0.63802842E-05  0.92660254E-05  0.11962379E-04  0.14453142E-04  0.16724433E-04
  0.18764729E-04  0.20564868E-04  0.22118046E-04  0.23419789E-04  0.24467907E-04
  0.25262433E-04  0.25805544E-04  0.26101471E-04  0.26156390E-04  0.25978308E-04
  0.25576930E-04  0.24963522E-04  0.24150764E-04  0.23152598E-04  0.21984067E-04
  0.20661157E-04  0.19200625E-04  0.17619841E-04  0.15936616E-04  0.14169044E-04
  0.12335335E-04  0.10453666E-04  0.85420207E-05  0.66180524E-05  0.46989416E-05
  0.28012682E-05  0.94089092E-06 -0.86716352E-06 -0.26088008E-05 -0.42709486E-05
 -0.58416345E-05 -0.73100533E-05 -0.86666215E-05 -0.99030206E-05 -0.11012229E-04
 -0.11988539E-04 -0.12827570E-04 -0.13526259E-04 -0.14082849E-04 -0.14496868E-04
 -0.14769085E-04 -0.14901477E-04 -0.14897166E-04 -0.14760365E-04 -0.14496304E-04
 -0.14111162E-04 -0.13611979E-04 -0.13006573E-04 -0.12303452E-04 -0.11511720E-04
 -0.10640981E-04 -0.97012398E-05 -0.87028107E-05 -0.76562146E-05 -0.65720852E-05
 -0.54610739E-05 -0.43337578E-05 -0.32005510E-05 -0.20716197E-05 -0.95680158E-06
  0.13446944E-06  0.11932332E-05  0.22110671E-05  0.31801439E-05  0.40932824E-05
  0.49439916E-05  0.57265074E-05  0.64358227E-05  0.70677097E-05  0.76187348E-05
  0.80862670E-05  0.84684783E-05  0.87643382E-05  0.89736008E-05  0.90967856E-05
  0.91351527E-05  0.90906715E-05  0.89659853E-05  0.87643697E-05  0.84896877E-05
  0.81463406E-05  0.77392153E-05  0.72736291E-05  0.67552722E-05  0.61901483E-05
  0.55845142E-05  0.49448187E-05  0.42776415E-05  0.35896323E-05  0.28874512E-05
  0.21777102E-05  0.14669169E-05  0.76142010E-06  0.67358860E-07 -0.60938622E-06
 -0.12632376E-05 -0.18889618E-05 -0.24817069E-05 -0.30370346E-05 -0.35509496E-05
 -0.40199226E-05 -0.44409103E-05 -0.48113694E-05 -0.51292668E-05 -0.53930846E-05
 -0.56018210E-05 -0.57549857E-05 -0.58525926E-05 -0.58951463E-05 -0.58836267E-05
 -0.58194679E-05 -0.57045352E-05 -0.55410980E-05 -0.53318001E-05 -0.50796275E-05
 -0.47878740E-05 -0.44601046E-05 -0.41001180E-05 -0.37119071E-05 -0.32996198E-05
 -0.28675184E-05 -0.24199396E-05 -0.19612544E-05 -0.14958288E-05 -0.10279854E-05
 -0.56196651E-06 -0.10189834E-06  0.34824246E-06  0.78466053E-06  0.12037710E-05
  0.16022264E-05  0.19769406E-05  0.23251099E-05  0.26442318E-05  0.29321196E-05
  0.31869150E-05  0.34070966E-05  0.35914862E-05  0.37392509E-05  0.38499029E-05
  0.39232960E-05  0.39596192E-05  0.39593876E-05  0.39234301E-05  0.38528755E-05
  0.37491358E-05  0.36138868E-05  0.34490481E-05  0.32567603E-05  0.30393613E-05
  0.27993609E-05  0.25394152E-05  0.22622995E-05  0.19708812E-05  0.16680925E-05
  0.13569025E-05  0.10402905E-05  0.72121910E-06  0.40260847E-06  0.87311025E-07
 -0.22191222E-06 -0.52241428E-06 -0.81168325E-06 -0.10873618E-05 -0.13472646E-05
 -0.15893944E-05 -0.18119556E-05 -0.20133658E-05 -0.21922656E-05 -0.23475258E-05
 -0.24782528E-05 -0.25837912E-05 -0.26637251E-05 -0.27178761E-05 -0.27463009E-05
 -0.27492848E-05 -0.27273352E-05 -0.26811720E-05 -0.26117171E-05 -0.25200816E-05
 -0.24075523E-05 -0.22755765E-05 -0.21257458E-05 -0.19597790E-05 -0.17795039E-05
 -0.15868391E-05 -0.13837749E-05 -0.11723540E-05 -0.95465237E-06 -0.73275989E-06
 -0.50876149E-06 -0.28471866E-06 -0.62651474E-07  0.15547858E-06  0.36778496E-06
  0.57247137E-06  0.76784606E-06  0.95233477E-06  0.11244925E-05  0.12830139E-05
  0.14267421E-05  0.15546758E-05  0.16659759E-05  0.17599690E-05  0.18361505E-05
  0.18941859E-05  0.19339101E-05  0.19553261E-05  0.19586008E-05  0.19440614E-05
  0.19121883E-05  0.18636087E-05  0.17990873E-05  0.17195176E-05  0.16259106E-05
  0.15193844E-05  0.14011511E-05  0.12725048E-05  0.11348085E-05  0.98948007E-06
  0.83797882E-06  0.68179163E-06  0.52241900E-06  0.36136143E-06  0.20010591E-06
  0.40112898E-07 -0.11719631E-06 -0.27045154E-06 -0.41834508E-06 -0.55964221E-06
 -0.69319093E-06 -0.81793070E-06 -0.93290022E-06 -0.10372443E-05 -0.11302193E-05
 -0.12111980E-05 -0.12796730E-05 -0.13352588E-05 -0.13776933E-05 -0.14068377E-05
 -0.14226755E-05 -0.14253103E-05 -0.14149629E-05 -0.13919667E-05 -0.13567633E-05
 -0.13098960E-05 -0.12520030E-05 -0.11838105E-05 -0.11061241E-05 -0.10198202E-05
 -0.92583685E-06 -0.82516441E-06 -0.71883534E-06 -0.60791443E-06 -0.49348851E-06
 -0.37665638E-06 -0.25851865E-06 -0.14016783E-06 -0.22678687E-07  0.92901135E-07
  0.20556003E-06  0.31433088E-06  0.41829897E-06  0.51660925E-06  0.60847298E-06
  0.69317365E-06  0.77007213E-06  0.83861103E-06  0.89831830E-06  0.94880996E-06
  0.98979197E-06  0.10210613E-05  0.10425063E-05  0.10541057E-05  0.10559276E-05
  0.10481274E-05  0.10309443E-05  0.10046981E-05  0.96978512E-06  0.92667263E-06
  0.87589402E-06  0.81804260E-06  0.75376521E-06  0.68375553E-06  0.60874698E-06
  0.52950547E-06  0.44682189E-06  0.36150461E-06  0.27437185E-06  0.18624417E-06
  0.97937045E-07  0.10253576E-07 -0.76022511E-07 -0.16013360E-06 -0.24135458E-06
 -0.31899880E-06 -0.39242362E-06 -0.46103545E-06 -0.52429428E-06 -0.58171760E-06
 -0.63288382E-06 -0.67743505E-06 -0.71507918E-06 -0.74559148E-06 -0.76881548E-06
 -0.78466318E-06 -0.79311476E-06 -0.79421759E-06 -0.78808468E-06 -0.77489256E-06
 -0.75487863E-06 -0.72833803E-06 -0.69561997E-06 -0.65712372E-06 -0.61329418E-06
 -0.56461707E-06 -0.51161395E-06 -0.45483682E-06 -0.39486273E-06 -0.33228813E-06
 -0.26772314E-06 -0.20178586E-06 -0.13509667E-06 -0.68272528E-07 -0.19215519E-08
  0.63362392E-07  0.12700479E-06  0.18845534E-06  0.24719256E-06  0.30272796E-06
  0.35461001E-06  0.40242751E-06  0.44581273E-06  0.48444398E-06  0.51804779E-06
  0.54640060E-06  0.56932995E-06  0.58671525E-06  0.59848802E-06  0.60463164E-06
  0.60518072E-06  0.60021993E-06  0.58988246E-06  0.57434802E-06  0.55384048E-06
  0.52862515E-06  0.49900572E-06  0.46532091E-06  0.42794084E-06  0.38726322E-06
  0.34370929E-06  0.29771965E-06  0.24974998E-06  0.20026670E-06  0.14974255E-06
  0.98652248E-07  0.47468163E-07 -0.33439131E-08 -0.53328874E-07 -0.10204624E-06
 -0.14907391E-06 -0.19401169E-06 -0.23648455E-06 -0.27614565E-06 -0.31267901E-06
 -0.34580189E-06 -0.37526683E-06 -0.40086332E-06 -0.42241917E-06 -0.43980144E-06
 -0.45291702E-06 -0.46171289E-06 -0.46617597E-06 -0.46633259E-06 -0.46224769E-06
 -0.45402362E-06 -0.44179861E-06 -0.42574502E-06 -0.40606723E-06 -0.38299929E-06
 -0.35680238E-06 -0.32776201E-06 -0.29618509E-06 -0.26239679E-06 -0.22673737E-06
 -0.18955884E-06 -0.15122163E-06 -0.11209116E-06 -0.72534504E-07 -0.32917017E-07
  0.64009212E-08  0.45067100E-07  0.82740534E-07  0.11909438E-06  0.15381867E-06
  0.18662288E-06  0.21723824E-06  0.24541983E-06  0.27094847E-06  0.29363230E-06
  0.31330809E-06  0.32984230E-06  0.34313186E-06  0.35310460E-06  0.35971950E-06
  0.36296653E-06  0.36286635E-06  0.35946962E-06  0.35285610E-06  0.34313351E-06
  0.33043613E-06  0.31492320E-06  0.29677712E-06  0.27620141E-06  0.25341863E-06
  0.22866803E-06  0.20220315E-06  0.17428935E-06  0.14520118E-06  0.11521982E-06
  0.84630394E-07  0.53719353E-07  0.22771868E-07 -0.79307379E-08 -0.38113474E-07
 -0.67510081E-07 -0.95865304E-07 -0.12293705E-06 -0.14849838E-06 -0.17233934E-06
 -0.19426861E-06 -0.21411498E-06 -0.23172859E-06 -0.24698196E-06 -0.25977087E-06
 -0.27001491E-06 -0.27765791E-06 -0.28266804E-06 -0.28503780E-06 -0.28478372E-06
 -0.28194586E-06 -0.27658709E-06 -0.26879223E-06 -0.25866694E-06 -0.24633647E-06
 -0.23194426E-06 -0.21565037E-06 -0.19762977E-06 -0.17807060E-06 -0.15717224E-06
 -0.13514333E-06 -0.11219980E-06 -0.88562778E-07 -0.64456533E-07 -0.40106385E-07
 -0.15736664E-07  0.84313071E-08  0.32181173E-07  0.55303430E-07  0.77597226E-07
  0.98872055E-07  0.11894933E-06  0.13766384E-06  0.15486503E-06  0.17041819E-06
  0.18420543E-06  0.19612650E-06  0.20609948E-06  0.21406124E-06  0.21996773E-06
  0.22379416E-06  0.22553491E-06  0.22520333E-06  0.22283135E-06  0.21846894E-06
  0.21218338E-06  0.20405846E-06  0.19419343E-06  0.18270194E-06  0.16971077E-06
  0.15535853E-06  0.13979423E-06  0.12317578E-06  0.10566846E-06  0.87443310E-07
  0.68675491E-07  0.49542666E-07  0.30223344E-07  0.10895261E-07 -0.82662210E-08
 -0.27089665E-07 -0.45409058E-07 -0.63065232E-07 -0.79907217E-07 -0.95793488E-07
 -0.11059312E-06 -0.12418681E-06 -0.13646783E-06 -0.14734279E-06 -0.15673231E-06
 -0.16457153E-06 -0.17081054E-06 -0.17541458E-06 -0.17836418E-06 -0.17965509E-06
 -0.17929817E-06 -0.17731903E-06 -0.17375761E-06 -0.16866766E-06 -0.16211600E-06
 -0.15418181E-06 -0.14495569E-06 -0.13453872E-06 -0.12304139E-06 -0.11058246E-06
 -0.97287802E-07 -0.83289156E-07 -0.68722848E-07 -0.53728506E-07 -0.38447752E-07
 -0.23022892E-07 -0.75956215E-08  0.76942463E-08  0.22710020E-07  0.37319323E-07
  0.51395233E-07  0.64817356E-07  0.77472826E-07  0.89257224E-07  0.10007541E-06
  0.10984226E-06  0.11848330E-06  0.12593522E-06  0.13214634E-06  0.13707688E-06
  0.14069917E-06  0.14299776E-06  0.14396938E-06  0.14362278E-06  0.14197856E-06
  0.13906876E-06  0.13493646E-06  0.12963522E-06  0.12322846E-06  0.11578879E-06
  0.10739718E-06  0.98142138E-07  0.88118841E-07  0.77428142E-07  0.66175610E-07
  0.54470504E-07  0.42424744E-07  0.30151857E-07  0.17765938E-07  0.53806041E-08
 -0.68920195E-08 -0.18942297E-07 -0.30664038E-07 -0.41955412E-07 -0.52719813E-07
 -0.62866661E-07 -0.72312144E-07 -0.80979885E-07 -0.88801537E-07 -0.95717293E-07
 -0.10167632E-06 -0.10663708E-06 -0.11056763E-06 -0.11344574E-06 -0.11525899E-06
 -0.11600474E-06 -0.11569004E-06 -0.11433144E-06 -0.11195471E-06 -0.10859450E-06
 -0.10429388E-06 -0.99103902E-07 -0.93082961E-07 -0.86296228E-07 -0.78814955E-07
 -0.70715750E-07 -0.62079821E-07 -0.52992182E-07 -0.43540837E-07 -0.33815944E-07
 -0.23908975E-07 -0.13911876E-07 -0.39162245E-08  0.59875870E-08  0.15711155E-07
  0.25168835E-07  0.34278484E-07  0.42962149E-07  0.51146725E-07  0.58764549E-07
  0.65753942E-07  0.72059687E-07  0.77633447E-07  0.82434114E-07  0.86428086E-07
  0.89589473E-07  0.91900237E-07  0.93350250E-07  0.93937289E-07  0.93666951E-07
  0.92552506E-07  0.90614680E-07  0.87881372E-07  0.84387311E-07  0.80173659E-07
  0.75287554E-07  0.69781614E-07  0.63713387E-07  0.57144777E-07  0.50141424E-07
  0.42772068E-07  0.35107889E-07  0.27221836E-07  0.19187943E-07  0.11080653E-07
  0.29741343E-08 -0.50583769E-08 -0.12945232E-07 -0.20616992E-07 -0.28007028E-07
 -0.35052088E-07 -0.41692821E-07 -0.47874269E-07 -0.53546300E-07 -0.58664010E-07
 -0.63188054E-07 -0.67084933E-07 -0.70327228E-07 -0.72893766E-07 -0.74769735E-07
 -0.75946740E-07 -0.76422796E-07 -0.76202267E-07 -0.75295751E-07 -0.73719902E-07
 -0.71497206E-07 -0.68655709E-07 -0.65228692E-07 -0.61254307E-07 -0.56775173E-07
 -0.51837936E-07 -0.46492801E-07 -0.40793029E-07 -0.34794428E-07 -0.28554812E-07
 -0.22133457E-07 -0.15590551E-07 -0.89866356E-08 -0.23820607E-08  0.41635594E-08
  0.10591874E-07  0.16846304E-07  0.22872534E-07  0.28618971E-07  0.34037173E-07
  0.39082255E-07  0.43713241E-07  0.47893388E-07  0.51590470E-07  0.54777003E-07
  0.57430445E-07  0.59533329E-07  0.61073368E-07  0.62043492E-07  0.62441856E-07
  0.62271789E-07  0.61541702E-07  0.60264951E-07  0.58459653E-07  0.56148471E-07
  0.53358348E-07  0.50120218E-07  0.46468676E-07  0.42441624E-07  0.38079887E-07
  0.33426813E-07  0.28527852E-07  0.23430119E-07  0.18181953E-07  0.12832467E-07
  0.74310927E-08  0.20271373E-08 -0.33306620E-08 -0.85945687E-08 -0.13718264E-07
 -0.18657249E-07 -0.23369217E-07 -0.27814417E-07 -0.31955971E-07 -0.35760179E-07
 -0.39196781E-07 -0.42239184E-07 -0.44864667E-07 -0.47054529E-07 -0.48794215E-07
 -0.50073395E-07 -0.50886010E-07 -0.51230270E-07 -0.51108624E-07 -0.50527683E-07
 -0.49498117E-07 -0.48034504E-07 -0.46155158E-07 -0.43881915E-07 -0.41239901E-07
 -0.38257258E-07 -0.34964865E-07 -0.31396021E-07 -0.27586118E-07 -0.23572302E-07
 -0.19393110E-07 -0.15088118E-07 -0.10697564E-07 -0.62619797E-08 -0.18218280E-08
  0.25828662E-08  0.69128674E-08  0.11130073E-07  0.15197845E-07  0.19081316E-07
  0.22747691E-07  0.26166508E-07  0.29309890E-07  0.32152766E-07  0.34673058E-07
  0.36851848E-07  0.38673512E-07  0.40125817E-07  0.41199996E-07  0.41890781E-07
  0.42196415E-07  0.42118622E-07  0.41662554E-07  0.40836701E-07  0.39652779E-07
  0.38125586E-07  0.36272831E-07  0.34114945E-07  0.31674863E-07  0.28977789E-07
  0.26050944E-07  0.22923298E-07  0.19625291E-07  0.16188538E-07  0.12645538E-07
  0.90293669E-08  0.53733765E-08  0.17108917E-08 -0.19250887E-08 -0.55021844E-08
   19.8421228800787      T
 Non local Part
           0           2   1.02412568047728     
   10.1930870350275        12.6622507437899        12.6622507437899     
   15.7314763067456     
 Reciprocal Space Part
  0.11402921E+03  0.11296631E+03  0.10979513E+03  0.10456787E+03  0.97370410E+02
  0.88320727E+02  0.77566629E+02  0.65282995E+02  0.51668485E+02  0.36941840E+02
  0.21337826E+02  0.51029075E+01 -0.11509250E+02 -0.28242362E+02 -0.44842108E+02
 -0.61060600E+02 -0.76660673E+02 -0.91419900E+02 -0.10513426E+03 -0.11762137E+03
 -0.12872328E+03 -0.13830871E+03 -0.14627473E+03 -0.15254788E+03 -0.15708468E+03
 -0.15987156E+03 -0.16092422E+03 -0.16028642E+03 -0.15802829E+03 -0.15424418E+03
 -0.14905007E+03 -0.14258070E+03 -0.13498640E+03 -0.12642969E+03 -0.11708183E+03
 -0.10711932E+03 -0.96720334E+02 -0.86061412E+02 -0.75314199E+02 -0.64642478E+02
 -0.54199472E+02 -0.44125483E+02 -0.34545897E+02 -0.25569592E+02 -0.17287751E+02
 -0.97731074E+01 -0.30795993E+01  0.27575614E+01  0.77214364E+01  0.11812549E+02
  0.15047747E+02  0.17458788E+02  0.19090682E+02  0.19999853E+02  0.20252158E+02
  0.19920831E+02  0.19084387E+02  0.17824542E+02  0.16224206E+02  0.14365574E+02
  0.12328365E+02  0.10188239E+02  0.80154157E+01  0.58735224E+01  0.38186738E+01
  0.18988010E+01  0.15322410E+00 -0.13875342E+01 -0.27017067E+01 -0.37760265E+01
 -0.46052812E+01 -0.51916980E+01 -0.55441892E+01 -0.56774865E+01 -0.56111934E+01
 -0.53687873E+01 -0.49766004E+01 -0.44628082E+01 -0.38564517E+01 -0.31865174E+01
 -0.24810957E+01 -0.17666348E+01 -0.10673044E+01 -0.40447686E+00  0.20366628E+00
  0.74240210E+00  0.12006098E+01  0.15707953E+01  0.18490047E+01  0.20346387E+01
  0.21301795E+01  0.21408455E+01  0.20741906E+01  0.19396623E+01  0.17481366E+01
  0.15114450E+01  0.12419094E+01  0.95189745E+00  0.65341195E+00  0.35772367E+00
 Real Space Part
 -0.84555395E+03 -0.84516446E+03 -0.84399628E+03 -0.84205026E+03 -0.83932785E+03
 -0.83583107E+03 -0.83156255E+03 -0.82652550E+03 -0.82072380E+03 -0.81416194E+03
 -0.80684508E+03 -0.79877909E+03 -0.78997054E+03 -0.78042675E+03 -0.77015583E+03
 -0.75916670E+03 -0.74746913E+03 -0.73507379E+03 -0.72199227E+03 -0.70823715E+03
 -0.69382203E+03 -0.67876159E+03 -0.66307162E+03 -0.64676907E+03 -0.62987213E+03
 -0.61240026E+03 -0.59437422E+03 -0.57581616E+03 -0.55674968E+03 -0.53719981E+03
 -0.51719315E+03 -0.49675782E+03 -0.47592360E+03 -0.45472190E+03 -0.43318583E+03
 -0.41135021E+03 -0.38925162E+03 -0.36692838E+03 -0.34442062E+03 -0.32177021E+03
 -0.29902080E+03 -0.27621778E+03 -0.25340825E+03 -0.23064098E+03 -0.20796633E+03
 -0.18543618E+03 -0.16310382E+03 -0.14102384E+03 -0.11925199E+03 -0.97845005E+02
 -0.76860421E+02 -0.56356359E+02 -0.36391280E+02 -0.17023718E+02  0.16880239E+01
  0.19686198E+02  0.36913970E+02  0.53315809E+02  0.68837899E+02  0.83428577E+02
  0.97038804E+02  0.10962265E+03  0.12113779E+03  0.13154603E+03  0.14081386E+03
  0.14891294E+03  0.15582064E+03  0.16152060E+03  0.16600316E+03  0.16926589E+03
  0.17131399E+03  0.17216070E+03  0.17182759E+03  0.17034488E+03  0.16775156E+03
  0.16409557E+03  0.15943374E+03  0.15383172E+03  0.14736381E+03  0.14011260E+03
  0.13216855E+03  0.12362952E+03  0.11460002E+03  0.10519054E+03  0.95516619E+02
  0.85697969E+02  0.75857382E+02  0.66119693E+02  0.56610591E+02  0.47455474E+02
  0.38778242E+02  0.30700107E+02  0.23338432E+02  0.16805599E+02  0.11207914E+02
  0.66447457E+01  0.32074954E+01  0.97496963E+00  0.36871773E-01  0.00000000E+00
 Reciprocal Space Part
 -0.86089778E+02 -0.85248454E+02 -0.82738411E+02 -0.78601170E+02 -0.72905056E+02
 -0.65743904E+02 -0.57235283E+02 -0.47518279E+02 -0.36750884E+02 -0.25107040E+02
 -0.12773409E+02  0.54071494E-01  0.13173774E+02  0.26382034E+02  0.39476791E+02
  0.52261157E+02  0.64546831E+02  0.76157291E+02  0.86930712E+02  0.96722553E+02
  0.10540775E+03  0.11288252E+03  0.11906569E+03  0.12389955E+03  0.12735031E+03
  0.12940798E+03  0.13008589E+03  0.12941971E+03  0.12746607E+03  0.12430089E+03
  0.12001727E+03  0.11472319E+03  0.10853899E+03  0.10159470E+03  0.94027220E+02
  0.85977522E+02  0.77587887E+02  0.68999182E+02  0.60348307E+02  0.51765814E+02
  0.43373762E+02  0.35283839E+02  0.27595778E+02  0.20396085E+02  0.13757107E+02
  0.77364312E+01  0.23766189E+01 -0.22947325E+01 -0.62646216E+01 -0.95339868E+01
 -0.12116794E+02 -0.14038897E+02 -0.15336714E+02 -0.16055750E+02 -0.16249016E+02
 -0.15975378E+02 -0.15297885E+02 -0.14282105E+02 -0.12994519E+02 -0.11500999E+02
 -0.98654007E+01 -0.81483000E+01 -0.64058923E+01 -0.46890721E+01 -0.30427029E+01
 -0.15050827E+01 -0.10760634E+00  0.11253805E+01  0.21765441E+01  0.30353560E+01
  0.36977325E+01  0.41655414E+01  0.44459955E+01  0.45509581E+01  0.44961836E+01
  0.43005182E+01  0.39850833E+01  0.35724661E+01  0.30859370E+01  0.25487137E+01
  0.19832883E+01  0.14108309E+01  0.85068071E+00  0.31993264E+00 -0.16687715E+00
 -0.59798435E+00 -0.96451033E+00 -0.12604807E+01 -0.14827553E+01 -0.16308787E+01
 -0.17068605E+01 -0.17148991E+01 -0.16610599E+01 -0.15529212E+01 -0.13992017E+01
 -0.12093824E+01 -0.99333326E+00 -0.76095819E+00 -0.52186618E+00 -0.28507778E+00
 Real Space Part
  0.68421207E+03  0.68389841E+03  0.68295763E+03  0.68139044E+03  0.67919799E+03
  0.67638190E+03  0.67294430E+03  0.66888777E+03  0.66421542E+03  0.65893087E+03
  0.65303827E+03  0.64654233E+03  0.63944834E+03  0.63176220E+03  0.62349040E+03
  0.61464014E+03  0.60521926E+03  0.59523633E+03  0.58470069E+03  0.57362244E+03
  0.56201251E+03  0.54988270E+03  0.53724570E+03  0.52411515E+03  0.51050564E+03
  0.49643283E+03  0.48191340E+03  0.46696515E+03  0.45160703E+03  0.43585917E+03
  0.41974293E+03  0.40328092E+03  0.38649705E+03  0.36941657E+03  0.35206608E+03
  0.33447355E+03  0.31666838E+03  0.29868135E+03  0.28054469E+03  0.26229206E+03
  0.24395851E+03  0.22558053E+03  0.20719595E+03  0.18884396E+03  0.17056501E+03
  0.15240079E+03  0.13439413E+03  0.11658889E+03  0.99029860E+02  0.81762646E+02
  0.64833484E+02  0.48289086E+02  0.32176443E+02  0.16542608E+02  0.14344513E+01
 -0.13101595E+02 -0.27019830E+02 -0.40275591E+02 -0.52825587E+02 -0.64628253E+02
 -0.75644120E+02 -0.85836209E+02 -0.95170435E+02 -0.10361602E+03 -0.11114593E+03
 -0.11773729E+03 -0.12337179E+03 -0.12803615E+03 -0.13172249E+03 -0.13442868E+03
 -0.13615875E+03 -0.13692315E+03 -0.13673905E+03 -0.13563052E+03 -0.13362871E+03
 -0.13077192E+03 -0.12710559E+03 -0.12268227E+03 -0.11756143E+03 -0.11180919E+03
 -0.10549805E+03 -0.98706373E+02 -0.91517932E+02 -0.84021286E+02 -0.76309060E+02
 -0.68477242E+02 -0.60624302E+02 -0.52850368E+02 -0.45256265E+02 -0.37942603E+02
 -0.31008802E+02 -0.24552145E+02 -0.18666839E+02 -0.13443111E+02 -0.89663274E+01
 -0.53163035E+01 -0.25664733E+01 -0.78018965E+00 -0.29491256E-01  0.00000000E+00
 Non local Part
           1           2   1.02412568047728     
   3.04637079513563        4.71904544741492        4.71904544741492     
   7.32775172424774     
 Reciprocal Space Part
  0.00000000E+00  0.44098728E+01  0.87065327E+01  0.12779157E+02  0.16521651E+02
  0.19834879E+02  0.22628750E+02  0.24824091E+02  0.26354294E+02  0.27166683E+02
  0.27223573E+02  0.26503009E+02  0.24999166E+02  0.22722396E+02  0.19698939E+02
  0.15970286E+02  0.11592237E+02  0.66336535E+01  0.11749493E+01 -0.46936471E+01
 -0.10874019E+02 -0.17262233E+02 -0.23750702E+02 -0.30230404E+02 -0.36593089E+02
 -0.42733446E+02 -0.48551167E+02 -0.53952872E+02 -0.58853852E+02 -0.63179604E+02
 -0.66867114E+02 -0.69865875E+02 -0.72138627E+02 -0.73661789E+02 -0.74425611E+02
 -0.74434020E+02 -0.73704187E+02 -0.72265836E+02 -0.70160294E+02 -0.67439342E+02
 -0.64163870E+02 -0.60402385E+02 -0.56229410E+02 -0.51723811E+02 -0.46967083E+02
 -0.42041650E+02 -0.37029203E+02 -0.32009121E+02 -0.27057001E+02 -0.22243325E+02
 -0.17632298E+02 -0.13280868E+02 -0.92379416E+01 -0.55438144E+01 -0.22298101E+01
  0.68186637E+00  0.31780700E+01  0.52544617E+01  0.69150726E+01  0.81717073E+01
  0.90432058E+01  0.95545889E+01  0.97361138E+01  0.96222645E+01  0.92507067E+01
  0.86612325E+01  0.78947202E+01  0.69921351E+01  0.59935914E+01  0.49374954E+01
  0.38597862E+01  0.27932864E+01  0.17671728E+01  0.80657323E+00 -0.67709463E-01
 -0.83934497E+00 -0.14965010E+01 -0.20317525E+01 -0.24418850E+01 -0.27276042E+01
 -0.28931645E+01 -0.29459335E+01 -0.28959061E+01 -0.27551867E+01 -0.25374540E+01
 -0.22574252E+01 -0.19303333E+01 -0.15714326E+01 -0.11955417E+01 -0.81663699E+00
 -0.44750207E+00 -0.99440706E-01  0.21794379E+00  0.49690093E+00  0.73161759E+00
  0.91823722E+00  0.10548178E+01  0.11412344E+01  0.11790327E+01  0.11712425E+01
 Real Space Part
  0.00000000E+00 -0.16325202E+02 -0.32603732E+02 -0.48789040E+02 -0.64834805E+02
 -0.80695065E+02 -0.96324323E+02 -0.11167767E+03 -0.12671091E+03 -0.14138064E+03
 -0.15564443E+03 -0.16946086E+03 -0.18278971E+03 -0.19559201E+03 -0.20783019E+03
 -0.21946818E+03 -0.23047153E+03 -0.24080750E+03 -0.25044516E+03 -0.25935555E+03
 -0.26751173E+03 -0.27488890E+03 -0.28146450E+03 -0.28721831E+03 -0.29213256E+03
 -0.29619199E+03 -0.29938398E+03 -0.30169860E+03 -0.30312873E+03 -0.30367010E+03
 -0.30332142E+03 -0.30208440E+03 -0.29996382E+03 -0.29696763E+03 -0.29310698E+03
 -0.28839625E+03 -0.28285310E+03 -0.27649852E+03 -0.26935682E+03 -0.26145566E+03
 -0.25282603E+03 -0.24350224E+03 -0.23352191E+03 -0.22292589E+03 -0.21175822E+03
 -0.20006607E+03 -0.18789956E+03 -0.17531176E+03 -0.16235842E+03 -0.14909790E+03
 -0.13559093E+03 -0.12190037E+03 -0.10809101E+03 -0.94229269E+02 -0.80382859E+02
 -0.66620480E+02 -0.53011430E+02 -0.39625199E+02 -0.26531040E+02 -0.13797496E+02
 -0.14919107E+01  0.10320098E+02  0.21575180E+02  0.32212820E+02  0.42175916E+02
  0.51411372E+02  0.59870691E+02  0.67510568E+02  0.74293469E+02  0.80188192E+02
  0.85170403E+02  0.89223127E+02  0.92337192E+02  0.94511615E+02  0.95753917E+02
  0.96080376E+02  0.95516153E+02  0.94095351E+02  0.91860985E+02  0.88864782E+02
  0.85166933E+02  0.80835698E+02  0.75946870E+02  0.70583208E+02  0.64833633E+02
  0.58792476E+02  0.52558481E+02  0.46233867E+02  0.39923208E+02  0.33732355E+02
  0.27767267E+02  0.22132846E+02  0.16931793E+02  0.12263458E+02  0.82227304E+01
  0.48990903E+01  0.23755628E+01  0.72548963E+00  0.24595634E-01  0.00000000E+00
 Reciprocal Space Part
  0.00000000E+00 -0.25858305E+01 -0.51010119E+01 -0.74764051E+01 -0.96458578E+01
 -0.11547615E+02 -0.13125632E+02 -0.14330760E+02 -0.15121783E+02 -0.15466278E+02
 -0.15341279E+02 -0.14733741E+02 -0.13640784E+02 -0.12069720E+02 -0.10037857E+02
 -0.75720945E+01 -0.47083143E+01 -0.14905869E+01  0.20297923E+01  0.57954098E+01
  0.97439597E+01  0.13809559E+02  0.17924125E+02  0.22018778E+02  0.26025246E+02
  0.29877230E+02  0.33511717E+02  0.36870191E+02  0.39899733E+02  0.42553990E+02
  0.44793974E+02  0.46588703E+02  0.47915655E+02  0.48761030E+02  0.49119835E+02
  0.48995772E+02  0.48400949E+02  0.47355424E+02  0.45886595E+02  0.44028452E+02
  0.41820710E+02  0.39307856E+02  0.36538115E+02  0.33562384E+02  0.30433131E+02
  0.27203313E+02  0.23925316E+02  0.20649946E+02  0.17425497E+02  0.14296906E+02
  0.11305016E+02  0.84859548E+01  0.58706482E+01  0.34844601E+01  0.13469735E+01
 -0.52809450E+00 -0.21328450E+01 -0.34650255E+01 -0.45277424E+01 -0.53290705E+01
 -0.58815731E+01 -0.62017485E+01 -0.63094190E+01 -0.62270802E+01 -0.59792278E+01
 -0.55916787E+01 -0.50909035E+01 -0.45033853E+01 -0.38550190E+01 -0.31705636E+01
 -0.24731567E+01 -0.17839017E+01 -0.11215310E+01 -0.50215095E+00  0.60930924E-01
  0.55729712E+00  0.97943220E+00  0.13226607E+01  0.15850173E+01  0.17670564E+01
  0.18716112E+01  0.19035106E+01  0.18692653E+01  0.17767332E+01  0.16347741E+01
  0.14529045E+01  0.12409616E+01  0.10087844E+01  0.76592174E+00  0.52137012E+00
  0.28335005E+00  0.59122206E-01 -0.14515322E+00 -0.32451317E+00 -0.47524483E+00
 -0.59489663E+00 -0.68225000E+00 -0.73725544E+00 -0.76093741E+00 -0.75527325E+00
 Real Space Part
  0.00000000E+00  0.10754106E+02  0.21477698E+02  0.32140342E+02  0.42711755E+02
  0.53161883E+02  0.63460980E+02  0.73579682E+02  0.83489082E+02  0.93160810E+02
  0.10256710E+03  0.11168088E+03  0.12047582E+03  0.12892644E+03  0.13700816E+03
  0.14469736E+03  0.15197150E+03  0.15880914E+03  0.16519003E+03  0.17109519E+03
  0.17650697E+03  0.18140910E+03  0.18578678E+03  0.18962673E+03  0.19291726E+03
  0.19564834E+03  0.19781163E+03  0.19940055E+03  0.20041036E+03  0.20083817E+03
  0.20068303E+03  0.19994594E+03  0.19862992E+03  0.19674003E+03  0.19428343E+03
  0.19126937E+03  0.18770926E+03  0.18361665E+03  0.17900729E+03  0.17389907E+03
  0.16831209E+03  0.16226858E+03  0.15579296E+03  0.14891173E+03  0.14165350E+03
  0.13404887E+03  0.12613043E+03  0.11793264E+03  0.10949175E+03  0.10084571E+03
  0.92033991E+02  0.83097501E+02  0.74078389E+02  0.65019875E+02  0.55966044E+02
  0.46961632E+02  0.38051777E+02  0.29281761E+02  0.20696724E+02  0.12341366E+02
  0.42596238E+01 -0.35056691E+01 -0.10913133E+02 -0.17923212E+02 -0.24498546E+02
 -0.30604360E+02 -0.36208848E+02 -0.41283555E+02 -0.45803759E+02 -0.49748832E+02
 -0.53102589E+02 -0.55853611E+02 -0.57995534E+02 -0.59527298E+02 -0.60453358E+02
 -0.60783845E+02 -0.60534659E+02 -0.59727499E+02 -0.58389855E+02 -0.56554877E+02
 -0.54261216E+02 -0.51552777E+02 -0.48478366E+02 -0.45091331E+02 -0.41449042E+02
 -0.37612404E+02 -0.33645212E+02 -0.29613552E+02 -0.25585066E+02 -0.21628264E+02
 -0.17811758E+02 -0.14203517E+02 -0.10870116E+02 -0.78759978E+01 -0.52827485E+01
 -0.31484826E+01 -0.15271645E+01 -0.46653062E+00 -0.15788220E-01  0.00000000E+00
 PAW radial sets
         379  0.958667401852038     
(5E20.12)                                
 augmentation charges (non sperical)
 -0.219385249675E+00 -0.274273313259E+00 -0.101499933539E+00 -0.158504200327E+00 -0.274273313259E+00
 -0.342914378658E+00 -0.126533583448E+00 -0.197625105588E+00 -0.101499933539E+00 -0.126533583448E+00
 -0.394146959390E-01 -0.608640507817E-01 -0.158504200327E+00 -0.197625105588E+00 -0.608640507817E-01
 -0.939924935514E-01
 uccopancies in atom
  0.200000000075E+01  0.000000000000E+00  0.000000000000E+00  0.000000000000E+00  0.000000000000E+00
  0.000000000000E+00  0.000000000000E+00  0.000000000000E+00  0.000000000000E+00  0.000000000000E+00
  0.999999999364E+00  0.000000000000E+00  0.000000000000E+00  0.000000000000E+00  0.000000000000E+00
  0.000000000000E+00
 grid
  0.364995333669E-04  0.376864071368E-04  0.389118750808E-04  0.401771921851E-04  0.414836542452E-04
  0.428325991922E-04  0.442254084636E-04  0.456635084180E-04  0.471483717952E-04  0.486815192252E-04
  0.502645207848E-04  0.518989976061E-04  0.535866235361E-04  0.553291268512E-04  0.571282920271E-04
  0.589859615662E-04  0.609040378844E-04  0.628844852594E-04  0.649293318424E-04  0.670406717350E-04
  0.692206671339E-04  0.714715505446E-04  0.737956270686E-04  0.761952767633E-04  0.786729570797E-04
  0.812312053789E-04  0.838726415307E-04  0.865999705967E-04  0.894159856000E-04  0.923235703861E-04
  0.953257025759E-04  0.984254566151E-04  0.101626006923E-03  0.104930631142E-03  0.108342713497E-03
  0.111865748258E-03  0.115503343320E-03  0.119259223899E-03  0.123137236345E-03  0.127141352081E-03
  0.131275671672E-03  0.135544429022E-03  0.139951995712E-03  0.144502885475E-03  0.149201758820E-03
  0.154053427804E-03  0.159062860960E-03  0.164235188385E-03  0.169575706995E-03  0.175089885946E-03
  0.180783372241E-03  0.186661996507E-03  0.192731778969E-03  0.198998935614E-03  0.205469884559E-03
  0.212151252620E-03  0.219049882102E-03  0.226172837806E-03  0.233527414259E-03  0.241121143191E-03
  0.248961801244E-03  0.257057417937E-03  0.265416283888E-03  0.274046959308E-03  0.282958282761E-03
  0.292159380222E-03  0.301659674418E-03  0.311468894481E-03  0.321597085910E-03  0.332054620857E-03
  0.342852208752E-03  0.354000907269E-03  0.365512133649E-03  0.377397676394E-03  0.389669707339E-03
  0.402340794114E-03  0.415423913021E-03  0.428932462317E-03  0.442880275936E-03  0.457281637658E-03
  0.472151295737E-03  0.487504478001E-03  0.503356907450E-03  0.519724818359E-03  0.536624972897E-03
  0.554074678300E-03  0.572091804591E-03  0.590694802882E-03  0.609902724268E-03  0.629735239340E-03
  0.650212658326E-03  0.671355951893E-03  0.693186772620E-03  0.715727477176E-03  0.739001149212E-03
  0.763031623002E-03  0.787843507851E-03  0.813462213297E-03  0.839913975134E-03  0.867225882276E-03
  0.895425904504E-03  0.924542921104E-03  0.954606750445E-03  0.985648180517E-03  0.101769900046E-02
  0.105079203310E-02  0.108496116861E-02  0.112024139917E-02  0.115666885481E-02  0.119428084043E-02
  0.123311587400E-02  0.127321372597E-02  0.131461546006E-02  0.135736347526E-02  0.140150154927E-02
  0.144707488333E-02  0.149413014852E-02  0.154271553356E-02  0.159288079410E-02  0.164467730377E-02
  0.169815810673E-02  0.175337797197E-02  0.181039344948E-02  0.186926292807E-02  0.193004669525E-02
  0.199280699890E-02  0.205760811106E-02  0.212451639373E-02  0.219360036684E-02  0.226493077840E-02
  0.233858067700E-02  0.241462548657E-02  0.249314308364E-02  0.257421387709E-02  0.265792089050E-02
  0.274434984716E-02  0.283358925787E-02  0.292573051159E-02  0.302086796903E-02  0.311909905924E-02
  0.322052437944E-02  0.332524779803E-02  0.343337656095E-02  0.354502140148E-02  0.366029665371E-02
  0.377932036957E-02  0.390221443974E-02  0.402910471848E-02  0.416012115254E-02  0.429539791419E-02
  0.443507353865E-02  0.457929106597E-02  0.472819818750E-02  0.488194739715E-02  0.504069614753E-02
  0.520460701125E-02  0.537384784735E-02  0.554859197324E-02  0.572901834216E-02  0.591531172650E-02
  0.610766290695E-02  0.630626886792E-02  0.651133299929E-02  0.672306530464E-02  0.694168261635E-02
  0.716740881765E-02  0.740047507191E-02  0.764112005932E-02  0.788959022138E-02  0.814614001326E-02
  0.841103216436E-02  0.868453794739E-02  0.896693745616E-02  0.925851989246E-02  0.955958386218E-02
  0.987043768114E-02  0.101913996908E-01  0.105227985843E-01  0.108649737431E-01  0.112182755844E-01
  0.115830659203E-01  0.119597183278E-01  0.123486185319E-01  0.127501648006E-01  0.131647683521E-01
  0.135928537768E-01  0.140348594716E-01  0.144912380890E-01  0.149624570004E-01  0.154489987753E-01
  0.159513616749E-01  0.164700601628E-01  0.170056254315E-01  0.175586059467E-01  0.181295680087E-01
  0.187190963326E-01  0.193277946470E-01  0.199562863119E-01  0.206052149579E-01  0.212752451446E-01
  0.219670630415E-01  0.226813771305E-01  0.234189189317E-01  0.241804437523E-01  0.249667314603E-01
  0.257785872830E-01  0.266168426317E-01  0.274823559532E-01  0.283760136087E-01  0.292987307817E-01
  0.302514524154E-01  0.312351541798E-01  0.322508434715E-01  0.332995604452E-01  0.343823790786E-01
  0.355004082727E-01  0.366547929871E-01  0.378467154125E-01  0.390773961817E-01  0.403480956194E-01
  0.416601150327E-01  0.430147980443E-01  0.444135319679E-01  0.458577492293E-01  0.473489288331E-01
  0.488885978776E-01  0.504783331185E-01  0.521197625835E-01  0.538145672398E-01  0.555644827155E-01
  0.573713010770E-01  0.592368726641E-01  0.611631079852E-01  0.631519796736E-01  0.652055245077E-01
  0.673258454968E-01  0.695151140349E-01  0.717755721243E-01  0.741095346716E-01  0.765193918585E-01
  0.790076115892E-01  0.815767420182E-01  0.842294141595E-01  0.869683445813E-01  0.897963381876E-01
  0.927162910910E-01  0.957311935784E-01  0.988441331735E-01  0.102058297798E+00  0.105376979038E+00
  0.108803575513E+00  0.112341596357E+00  0.115994664813E+00  0.119766521941E+00  0.123661030454E+00
  0.127682178668E+00  0.131834084590E+00  0.136121000135E+00  0.140547315479E+00  0.145117563556E+00
  0.149836424698E+00  0.154708731433E+00  0.159739473429E+00  0.164933802603E+00  0.170297038404E+00
  0.175834673254E+00  0.181552378174E+00  0.187456008595E+00  0.193551610349E+00  0.199845425865E+00
  0.206343900561E+00  0.213053689442E+00  0.219981663919E+00  0.227134918842E+00  0.234520779771E+00
  0.242146810471E+00  0.250020820665E+00  0.258150874028E+00  0.266545296443E+00  0.275212684535E+00
  0.284161914464E+00  0.293402151025E+00  0.302942857028E+00  0.312793802988E+00  0.322965077136E+00
  0.333467095745E+00  0.344310613800E+00  0.355506736011E+00  0.367066928185E+00  0.379003028970E+00
  0.391327261975E+00  0.404052248292E+00  0.417191019420E+00  0.430757030607E+00  0.444764174635E+00
  0.459226796043E+00  0.474159705820E+00  0.489578196569E+00  0.505498058174E+00  0.521935593962E+00
  0.538907637408E+00  0.556431569366E+00  0.574525335875E+00  0.593207466532E+00  0.612497093472E+00
  0.632413970958E+00  0.652978495614E+00  0.674211727309E+00  0.696135410729E+00  0.718771997640E+00
  0.742144669887E+00  0.766277363127E+00  0.791194791348E+00  0.816922472173E+00  0.843486752995E+00
  0.870914837961E+00  0.899234815824E+00  0.928475688718E+00  0.958667401852E+00  0.989840874178E+00
  0.102202803005E+01  0.105526183194E+01  0.108957631416E+01  0.112500661774E+01  0.116158902640E+01
  0.119936100373E+01  0.123836123153E+01  0.127862964945E+01  0.132020749585E+01  0.136313735010E+01
  0.140746317612E+01  0.145323036741E+01  0.150048579360E+01  0.154927784835E+01  0.159965649900E+01
  0.165167333770E+01  0.170538163422E+01  0.176083639055E+01  0.181809439723E+01  0.187721429143E+01
  0.193825661711E+01  0.200128388694E+01  0.206636064635E+01  0.213355353963E+01  0.220293137818E+01
  0.227456521095E+01  0.234852839727E+01  0.242489668189E+01  0.250374827260E+01  0.258516392034E+01
  0.266922700183E+01  0.275602360503E+01  0.284564261722E+01  0.293817581613E+01  0.303371796381E+01
  0.313236690380E+01  0.323422366121E+01  0.333939254627E+01  0.344798126111E+01  0.356010101006E+01
  0.367586661354E+01  0.379539662565E+01  0.391881345556E+01  0.404624349289E+01  0.417781723713E+01
  0.431366943131E+01  0.445393919992E+01  0.459877019149E+01  0.474831072558E+01  0.490271394479E+01
  0.506213797150E+01  0.522674606985E+01  0.539670681290E+01  0.557219425532E+01  0.575338811158E+01
  0.594047394002E+01  0.613364333288E+01  0.633309411249E+01  0.653903053390E+01
 aepotential
  0.236068363041E+05  0.234359023909E+05  0.232247082673E+05  0.229747757311E+05  0.226876252279E+05
  0.223656906430E+05  0.220109632555E+05  0.216258221804E+05  0.212130374974E+05  0.207752767571E+05
  0.203150943489E+05  0.198355231592E+05  0.193393087194E+05  0.188291696744E+05  0.183079426989E+05
  0.177782865904E+05  0.172427549423E+05  0.167038008643E+05  0.161637609615E+05  0.156247923766E+05
  0.150888981228E+05  0.145579260299E+05  0.140335354530E+05  0.135172174451E+05  0.130102923509E+05
  0.125139027675E+05  0.120290328763E+05  0.115565034841E+05  0.110969871113E+05  0.106510144604E+05
  0.102189849323E+05  0.980117742686E+04  0.939776073521E+04  0.900880459375E+04  0.863429033565E+04
  0.827412131409E+04  0.792813297534E+04  0.759610220818E+04  0.727775662193E+04  0.697278219787E+04
  0.668083175583E+04  0.640153106594E+04  0.613448520205E+04  0.587928536531E+04  0.563551175393E+04
  0.540273970434E+04  0.518054152135E+04  0.496849312637E+04  0.476617153391E+04  0.457316216256E+04
  0.438906012685E+04  0.421346431086E+04  0.404599340617E+04  0.388626886051E+04  0.373393352853E+04
  0.358863475681E+04  0.345004022867E+04  0.331782701075E+04  0.319168604134E+04  0.307132500614E+04
  0.295645885005E+04  0.284682165409E+04  0.274215539933E+04  0.264221605063E+04  0.254677297231E+04
  0.245560330845E+04  0.236849819803E+04  0.228525847545E+04  0.220569481221E+04  0.212962702990E+04
  0.205688428992E+04  0.198730716661E+04  0.192074010872E+04  0.185703757732E+04  0.179606307319E+04
  0.173768523594E+04  0.168177905623E+04  0.162822886441E+04  0.157692131035E+04  0.152775153629E+04
  0.148061864583E+04  0.143542862289E+04  0.139208945253E+04  0.135051713266E+04  0.131062898229E+04
  0.127234861270E+04  0.123560279749E+04  0.120032129158E+04  0.116643829562E+04  0.113389133139E+04
  0.110262004155E+04  0.107256811613E+04  0.104368170243E+04  0.101590910814E+04  0.989201893920E+03
  0.963513176224E+03  0.938799283264E+03  0.915017703937E+03  0.892128601329E+03  0.870093565666E+03
  0.848876490436E+03  0.828442478062E+03  0.808758564102E+03  0.789793212398E+03  0.771516343561E+03
  0.753899180206E+03  0.736914291373E+03  0.720535958072E+03  0.704738500821E+03  0.689498470224E+03
  0.674792878847E+03  0.660600147432E+03  0.646899102569E+03  0.633669945712E+03  0.620893652541E+03
  0.608551806617E+03  0.596626937723E+03  0.585102308016E+03  0.573961820052E+03  0.563190098094E+03
  0.552772397737E+03  0.542694465230E+03  0.532942826422E+03  0.523504376039E+03  0.514366611380E+03
  0.505517502061E+03  0.496945507502E+03  0.488639504620E+03  0.480588828312E+03  0.472783211524E+03
  0.465212770468E+03  0.457867996078E+03  0.450739736461E+03  0.443819154225E+03  0.437097771872E+03
  0.430567377400E+03  0.424220077525E+03  0.418048251615E+03  0.412044530179E+03  0.406201820875E+03
  0.400513250859E+03  0.394972193887E+03  0.389572236585E+03  0.384307173560E+03  0.379171020476E+03
  0.374157931986E+03  0.369262332861E+03  0.364478734423E+03  0.359801866982E+03  0.355226611330E+03
  0.350747993571E+03  0.346361193797E+03  0.342061519328E+03  0.337844435351E+03  0.333705508653E+03
  0.329640442003E+03  0.325645062955E+03  0.321715292360E+03  0.317847180225E+03  0.314036859102E+03
  0.310280589113E+03  0.306574694264E+03  0.302915616590E+03  0.299299870914E+03  0.295724069682E+03
  0.292184899067E+03  0.288679131064E+03  0.285203609470E+03  0.281755263093E+03  0.278331084139E+03
  0.274928141697E+03  0.271543571874E+03  0.268174583151E+03  0.264818446232E+03  0.261472499730E+03
  0.258134148838E+03  0.254800860429E+03  0.251470167080E+03  0.248139664729E+03  0.244807012515E+03
  0.241469933276E+03  0.238126214837E+03  0.234773708338E+03  0.231410331518E+03  0.228034067430E+03
  0.224642967884E+03  0.221235152549E+03  0.217808812578E+03  0.214362211321E+03  0.210893686873E+03
  0.207401654730E+03  0.203884608980E+03  0.200341129515E+03  0.196769877134E+03  0.193169606603E+03
  0.189539163597E+03  0.185877494139E+03  0.182183641673E+03  0.178456762539E+03  0.174696121752E+03
  0.170901106362E+03  0.167071227354E+03  0.163206128863E+03  0.159305597765E+03  0.155369569511E+03
  0.151398140369E+03  0.147391578475E+03  0.143350333815E+03  0.139275055419E+03  0.135166602484E+03
  0.131026064809E+03  0.126854779237E+03  0.122654350771E+03  0.118426675927E+03  0.114173966698E+03
  0.109898777547E+03  0.105604034017E+03  0.101293061860E+03  0.969696176104E+02  0.926379170010E+02
  0.883026618122E+02  0.839690603347E+02  0.796428400752E+02  0.753302467340E+02  0.710380241347E+02
  0.667733692999E+02  0.625438536771E+02  0.583573021615E+02  0.542216223692E+02  0.501445752941E+02
  0.461334853757E+02  0.421948919050E+02  0.383341564271E+02  0.345550596133E+02  0.308594460357E+02
  0.272470131216E+02  0.237153844155E+02  0.202606519146E+02  0.168785979360E+02  0.135667855016E+02
  0.103275559346E+02  0.717171120324E+01  0.412217475754E+01  0.121643928951E+01 -0.149371313021E+01
 -0.394649594298E+01 -0.607871635775E+01 -0.783749546309E+01 -0.919251491540E+01 -0.101455146887E+02
 -0.107340144724E+02 -0.110273089098E+02 -0.111148106594E+02 -0.110896878709E+02 -0.110331787546E+02
 -0.110048823502E+02 -0.110411328858E+02 -0.111595306091E+02 -0.113658689170E+02 -0.116601886071E+02
 -0.120406625133E+02 -0.125053271576E+02 -0.130524755583E+02 -0.136804190524E+02 -0.143871615255E+02
 -0.151701785937E+02 -0.160263922297E+02 -0.169522449061E+02 -0.179438673106E+02 -0.189972273892E+02
 -0.201082660062E+02 -0.212729972107E+02 -0.224875574313E+02 -0.237482227018E+02 -0.250514056314E+02
 -0.263936114147E+02 -0.277713975090E+02 -0.291812946151E+02 -0.306197267942E+02 -0.320829057434E+02
 -0.335667024411E+02 -0.350665019389E+02 -0.365770285264E+02 -0.380921625842E+02 -0.396047476904E+02
 -0.411064266631E+02 -0.425875464805E+02 -0.440371941598E+02 -0.454434409199E+02 -0.467938813227E+02
 -0.480765239685E+02 -0.492810760689E+02 -0.504006021808E+02 -0.514334970639E+02 -0.523856422391E+02
 -0.532724095625E+02 -0.541194930524E+02 -0.549599192757E+02 -0.558221492347E+02 -0.567040039311E+02
 -0.575374186823E+02 -0.581748411143E+02 -0.584436585745E+02 -0.582637900755E+02 -0.577242990186E+02
 -0.570219948805E+02 -0.563244822328E+02 -0.557000178251E+02 -0.551423630911E+02 -0.546206287827E+02
 -0.541077631527E+02 -0.535875875124E+02 -0.530527006367E+02 -0.525007288766E+02 -0.519314348841E+02
 -0.513450499265E+02 -0.507415686538E+02 -0.501206173406E+02 -0.494816031973E+02 -0.488239402673E+02
 -0.481472378180E+02 -0.474514444822E+02 -0.467368926964E+02 -0.460043244050E+02 -0.452548546664E+02
 -0.444899176264E+02 -0.437112045257E+02 -0.429205850296E+02 -0.421200237018E+02 -0.413115072974E+02
 -0.404969513410E+02 -0.396781299124E+02 -0.388566062039E+02 -0.380336790771E+02 -0.372103585502E+02
 -0.363873685519E+02 -0.355651877597E+02 -0.347441234726E+02 -0.339244117585E+02 -0.331063297798E+02
 -0.322903058940E+02 -0.314770077412E+02 -0.306674021902E+02 -0.298627769363E+02 -0.290647259868E+02
 -0.282751026040E+02 -0.274959461988E+02 -0.267293900851E+02 -0.259775566853E+02 -0.252424466493E+02
 -0.245258289865E+02 -0.238291407208E+02 -0.231534059404E+02 -0.224991842274E+02 -0.218665562670E+02
 -0.212551496902E+02 -0.206642018830E+02 -0.200926503935E+02 -0.195392375931E+02 -0.190026154462E+02
 -0.184814384752E+02 -0.179744371498E+02 -0.174804685392E+02 -0.169985449701E+02 -0.165278440138E+02
 -0.160677043382E+02 -0.156176120731E+02 -0.151771817651E+02 -0.147461351123E+02 -0.143242797348E+02
 -0.139114894138E+02 -0.135076865810E+02 -0.131128273733E+02 -0.127268892599E+02 -0.123498610683E+02
 -0.119817351408E+02 -0.116225013249E+02 -0.112721425024E+02 -0.109306313897E+02
 core charge-density
  0.754901843372E-04  0.804429049721E-04  0.857203719165E-04  0.913438592351E-04  0.973360327547E-04
  0.103721040924E-03  0.110524611599E-03  0.117774155107E-03  0.125498874028E-03  0.133729880109E-03
  0.142500318779E-03  0.151845501747E-03  0.161803048225E-03  0.172413035313E-03  0.183718158137E-03
  0.195763900396E-03  0.208598715945E-03  0.222274222167E-03  0.236845405866E-03  0.252370842494E-03
  0.268912929573E-03  0.286538135214E-03  0.305317262719E-03  0.325325732270E-03  0.346643880830E-03
  0.369357281397E-03  0.393557082869E-03  0.419340371818E-03  0.446810557589E-03  0.476077782196E-03
  0.507259356612E-03  0.540480225116E-03  0.575873459493E-03  0.613580784979E-03  0.653753139966E-03
  0.696551271602E-03  0.742146369561E-03  0.790720740404E-03  0.842468525076E-03  0.897596462270E-03
  0.956324700546E-03  0.101888766227E-02  0.108553496259E-02  0.115653238700E-02  0.123216293100E-02
  0.131272790590E-02  0.139854811471E-02  0.148996510272E-02  0.158734248709E-02  0.169106737067E-02
  0.180155184503E-02  0.191923458835E-02  0.204458256388E-02  0.217809282528E-02  0.232029443533E-02
  0.247175050491E-02  0.263306035972E-02  0.280486184226E-02  0.298783375759E-02  0.318269847135E-02
  0.339022466919E-02  0.361123028759E-02  0.384658562598E-02  0.409721665126E-02  0.436410850604E-02
  0.464830923268E-02  0.495093372597E-02  0.527316792773E-02  0.561627327771E-02  0.598159143546E-02
  0.637054928927E-02  0.678466426835E-02  0.722554997598E-02  0.769492216188E-02  0.819460505308E-02
  0.872653806346E-02  0.929278290350E-02  0.989553111236E-02  0.105371120356E-01  0.112200012736E-01
  0.119468296257E-01  0.127203925576E-01  0.135436602195E-01  0.144197880453E-01  0.153521279625E-01
  0.163442402453E-01  0.173999060448E-01  0.185231406293E-01  0.197182073728E-01  0.209896325276E-01
  0.223422208203E-01  0.237810719116E-01  0.253115977606E-01  0.269395409369E-01  0.286709939250E-01
  0.305124194651E-01  0.324706719777E-01  0.345530201187E-01  0.367671705144E-01  0.391212927245E-01
  0.416240454843E-01  0.442846042746E-01  0.471126902730E-01  0.501186007346E-01  0.533132408534E-01
  0.567081571565E-01  0.603155724767E-01  0.641484225557E-01  0.682203943186E-01  0.725459658710E-01
  0.771404482517E-01  0.820200289858E-01  0.872018174665E-01  0.927038921976E-01  0.985453499180E-01
  0.104746356623E+00  0.111328200495E+00  0.118313346734E+00  0.125725494289E+00  0.133589634452E+00
  0.141932111297E+00  0.150780683888E+00  0.160164590217E+00  0.170114612760E+00  0.180663145556E+00
  0.191844262672E+00  0.203693787911E+00  0.216249365546E+00  0.229550531904E+00  0.243638787519E+00
  0.258557669567E+00  0.274352824276E+00  0.291072078904E+00  0.308765512881E+00  0.327485527638E+00
  0.347286914573E+00  0.368226920574E+00  0.390365310426E+00  0.413764425367E+00  0.438489236992E+00
  0.464607395598E+00  0.492189272000E+00  0.521307991744E+00  0.552039460547E+00  0.584462379699E+00
  0.618658250038E+00  0.654711363027E+00  0.692708777300E+00  0.732740278993E+00  0.774898323965E+00
  0.819277959978E+00  0.865976726705E+00  0.915094531365E+00  0.966733497615E+00  0.102099778522E+01
  0.107799337794E+01  0.113782783685E+01  0.120061001639E+01  0.126644974013E+01  0.133545743336E+01
  0.140774370937E+01  0.148341890644E+01  0.156259257234E+01  0.164537289342E+01  0.173186606505E+01
  0.182217560076E+01  0.191640157702E+01  0.201463981136E+01  0.211698097130E+01  0.222350961219E+01
  0.233430314243E+01  0.244943071483E+01  0.256895204376E+01  0.269291614812E+01  0.282136002117E+01
  0.295430722902E+01  0.309176644068E+01  0.323372989377E+01  0.338017180113E+01  0.353104670511E+01
  0.368628778800E+01  0.384580514852E+01  0.400948405641E+01  0.417718319903E+01  0.434873293609E+01
  0.452393358081E+01  0.470255372832E+01  0.488432865445E+01  0.506895881069E+01  0.525610844343E+01
  0.544540436861E+01  0.563643493484E+01  0.582874921090E+01  0.602185643540E+01  0.621522576890E+01
  0.640828638975E+01  0.660042797702E+01  0.679100162383E+01  0.697932122590E+01  0.716466538776E+01
  0.734627989020E+01  0.752338075813E+01  0.769515796653E+01  0.786077981679E+01  0.801939801081E+01
  0.817015344311E+01  0.831218272296E+01  0.844462542848E+01  0.856663208435E+01  0.867737284015E+01
  0.877604681420E+01  0.886189204988E+01  0.893419601587E+01  0.899230656236E+01  0.903564322654E+01
  0.906370876047E+01  0.907610073420E+01  0.907252304667E+01  0.905279715746E+01  0.901687283375E+01
  0.896483819022E+01  0.889692878521E+01  0.881353552556E+01  0.871521112492E+01  0.860267485814E+01
  0.847681535748E+01  0.833869120499E+01  0.818952909188E+01  0.803071933939E+01  0.786380860601E+01
  0.769048964640E+01  0.751258803372E+01  0.733204581236E+01  0.715090211022E+01  0.697127080725E+01
  0.679531542948E+01  0.662522151248E+01  0.646316675230E+01  0.631128933241E+01  0.617165488142E+01
  0.604622256031E+01  0.593681082844E+01  0.584506344826E+01  0.577241630883E+01  0.572006565360E+01
  0.568893831685E+01  0.567966460957E+01  0.569255455246E+01  0.572757822106E+01  0.578435102280E+01
  0.586212474126E+01  0.595978512478E+01  0.607585662526E+01  0.620851459210E+01  0.635560484801E+01
  0.651467021772E+01  0.668298336866E+01  0.685758530048E+01  0.703532884647E+01  0.721292661196E+01
  0.738700267934E+01  0.755414733343E+01  0.771097385477E+01  0.785417632302E+01  0.798058724287E+01
  0.808723377507E+01  0.817139131785E+01  0.823063327195E+01  0.826287583641E+01  0.826641684762E+01
  0.823996774978E+01  0.818267795752E+01  0.809415103644E+01  0.797445228158E+01  0.782410746966E+01
  0.764409276906E+01  0.743581592982E+01  0.720108913917E+01  0.694209404098E+01  0.666133964162E+01
  0.636161396371E+01  0.604593045843E+01  0.571747032510E+01  0.537952197559E+01  0.503541899895E+01
  0.468847802016E+01  0.434193791059E+01  0.399890182813E+01  0.366228356230E+01  0.333475960565E+01
  0.301872833428E+01  0.271627746309E+01  0.242916075418E+01  0.215878461332E+01  0.190620474180E+01
  0.167213261599E+01  0.145695095475E+01  0.126073664653E+01  0.108328888853E+01  0.924159314942E+00
  0.782680472189E+00  0.657990585484E+00  0.549057401246E+00  0.454709333677E+00  0.373680755783E+00
  0.304667149697E+00  0.246375730904E+00  0.197560358222E+00  0.157041066635E+00  0.123714858185E+00
  0.965628441377E-01  0.746554106251E-01  0.571553542476E-01  0.433186968313E-01  0.324931533204E-01
  0.241144943379E-01  0.177011986139E-01  0.128478462527E-01  0.921769791000E-02  0.653486577980E-02
  0.457642643750E-02  0.316476251432E-02  0.216035495005E-02  0.145518393772E-02  0.966837412135E-03
  0.633373516800E-03  0.408939568209E-03  0.260115617512E-03  0.162925899381E-03  0.100445698842E-03
  0.609233416548E-04  0.363356721947E-04  0.212989364950E-04  0.122638848322E-04  0.693275416292E-05
  0.384543255576E-05  0.209166501614E-05  0.111502377809E-05  0.582170419777E-06  0.297515904551E-06
  0.148721913350E-06  0.726683391160E-07  0.346825646497E-07  0.161566679113E-07  0.734063939636E-08
  0.325021079071E-08  0.140128082801E-08  0.587761370348E-09  0.239635090005E-09  0.948788100184E-10
  0.364449775835E-10  0.135681317488E-10  0.489062763070E-11  0.170491871281E-11  0.574187699936E-12
  0.186601976694E-12  0.584489020669E-13  0.176240019388E-13  0.510923284367E-14  0.142222799995E-14
  0.379637046867E-15  0.970422439336E-16  0.237211612805E-16  0.553689280979E-17  0.123226717617E-17
  0.261087602958E-18  0.525803876364E-19  0.100486941782E-19  0.181933877233E-20  0.311517235128E-21
  0.503543862898E-22  0.766966087687E-23  0.109867519372E-23  0.147727129759E-24  0.186064832015E-25
  0.219062271821E-26  0.240561521430E-27  0.245846997856E-28  0.233279499301E-29
 kinetic energy-density
  0.108544005157E+02  0.109561771403E+02  0.110617372283E+02  0.111712995605E+02  0.112849918015E+02
  0.114029916187E+02  0.115254358150E+02  0.116525138237E+02  0.117844127725E+02  0.119213065728E+02
  0.120634154622E+02  0.122109492914E+02  0.123641334191E+02  0.125232050336E+02  0.126884287350E+02
  0.128600610553E+02  0.130383866311E+02  0.132237032935E+02  0.134163245539E+02  0.136165762785E+02
  0.138248092952E+02  0.140413875198E+02  0.142666947075E+02  0.145011373669E+02  0.147451400831E+02
  0.149991519830E+02  0.152636450006E+02  0.155391152403E+02  0.158260854062E+02  0.161251054021E+02
  0.164367540762E+02  0.167616407265E+02  0.171004068739E+02  0.174537279783E+02  0.178223154691E+02
  0.182069186452E+02  0.186083271690E+02  0.190273726457E+02  0.194649324472E+02  0.199219305555E+02
  0.203993415853E+02  0.208981944915E+02  0.214195721274E+02  0.219646201036E+02  0.225345440884E+02
  0.231306203201E+02  0.237541927813E+02  0.244066827995E+02  0.250895911488E+02  0.258044997155E+02
  0.265530875386E+02  0.273371184208E+02  0.281584662446E+02  0.290191029735E+02  0.299211206586E+02
  0.308667261696E+02  0.318582552831E+02  0.328981785313E+02  0.339891060629E+02  0.351338034533E+02
  0.363351923433E+02  0.375963665621E+02  0.389205994545E+02  0.403113533453E+02  0.417722956926E+02
  0.433073060734E+02  0.449204915032E+02  0.466161996115E+02  0.483990349962E+02  0.502738721693E+02
  0.522458690825E+02  0.543204909896E+02  0.565035269234E+02  0.588011062671E+02  0.612197101433E+02
  0.637662237612E+02  0.664479181951E+02  0.692725053980E+02  0.722481549822E+02  0.753835117825E+02
  0.786877394350E+02  0.821705386103E+02  0.858421884191E+02  0.897135741504E+02  0.937962226454E+02
  0.981023441546E+02  0.102644872996E+03  0.107437504355E+03  0.112494738914E+03  0.117831938919E+03
  0.123465367262E+03  0.129412240763E+03  0.135690797227E+03  0.142320335632E+03  0.149321293173E+03
  0.156715298117E+03  0.164525242766E+03  0.172775359801E+03  0.181491285774E+03  0.190700149093E+03
  0.200430649429E+03  0.210713148141E+03  0.221579752000E+03  0.233064420265E+03  0.245203053046E+03
  0.258033613902E+03  0.271596200269E+03  0.285933232755E+03  0.301089491398E+03  0.317112300827E+03
  0.334051622274E+03  0.351960236909E+03  0.370893842322E+03  0.390911213132E+03  0.412074386666E+03
  0.434448778710E+03  0.458103375140E+03  0.483110903283E+03  0.509547994651E+03  0.537495388695E+03
  0.567038112502E+03  0.598265667637E+03  0.631272247203E+03  0.666156927975E+03  0.703023889585E+03
  0.741982616556E+03  0.783148133569E+03  0.826641209220E+03  0.872588589482E+03  0.921123221127E+03
  0.972384479767E+03  0.102651838309E+04  0.108367784193E+04  0.114402284541E+04  0.120772071139E+04
  0.127494627587E+04  0.134588210347E+04  0.142071868472E+04  0.149965460587E+04  0.158289672500E+04
  0.167066031262E+04  0.176316918534E+04  0.186065579959E+04  0.196336133685E+04  0.207153573868E+04
  0.218543772459E+04  0.230533471878E+04  0.243150285881E+04  0.256422673772E+04  0.270379932991E+04
  0.285052167014E+04  0.300470255783E+04  0.316665813752E+04  0.333671144378E+04  0.351519179389E+04
  0.370243411403E+04  0.389877818385E+04  0.410456767401E+04  0.432014917891E+04  0.454587098471E+04
  0.478208180073E+04  0.502912927515E+04  0.528735833186E+04  0.555710941267E+04  0.583871640700E+04
  0.613250454347E+04  0.643878793157E+04  0.675786697709E+04  0.709002557644E+04  0.743552804832E+04
  0.779461587161E+04  0.816750415287E+04  0.855437791941E+04  0.895538811061E+04  0.937064737158E+04
  0.980022563799E+04  0.102441454495E+05  0.107023771267E+05  0.111748336886E+05  0.116613656667E+05
  0.121617557192E+05  0.126757131697E+05  0.132028684607E+05  0.137427675424E+05  0.142948663258E+05
  0.148585251468E+05  0.154330034032E+05  0.160174543503E+05  0.166109202065E+05  0.172123275675E+05
  0.178204833161E+05  0.184340710105E+05  0.190516480093E+05  0.196716432035E+05  0.202923557785E+05
  0.209119548301E+05  0.215284801402E+05  0.221398442197E+05  0.227438355313E+05  0.233381234126E+05
  0.239202643607E+05  0.244877101716E+05  0.250378177004E+05  0.255678606026E+05  0.260750429898E+05
  0.265565149798E+05  0.270093903573E+05  0.274307661176E+05  0.278177441094E+05  0.281674543917E+05
  0.284770805608E+05  0.287438865964E+05  0.289652451909E+05  0.291386673396E+05  0.292618327975E+05
  0.293326212095E+05  0.293491434646E+05  0.293097728017E+05  0.292131753941E+05  0.290583396726E+05
  0.288446040224E+05  0.285716822146E+05  0.282396860250E+05  0.278491443939E+05  0.274010186175E+05
  0.268967129067E+05  0.263380798063E+05  0.257274200261E+05  0.250674761098E+05  0.243614197575E+05
  0.236128324022E+05  0.228256790452E+05  0.220042753117E+05  0.211532479361E+05  0.202774891407E+05
  0.193821054109E+05  0.184723615917E+05  0.175536212259E+05  0.166312844078E+05  0.157107241915E+05
  0.147972232807E+05  0.138959114602E+05  0.130117049818E+05  0.121492481082E+05  0.113128569295E+05
  0.105064655840E+05  0.973357553692E+04  0.899720950651E+04  0.829987258045E+04  0.764352354187E+04
  0.702955907970E+04  0.645881245269E+04  0.593156666119E+04  0.544758061233E+04  0.500612558800E+04
  0.460602883299E+04  0.424572148332E+04  0.392328901459E+04  0.363652334090E+04  0.338297607457E+04
  0.316001267177E+04  0.296486675263E+04  0.279469384559E+04  0.264662348742E+04  0.251780884305E+04
  0.240547257209E+04  0.230694843020E+04  0.221971757546E+04  0.214143930346E+04  0.206997561645E+04
  0.200340976193E+04  0.194005855029E+04  0.187847882655E+04  0.181746832039E+04  0.175606160894E+04
  0.169352137778E+04  0.162932603928E+04  0.156315398275E+04  0.149486550144E+04  0.142448262010E+04
  0.135216789875E+04  0.127820243317E+04  0.120296375512E+04  0.112690404393E+04  0.105052899265E+04
  0.974377709040E+03  0.899003816901E+03  0.824957975094E+03  0.752771935818E+03  0.682944185182E+03
  0.615927326840E+03  0.552117353673E+03  0.491844948761E+03  0.435369073370E+03  0.382873295544E+03
  0.334464551516E+03  0.290175323308E+03  0.249969030594E+03  0.213749435218E+03  0.181374407478E+03
  0.152672678248E+03  0.127458149398E+03  0.105533229273E+03  0.866781851113E+02  0.706379856112E+02
  0.571242969341E+02  0.458354464525E+02  0.364795177161E+02  0.287876747724E+02  0.225175636839E+02
  0.174523410741E+02  0.133990282291E+02  0.101871892126E+02  0.766780720382E+01  0.571209965056E+01
  0.421014385228E+01  0.306930485634E+01  0.221251971462E+01  0.157651224751E+01  0.111000954941E+01
  0.772019556209E+00  0.530214862230E+00  0.359454272006E+00  0.240461528729E+00  0.158670129847E+00
  0.103234437022E+00  0.662003540235E-01  0.418237006154E-01  0.260210169997E-01  0.159357162899E-01
  0.960201607451E-02  0.568966327092E-02  0.331379216527E-02  0.189605576900E-02  0.106519194628E-02
  0.587233165362E-03  0.317501291774E-03  0.168255888568E-03  0.873401458286E-04  0.443809639043E-04
  0.220612501392E-04  0.107205277774E-04  0.508917148270E-05  0.235832951007E-05  0.106600324536E-05
  0.469642059545E-06  0.201499643079E-06  0.841221847599E-07  0.341421376275E-07  0.134590297677E-07
  0.514827898077E-08  0.190897856301E-08  0.685454851749E-09  0.238081931582E-09  0.799020175109E-10
  0.258803447222E-10  0.808061439109E-11  0.242910249096E-11  0.702140318667E-12  0.194900316695E-12
  0.518835905881E-13  0.132275266315E-13  0.322510740815E-14  0.750922633559E-15  0.166717883445E-15
  0.352400650937E-16  0.708060427368E-17  0.135012403638E-17  0.243901997963E-18  0.416716761703E-19
  0.672158994592E-20  0.102165651236E-20  0.146052820333E-21  0.195988371117E-22  0.246366129531E-23
  0.289499561526E-24  0.317312171791E-25  0.323684549508E-26  0.306581471060E-27
 mkinetic energy-density pseudized
  0.199498484154E-05  0.212683817424E-05  0.226740600983E-05  0.241726431073E-05  0.257702710602E-05
  0.274734900750E-05  0.292892789178E-05  0.312250775984E-05  0.332888178544E-05  0.354889556511E-05
  0.378345058286E-05  0.403350790395E-05  0.430009211275E-05  0.458429551082E-05  0.488728259259E-05
  0.521029481669E-05  0.555465569270E-05  0.592177620413E-05  0.631316058976E-05  0.673041250709E-05
  0.717524160320E-05  0.764947051978E-05  0.815504236128E-05  0.869402865658E-05  0.926863784679E-05
  0.988122433420E-05  0.105342981291E-04  0.112305351344E-04  0.119727881098E-04  0.127640983606E-04
  0.136077081992E-04  0.145070742301E-04  0.154658815132E-04  0.164880586625E-04  0.175777939436E-04
  0.187395524342E-04  0.199780943199E-04  0.212984943979E-04  0.227061628711E-04  0.242068675150E-04
  0.258067573114E-04  0.275123876425E-04  0.293307471512E-04  0.312692863762E-04  0.333359482797E-04
  0.355392007931E-04  0.378880715128E-04  0.403921846902E-04  0.430618006662E-04  0.459078579109E-04
  0.489420178436E-04  0.521767126137E-04  0.556251960399E-04  0.593015979164E-04  0.632209819077E-04
  0.673994072705E-04  0.718539946542E-04  0.766029962511E-04  0.816658705816E-04  0.870633622242E-04
  0.928175868126E-04  0.989521216523E-04  0.105492102325E-03  0.112464325680E-03  0.119897359627E-03
  0.127821660192E-03  0.136269696308E-03  0.145276082846E-03  0.154877722450E-03  0.165113956739E-03
  0.176026727500E-03  0.187660748542E-03  0.200063688901E-03  0.213286368156E-03  0.227382964657E-03
  0.242411237505E-03  0.258432763219E-03  0.275513188024E-03  0.293722496832E-03  0.313135299988E-03
  0.333831138973E-03  0.355894812305E-03  0.379416722989E-03  0.404493248917E-03  0.431227137760E-03
  0.459727927946E-03  0.490112397474E-03  0.522505042376E-03  0.557038586810E-03  0.593854526860E-03
  0.633103710274E-03  0.674946954519E-03  0.719555705679E-03  0.767112740902E-03  0.817812917263E-03
  0.871863970124E-03  0.929487364250E-03  0.990919201175E-03  0.105641118653E-02  0.112623166131E-02
  0.120066670124E-02  0.128002128890E-02  0.136462056316E-02  0.145481115134E-02  0.155096258927E-02
  0.165346883525E-02  0.176274988409E-02  0.187925348771E-02  0.200345698955E-02  0.213586928010E-02
  0.227703288168E-02  0.242752617101E-02  0.258796574860E-02  0.275900896472E-02  0.294135661223E-02
  0.313575579739E-02  0.334300300030E-02  0.356394733757E-02  0.379949404056E-02  0.405060816336E-02
  0.431831853580E-02  0.460372197761E-02  0.490798779088E-02  0.523236254943E-02  0.557817520444E-02
  0.594684252738E-02  0.633987491245E-02  0.675888256230E-02  0.720558208219E-02  0.768180350982E-02
  0.818949780927E-02  0.873074485991E-02  0.930776197278E-02  0.992291296935E-02  0.105787178597E-01
  0.112778631597E-01  0.120232128892E-01  0.128178202962E-01  0.136649403552E-01  0.145680430901E-01
  0.155308277763E-01  0.165572380803E-01  0.176514781981E-01  0.188180300579E-01  0.200616716584E-01
  0.213874966159E-01  0.228009350005E-01  0.243077755473E-01  0.259141893301E-01  0.276267549978E-01
  0.294524856716E-01  0.313988576171E-01  0.334738408032E-01  0.356859314749E-01  0.380441868713E-01
  0.405582622283E-01  0.432384502175E-01  0.460957229800E-01  0.491417769256E-01  0.523890804771E-01
  0.558509249541E-01  0.595414788003E-01  0.634758453731E-01  0.676701245277E-01  0.721414782432E-01
  0.769082005546E-01  0.819897920693E-01  0.874070393685E-01  0.931820996082E-01  0.993385906595E-01
  0.105901687144E+00  0.112898222751E+00  0.120356799231E+00  0.128307902516E+00  0.136784026400E+00
  0.145819804288E+00  0.155452149519E+00  0.165720404811E+00  0.176666501423E+00  0.188335128636E+00
  0.200773914220E+00  0.214033616584E+00  0.228168329341E+00  0.243235699073E+00  0.259297157128E+00
  0.276418166319E+00  0.294668483469E+00  0.314122438761E+00  0.334859232959E+00  0.356963253575E+00
  0.380524411160E+00  0.405638496921E+00  0.432407562981E+00  0.460940326611E+00  0.491352599889E+00
  0.523767746266E+00  0.558317165642E+00  0.595140809588E+00  0.634387728447E+00  0.676216652155E+00
  0.720796606632E+00  0.768307567763E+00  0.818941154982E+00  0.872901366621E+00  0.930405359212E+00
  0.991684273023E+00  0.105698410617E+01  0.112656663974E+01  0.120071041628E+01  0.127971177429E+01
  0.136388594113E+01  0.145356818686E+01  0.154911504165E+01  0.165090557905E+01  0.175934276770E+01
  0.187485489379E+01  0.199789705622E+01  0.212895273680E+01  0.226853544694E+01  0.241719045245E+01
  0.257549657738E+01  0.274406808764E+01  0.292355665425E+01  0.311465339575E+01  0.331809099813E+01
  0.353464590997E+01  0.376514060916E+01  0.401044593628E+01  0.427148348826E+01  0.454922806399E+01
  0.484471015151E+01  0.515901844404E+01  0.549330236925E+01  0.584877461298E+01  0.622671361503E+01
  0.662846601031E+01  0.705544898405E+01  0.750915250420E+01  0.799114138815E+01  0.850305715388E+01
  0.904661959780E+01  0.962362803295E+01  0.102359621111E+02  0.108855821417E+02  0.115745288076E+02
  0.123049221645E+02  0.130789597967E+02  0.138989139819E+02  0.147671277047E+02  0.156860093322E+02
  0.166580257498E+02  0.176856937256E+02  0.187715692511E+02  0.199182345760E+02  0.211282826279E+02
  0.224042984758E+02  0.237488374676E+02  0.251643996385E+02  0.266533999552E+02  0.282181339321E+02
  0.298607381256E+02  0.315831449866E+02  0.333870315332E+02  0.352737612909E+02  0.372443189442E+02
  0.392992371564E+02  0.414385150382E+02  0.436615277969E+02  0.459669271738E+02  0.483525323870E+02
  0.508152114492E+02  0.533507529305E+02  0.559537284973E+02  0.586173468914E+02  0.613333004249E+02
  0.640916055801E+02  0.668804399192E+02  0.696859782512E+02  0.724922318813E+02  0.752808957931E+02
  0.780312097919E+02  0.807198409834E+02  0.833207964550E+02  0.858053766724E+02  0.881421818632E+02
  0.902971854862E+02  0.922338907202E+02  0.939135876360E+02  0.952957302025E+02  0.963384533464E+02
  0.969992506676E+02  0.972358328229E+02  0.970071846231E+02  0.962748350900E+02  0.950043485321E+02
  0.931670354951E+02  0.907418695365E+02  0.877175784235E+02  0.840948558725E+02  0.798886117003E+02
  0.751301438581E+02  0.698690752402E+02  0.641748519539E+02  0.581375493454E+02  0.518676801242E+02
  0.454946496606E+02  0.391634632436E+02  0.330292675766E+02  0.272493157586E+02  0.219719963030E+02
  0.173226803042E+02  0.133863371487E+02  0.101871697784E+02  0.766780720382E+01  0.571209965056E+01
  0.421014385228E+01  0.306930485634E+01  0.221251971462E+01  0.157651224751E+01  0.111000954941E+01
  0.772019556209E+00  0.530214862230E+00  0.359454272006E+00  0.240461528729E+00  0.158670129847E+00
  0.103234437022E+00  0.662003540235E-01  0.418237006154E-01  0.260210169997E-01  0.159357162899E-01
  0.960201607451E-02  0.568966327092E-02  0.331379216527E-02  0.189605576900E-02  0.106519194628E-02
  0.587233165362E-03  0.317501291774E-03  0.168255888568E-03  0.873401458286E-04  0.443809639043E-04
  0.220612501392E-04  0.107205277774E-04  0.508917148270E-05  0.235832951007E-05  0.106600324536E-05
  0.469642059545E-06  0.201499643079E-06  0.841221847599E-07  0.341421376275E-07  0.134590297677E-07
  0.514827898077E-08  0.190897856301E-08  0.685454851749E-09  0.238081931582E-09  0.799020175109E-10
  0.258803447222E-10  0.808061439109E-11  0.242910249096E-11  0.702140318667E-12  0.194900316695E-12
  0.518835905881E-13  0.132275266315E-13  0.322510740815E-14  0.750922633559E-15  0.166717883445E-15
  0.352400650937E-16  0.708060427368E-17  0.135012403638E-17  0.243901997963E-18  0.416716761703E-19
  0.672158994592E-20  0.102165651236E-20  0.146052820333E-21  0.195988371117E-22  0.246366129531E-23
  0.289499561526E-24  0.317312171791E-25  0.323684549508E-26  0.306581471060E-27
 local pseudopotential core
 -0.178066138161E+03 -0.178064251130E+03 -0.178062423526E+03 -0.178060653479E+03 -0.178058939177E+03
 -0.178057278861E+03 -0.178055670835E+03 -0.178054113449E+03 -0.178052605109E+03 -0.178051144271E+03
 -0.178049729438E+03 -0.178048359161E+03 -0.178047032037E+03 -0.178045746707E+03 -0.178044501855E+03
 -0.178043296206E+03 -0.178042128524E+03 -0.178040997614E+03 -0.178039902318E+03 -0.178038841514E+03
 -0.178037814116E+03 -0.178036819071E+03 -0.178035855360E+03 -0.178034921997E+03 -0.178034018024E+03
 -0.178033142517E+03 -0.178032294579E+03 -0.178031473341E+03 -0.178030677962E+03 -0.178029907627E+03
 -0.178029161547E+03 -0.178028438959E+03 -0.178027739121E+03 -0.178027061317E+03 -0.178026404853E+03
 -0.178025769056E+03 -0.178025153274E+03 -0.178024556878E+03 -0.178023979255E+03 -0.178023419814E+03
 -0.178022877982E+03 -0.178022353204E+03 -0.178021844941E+03 -0.178021352673E+03 -0.178020875896E+03
 -0.178020414120E+03 -0.178019966873E+03 -0.178019533695E+03 -0.178019114143E+03 -0.178018707786E+03
 -0.178018314208E+03 -0.178017933005E+03 -0.178017563787E+03 -0.178017206173E+03 -0.178016859797E+03
 -0.178016524304E+03 -0.178016199349E+03 -0.178015884598E+03 -0.178015579729E+03 -0.178015284427E+03
 -0.178014998390E+03 -0.178014721323E+03 -0.178014452941E+03 -0.178014192968E+03 -0.178013941136E+03
 -0.178013697187E+03 -0.178013460867E+03 -0.178013231934E+03 -0.178013010151E+03 -0.178012795289E+03
 -0.178012587126E+03 -0.178012385447E+03 -0.178012190042E+03 -0.178012000709E+03 -0.178011817251E+03
 -0.178011639478E+03 -0.178011467203E+03 -0.178011300248E+03 -0.178011138438E+03 -0.178010981603E+03
 -0.178010829579E+03 -0.178010682206E+03 -0.178010539327E+03 -0.178010400793E+03 -0.178010266455E+03
 -0.178010136171E+03 -0.178010009801E+03 -0.178009887210E+03 -0.178009768265E+03 -0.178009652838E+03
 -0.178009540801E+03 -0.178009432033E+03 -0.178009326414E+03 -0.178009223825E+03 -0.178009124152E+03
 -0.178009027282E+03 -0.178008933105E+03 -0.178008841512E+03 -0.178008752397E+03 -0.178008665654E+03
 -0.178008581181E+03 -0.178008498875E+03 -0.178008418636E+03 -0.178008340363E+03 -0.178008263957E+03
 -0.178008189321E+03 -0.178008116357E+03 -0.178008044966E+03 -0.178007975052E+03 -0.178007906518E+03
 -0.178007839264E+03 -0.178007773193E+03 -0.178007708206E+03 -0.178007644203E+03 -0.178007581083E+03
 -0.178007518743E+03 -0.178007457078E+03 -0.178007395982E+03 -0.178007335346E+03 -0.178007275060E+03
 -0.178007215009E+03 -0.178007155076E+03 -0.178007095140E+03 -0.178007035075E+03 -0.178006974754E+03
 -0.178006914041E+03 -0.178006852798E+03 -0.178006790880E+03 -0.178006728136E+03 -0.178006664409E+03
 -0.178006599534E+03 -0.178006533339E+03 -0.178006465643E+03 -0.178006396256E+03 -0.178006324979E+03
 -0.178006251603E+03 -0.178006175905E+03 -0.178006097653E+03 -0.178006016602E+03 -0.178005932490E+03
 -0.178005845045E+03 -0.178005753974E+03 -0.178005658972E+03 -0.178005559711E+03 -0.178005455848E+03
 -0.178005347016E+03 -0.178005232827E+03 -0.178005112869E+03 -0.178004986705E+03 -0.178004853871E+03
 -0.178004713872E+03 -0.178004566184E+03 -0.178004410251E+03 -0.178004245479E+03 -0.178004071237E+03
 -0.178003886856E+03 -0.178003691620E+03 -0.178003484772E+03 -0.178003265502E+03 -0.178003032950E+03
 -0.178002786200E+03 -0.178002524277E+03 -0.178002246141E+03 -0.178001950686E+03 -0.178001636733E+03
 -0.178001303028E+03 -0.178000948232E+03 -0.178000570922E+03 -0.178000169578E+03 -0.177999742584E+03
 -0.177999288216E+03 -0.177998804636E+03 -0.177998289888E+03 -0.177997741886E+03 -0.177997158406E+03
 -0.177996537079E+03 -0.177995875379E+03 -0.177995170614E+03 -0.177994419914E+03 -0.177993620222E+03
 -0.177992768277E+03 -0.177991860602E+03 -0.177990893495E+03 -0.177989863003E+03 -0.177988764918E+03
 -0.177987594750E+03 -0.177986347715E+03 -0.177985018709E+03 -0.177983602294E+03 -0.177982092671E+03
 -0.177980483656E+03 -0.177978768659E+03 -0.177976940649E+03 -0.177974992134E+03 -0.177972915122E+03
 -0.177970701093E+03 -0.177968340963E+03 -0.177965825044E+03 -0.177963143007E+03 -0.177960283836E+03
 -0.177957235786E+03 -0.177953986330E+03 -0.177950522111E+03 -0.177946828882E+03 -0.177942891452E+03
 -0.177938693618E+03 -0.177934218098E+03 -0.177929446463E+03 -0.177924359055E+03 -0.177918934905E+03
 -0.177913151647E+03 -0.177906985425E+03 -0.177900410788E+03 -0.177893400587E+03 -0.177885925858E+03
 -0.177877955700E+03 -0.177869457142E+03 -0.177860395008E+03 -0.177850731758E+03 -0.177840427338E+03
 -0.177829439001E+03 -0.177817721123E+03 -0.177805225012E+03 -0.177791898693E+03 -0.177777686681E+03
 -0.177762529744E+03 -0.177746364642E+03 -0.177729123846E+03 -0.177710735247E+03 -0.177691121829E+03
 -0.177670201334E+03 -0.177647885889E+03 -0.177624081614E+03 -0.177598688194E+03 -0.177571598429E+03
 -0.177542697740E+03 -0.177511863644E+03 -0.177478965183E+03 -0.177443862320E+03 -0.177406405277E+03
 -0.177366433826E+03 -0.177323776528E+03 -0.177278249908E+03 -0.177229657563E+03 -0.177177789206E+03
 -0.177122419622E+03 -0.177063307553E+03 -0.177000194476E+03 -0.176932803297E+03 -0.176860836921E+03
 -0.176783976713E+03 -0.176701880821E+03 -0.176614182368E+03 -0.176520487474E+03 -0.176420373119E+03
 -0.176313384814E+03 -0.176199034073E+03 -0.176076795656E+03 -0.175946104573E+03 -0.175806352817E+03
 -0.175656885807E+03 -0.175496998511E+03 -0.175325931210E+03 -0.175142864893E+03 -0.174946916215E+03
 -0.174737132007E+03 -0.174512483279E+03 -0.174271858677E+03 -0.174014057342E+03 -0.173737781115E+03
 -0.173441626038E+03 -0.173124073085E+03 -0.172783478060E+03 -0.172418060599E+03 -0.172025892203E+03
 -0.171604883232E+03 -0.171152768790E+03 -0.170667093444E+03 -0.170145194695E+03 -0.169584185157E+03
 -0.168980933415E+03 -0.168332043518E+03 -0.167633833141E+03 -0.166882310459E+03 -0.166073149844E+03
 -0.165201666601E+03 -0.164262791021E+03 -0.163251042248E+03 -0.162160502604E+03 -0.160984793333E+03
 -0.159717053065E+03 -0.158349920818E+03 -0.156875525954E+03 -0.155285488390E+03 -0.153570933402E+03
 -0.151722526769E+03 -0.149730537721E+03 -0.147584939334E+03 -0.145275558573E+03 -0.142792291245E+03
 -0.140125400422E+03 -0.137265920227E+03 -0.134206189689E+03 -0.130940542569E+03 -0.127466177236E+03
 -0.123784223586E+03 -0.119901009102E+03 -0.115829500742E+03 -0.111590861696E+03 -0.107216012573E+03
 -0.102747029446E+03 -0.982381568248E+02 -0.937560666667E+02 -0.893959031933E+02 -0.852880627959E+02
 -0.815415341135E+02 -0.782665714615E+02 -0.755675280547E+02 -0.735264046364E+02 -0.720490400685E+02
 -0.704463226026E+02 -0.682292597467E+02 -0.660801762749E+02 -0.639988888564E+02 -0.619832202755E+02
 -0.600310809036E+02 -0.581404544584E+02 -0.563093862069E+02 -0.545359995063E+02 -0.528184708125E+02
 -0.511550360548E+02 -0.495439921002E+02 -0.479836857452E+02 -0.464725191299E+02 -0.450089448993E+02
 -0.435914631223E+02 -0.422186225285E+02 -0.408890171366E+02 -0.396012856798E+02 -0.383541075300E+02
 -0.371462086985E+02 -0.359763499331E+02 -0.348433338020E+02 -0.337459999936E+02 -0.326832247443E+02
 -0.316539196995E+02 -0.306570307881E+02 -0.296915371137E+02 -0.287564499467E+02 -0.278508117143E+02
 -0.269736949797E+02 -0.261242015380E+02 -0.253014614645E+02 -0.245046322263E+02 -0.237328978287E+02
 -0.229854679619E+02 -0.222615772082E+02 -0.215604842471E+02 -0.208814711040E+02 -0.202238424099E+02
 -0.195869246953E+02 -0.189700656982E+02 -0.183726336982E+02 -0.177940168701E+02 -0.172336226570E+02
 -0.166908771643E+02 -0.161652245717E+02 -0.156561265641E+02 -0.151630617804E+02 -0.146855252793E+02
 -0.142230280220E+02 -0.137750963718E+02 -0.133412716083E+02 -0.129211094581E+02 -0.125141796396E+02
 -0.121200654221E+02 -0.117383631995E+02 -0.113686820763E+02 -0.110106434679E+02
 pspotential valence only
 -0.538078081777E+02 -0.538059211568E+02 -0.538040935650E+02 -0.538023235303E+02 -0.538006092408E+02
 -0.537989489397E+02 -0.537973409277E+02 -0.537957835582E+02 -0.537942752352E+02 -0.537928144150E+02
 -0.537913996013E+02 -0.537900293450E+02 -0.537887022435E+02 -0.537874169368E+02 -0.537861721099E+02
 -0.537849664870E+02 -0.537837988337E+02 -0.537826679541E+02 -0.537815726904E+02 -0.537805119209E+02
 -0.537794845593E+02 -0.537784895535E+02 -0.537775258844E+02 -0.537765925652E+02 -0.537756886404E+02
 -0.537748131840E+02 -0.537739652996E+02 -0.537731441190E+02 -0.537723488009E+02 -0.537715785314E+02
 -0.537708325212E+02 -0.537701100069E+02 -0.537694102482E+02 -0.537687325286E+02 -0.537680761541E+02
 -0.537674404527E+02 -0.537668247734E+02 -0.537662284857E+02 -0.537656509791E+02 -0.537650916620E+02
 -0.537645499621E+02 -0.537640253242E+02 -0.537635172115E+02 -0.537630251035E+02 -0.537625484965E+02
 -0.537620869023E+02 -0.537616398485E+02 -0.537612068773E+02 -0.537607875454E+02 -0.537603814235E+02
 -0.537599880958E+02 -0.537596071596E+02 -0.537592382251E+02 -0.537588809145E+02 -0.537585348620E+02
 -0.537581997134E+02 -0.537578751258E+02 -0.537575607669E+02 -0.537572563150E+02 -0.537569614585E+02
 -0.537566758957E+02 -0.537563993345E+02 -0.537561314918E+02 -0.537558720938E+02 -0.537556208750E+02
 -0.537553775786E+02 -0.537551419555E+02 -0.537549137651E+02 -0.537546927740E+02 -0.537544787564E+02
 -0.537542714934E+02 -0.537540707735E+02 -0.537538763914E+02 -0.537536881487E+02 -0.537535058532E+02
 -0.537533293189E+02 -0.537531583656E+02 -0.537529928190E+02 -0.537528325104E+02 -0.537526772763E+02
 -0.537525269588E+02 -0.537523814046E+02 -0.537522404659E+02 -0.537521039993E+02 -0.537519718661E+02
 -0.537518439323E+02 -0.537517200681E+02 -0.537516001480E+02 -0.537514840508E+02 -0.537513716589E+02
 -0.537512628591E+02 -0.537511575415E+02 -0.537510556004E+02 -0.537509569331E+02 -0.537508614409E+02
 -0.537507690282E+02 -0.537506796027E+02 -0.537505930756E+02 -0.537505093609E+02 -0.537504283758E+02
 -0.537503500406E+02 -0.537502742783E+02 -0.537502010150E+02 -0.537501301793E+02 -0.537500617027E+02
 -0.537499955196E+02 -0.537499315665E+02 -0.537498697831E+02 -0.537498101112E+02 -0.537497524953E+02
 -0.537496968822E+02 -0.537496432215E+02 -0.537495914648E+02 -0.537495415664E+02 -0.537494934828E+02
 -0.537494471729E+02 -0.537494025981E+02 -0.537493597219E+02 -0.537493185104E+02 -0.537492789319E+02
 -0.537492409571E+02 -0.537492045591E+02 -0.537491697135E+02 -0.537491363981E+02 -0.537491045935E+02
 -0.537490742825E+02 -0.537490454506E+02 -0.537490180858E+02 -0.537489921791E+02 -0.537489677237E+02
 -0.537489447160E+02 -0.537489231552E+02 -0.537489030435E+02 -0.537488843861E+02 -0.537488671914E+02
 -0.537488514713E+02 -0.537488372409E+02 -0.537488245191E+02 -0.537488133284E+02 -0.537488036954E+02
 -0.537487956506E+02 -0.537487892289E+02 -0.537487844697E+02 -0.537487814172E+02 -0.537487801205E+02
 -0.537487806339E+02 -0.537487830174E+02 -0.537487873367E+02 -0.537487936638E+02 -0.537488020771E+02
 -0.537488126618E+02 -0.537488255107E+02 -0.537488407240E+02 -0.537488584103E+02 -0.537488786867E+02
 -0.537489016796E+02 -0.537489275251E+02 -0.537489563698E+02 -0.537489883710E+02 -0.537490236980E+02
 -0.537490625324E+02 -0.537491050689E+02 -0.537491515163E+02 -0.537492020982E+02 -0.537492570543E+02
 -0.537493166410E+02 -0.537493811327E+02 -0.537494508228E+02 -0.537495260251E+02 -0.537496070751E+02
 -0.537496943313E+02 -0.537497881767E+02 -0.537498890204E+02 -0.537499972993E+02 -0.537501134800E+02
 -0.537502380605E+02 -0.537503715724E+02 -0.537505145833E+02 -0.537506676985E+02 -0.537508315642E+02
 -0.537510068697E+02 -0.537511943503E+02 -0.537513947906E+02 -0.537516090270E+02 -0.537518379520E+02
 -0.537520825171E+02 -0.537523437370E+02 -0.537526226937E+02 -0.537529205410E+02 -0.537532385088E+02
 -0.537535779083E+02 -0.537539401375E+02 -0.537543266864E+02 -0.537547391433E+02 -0.537551792012E+02
 -0.537556486644E+02 -0.537561494559E+02 -0.537566836249E+02 -0.537572533552E+02 -0.537578609738E+02
 -0.537585089601E+02 -0.537591999558E+02 -0.537599367754E+02 -0.537607224171E+02 -0.537615600749E+02
 -0.537624531509E+02 -0.537634052688E+02 -0.537644202877E+02 -0.537655023177E+02 -0.537666557351E+02
 -0.537678851999E+02 -0.537691956734E+02 -0.537705924372E+02 -0.537720811132E+02 -0.537736676851E+02
 -0.537753585210E+02 -0.537771603970E+02 -0.537790805222E+02 -0.537811265660E+02 -0.537833066857E+02
 -0.537856295563E+02 -0.537881044017E+02 -0.537907410279E+02 -0.537935498577E+02 -0.537965419666E+02
 -0.537997291220E+02 -0.538031238228E+02 -0.538067393417E+02 -0.538105897694E+02 -0.538146900604E+02
 -0.538190560815E+02 -0.538237046612E+02 -0.538286536421E+02 -0.538339219347E+02 -0.538395295730E+02
 -0.538454977718E+02 -0.538518489858E+02 -0.538586069698E+02 -0.538657968407E+02 -0.538734451390E+02
 -0.538815798925E+02 -0.538902306792E+02 -0.538994286896E+02 -0.539092067888E+02 -0.539195995760E+02
 -0.539306434427E+02 -0.539423766260E+02 -0.539548392582E+02 -0.539680734107E+02 -0.539821231298E+02
 -0.539970344644E+02 -0.540128554816E+02 -0.540296362700E+02 -0.540474289272E+02 -0.540662875287E+02
 -0.540862680744E+02 -0.541074284113E+02 -0.541298281252E+02 -0.541535284001E+02 -0.541785918374E+02
 -0.542050822318E+02 -0.542330642956E+02 -0.542626033264E+02 -0.542937648092E+02 -0.543266139452E+02
 -0.543612150986E+02 -0.543976311505E+02 -0.544359227494E+02 -0.544761474472E+02 -0.545183587056E+02
 -0.545626047616E+02 -0.546089273334E+02 -0.546573601529E+02 -0.547079273037E+02 -0.547606413458E+02
 -0.548155012030E+02 -0.548724897892E+02 -0.549315713438E+02 -0.549926884444E+02 -0.550557586602E+02
 -0.551206708028E+02 -0.551872807245E+02 -0.552554066074E+02 -0.553248236736E+02 -0.553952582371E+02
 -0.554663810057E+02 -0.555377995236E+02 -0.556090496346E+02 -0.556795858297E+02 -0.557487703339E+02
 -0.558158607865E+02 -0.558799963787E+02 -0.559401823477E+02 -0.559952727902E+02 -0.560439518775E+02
 -0.560847137318E+02 -0.561158415019E+02 -0.561353865623E+02 -0.561411492887E+02 -0.561306635338E+02
 -0.561011877158E+02 -0.560497062448E+02 -0.559729456333E+02 -0.558674096888E+02 -0.557294370865E+02
 -0.555552816136E+02 -0.553412097843E+02 -0.550836021624E+02 -0.547790346782E+02 -0.544243075791E+02
 -0.540163881765E+02 -0.535522482271E+02 -0.530285055698E+02 -0.524577560602E+02 -0.518769265046E+02
 -0.512938245452E+02 -0.507148783045E+02 -0.501448575883E+02 -0.495787304428E+02 -0.488567603745E+02
 -0.481451702658E+02 -0.474514444822E+02 -0.467368926964E+02 -0.460043244050E+02 -0.452548546664E+02
 -0.444899176264E+02 -0.437112045257E+02 -0.429205850296E+02 -0.421200237018E+02 -0.413115072974E+02
 -0.404969513410E+02 -0.396781299123E+02 -0.388566062039E+02 -0.380336790771E+02 -0.372103585502E+02
 -0.363873685519E+02 -0.355651877597E+02 -0.347441234726E+02 -0.339244117585E+02 -0.331063297798E+02
 -0.322903058940E+02 -0.314770077412E+02 -0.306674021902E+02 -0.298627769363E+02 -0.290647259868E+02
 -0.282751026040E+02 -0.274959461988E+02 -0.267293900851E+02 -0.259775566853E+02 -0.252424466493E+02
 -0.245258289865E+02 -0.238291407208E+02 -0.231534059404E+02 -0.224991842274E+02 -0.218665562670E+02
 -0.212551496902E+02 -0.206642018830E+02 -0.200926503935E+02 -0.195392375931E+02 -0.190026154462E+02
 -0.184814384752E+02 -0.179744371498E+02 -0.174804685392E+02 -0.169985449701E+02 -0.165278440138E+02
 -0.160677043381E+02 -0.156176120731E+02 -0.151771817651E+02 -0.147461351123E+02 -0.143242797348E+02
 -0.139114894138E+02 -0.135076865810E+02 -0.131128273733E+02 -0.127268892599E+02 -0.123498610683E+02
 -0.119817351408E+02 -0.116225013249E+02 -0.112721425024E+02 -0.109306313897E+02
 core charge-density (pseudized)
  0.106061948838E-07  0.113071837403E-07  0.120545026310E-07  0.128512136191E-07  0.137005811465E-07
  0.146060854103E-07  0.155714366217E-07  0.166005902091E-07  0.176977630241E-07  0.188674506207E-07
  0.201144456743E-07  0.214438576201E-07  0.228611335877E-07  0.243720807208E-07  0.259828899711E-07
  0.277001614649E-07  0.295309315469E-07  0.314827016103E-07  0.335634688336E-07  0.357817589476E-07
  0.381466611694E-07  0.406678654438E-07  0.433557021473E-07  0.462211844156E-07  0.492760532688E-07
  0.525328257189E-07  0.560048460573E-07  0.597063405310E-07  0.636524756337E-07  0.678594202488E-07
  0.723444118994E-07  0.771258273777E-07  0.822232580416E-07  0.876575900880E-07  0.934510901326E-07
  0.996274964440E-07  0.106212116209E-06  0.113231929227E-06  0.120715698456E-06  0.128694087863E-06
  0.137199788074E-06  0.146267650310E-06  0.155934829194E-06  0.166240934986E-06  0.177228195878E-06
  0.188941631025E-06  0.201429235001E-06  0.214742174453E-06  0.228934997754E-06  0.244065858501E-06
  0.260196753801E-06  0.277393778290E-06  0.295727394954E-06  0.315272723837E-06  0.336109849840E-06
  0.358324150859E-06  0.382006647608E-06  0.407254376568E-06  0.434170787580E-06  0.462866167719E-06
  0.493458093179E-06  0.526071911027E-06  0.560841252797E-06  0.597908582028E-06  0.637425777984E-06
  0.679554757964E-06  0.724468140732E-06  0.772349953799E-06  0.823396387446E-06  0.877816598588E-06
  0.935833567761E-06  0.997685012748E-06  0.106362436259E-05  0.113392179597E-05  0.120886534824E-05
  0.128876209156E-05  0.137393939310E-05  0.146474625638E-05  0.156155475119E-05  0.166476153816E-05
  0.177478949390E-05  0.189208944373E-05  0.201714200880E-05  0.215045957534E-05  0.229258839406E-05
  0.244411081825E-05  0.260564768985E-05  0.277786088321E-05  0.296145601689E-05  0.315718534482E-05
  0.336585083837E-05  0.358830747221E-05  0.382546672733E-05  0.407830032551E-05  0.434784421061E-05
  0.463520279301E-05  0.494155347450E-05  0.526815147222E-05  0.561633496142E-05  0.598753055803E-05
  0.638325916359E-05  0.680514219640E-05  0.725490823451E-05  0.773440009762E-05  0.824558239702E-05
  0.879054958444E-05  0.937153453280E-05  0.999091768389E-05  0.106512368007E-04  0.113551973638E-04
  0.121056836555E-04  0.129057705753E-04  0.137587362369E-04  0.146680753972E-04  0.156375137730E-04
  0.166710233029E-04  0.177728384184E-04  0.189474733894E-04  0.201997408161E-04  0.215347713424E-04
  0.229580346715E-04  0.244753619706E-04  0.260929697547E-04  0.278174853488E-04  0.296559740318E-04
  0.316159679738E-04  0.337054970840E-04  0.359331218968E-04  0.383079686298E-04  0.408397665568E-04
  0.435388878497E-04  0.464163900502E-04  0.494840613476E-04  0.527544688453E-04  0.562410100141E-04
  0.599579675432E-04  0.639205678118E-04  0.681450432205E-04  0.726486986371E-04  0.774499822280E-04
  0.825685609638E-04  0.880254011078E-04  0.938428540147E-04  0.100044747590E-03  0.106656483784E-03
  0.113705142512E-03  0.121219592434E-03  0.129230609036E-03  0.137771000493E-03  0.146875741837E-03
  0.156582117957E-03  0.166929876034E-03  0.177961388007E-03  0.189721823749E-03  0.202259335643E-03
  0.215625255307E-03  0.229874303276E-03  0.245064812477E-03  0.261258966397E-03  0.278523052930E-03
  0.296927734894E-03  0.316548338342E-03  0.337465159800E-03  0.359763793684E-03  0.383535481211E-03
  0.408877482199E-03  0.435893471243E-03  0.464693959860E-03  0.495396746290E-03  0.528127394736E-03
  0.563019745956E-03  0.600216461245E-03  0.639869601945E-03  0.682141246792E-03  0.727204149523E-03
  0.775242439345E-03  0.826452366998E-03  0.881043099348E-03  0.939237565599E-03  0.100127335842E-02
  0.106740369349E-02  0.113789843110E-02  0.121304516387E-02  0.129315037456E-02  0.137854066861E-02
  0.146956408579E-02  0.156659149625E-02  0.167001808584E-02  0.178026493650E-02  0.189778070745E-02
  0.202304342333E-02  0.215656237583E-02  0.229888014568E-02  0.245057475221E-02  0.261226193810E-02
  0.278459759728E-02  0.296828035446E-02  0.316405430502E-02  0.337271192455E-02  0.359509715762E-02
  0.383210869600E-02  0.408470345670E-02  0.435390027080E-02  0.464078379453E-02  0.494650865419E-02
  0.527230383718E-02  0.561947734156E-02  0.598942109696E-02  0.638361616994E-02  0.680363826714E-02
  0.725116354954E-02  0.772797477146E-02  0.823596775762E-02  0.877715823163E-02  0.935368900876E-02
  0.996783756542E-02  0.106220239971E-01  0.113188193751E-01  0.120609545126E-01  0.128513291461E-01
  0.136930215395E-01  0.145892985143E-01  0.155436259044E-01  0.165596794353E-01  0.176413560168E-01
  0.187927854399E-01  0.200183424562E-01  0.213226592174E-01  0.227106380376E-01  0.241874644385E-01
  0.257586204197E-01  0.274298978899E-01  0.292074121744E-01  0.310976155017E-01  0.331073103502E-01
  0.352436625147E-01  0.375142137264E-01  0.399268936341E-01  0.424900309168E-01  0.452123632673E-01
  0.481030459402E-01  0.511716585135E-01  0.544282094602E-01  0.578831380689E-01  0.615473131853E-01
  0.654320281767E-01  0.695489914397E-01  0.739103116835E-01  0.785284771251E-01  0.834163276248E-01
  0.885870186747E-01  0.940539760309E-01  0.998308396398E-01  0.105931395370E+00  0.112369492908E+00
  0.119158948007E+00  0.126313427137E+00  0.133846312378E+00  0.141770544273E+00  0.150098440150E+00
  0.158841485313E+00  0.168010094315E+00  0.177613339472E+00  0.187658643657E+00  0.198151434417E+00
  0.209094756508E+00  0.220488840064E+00  0.232330621896E+00  0.244613217784E+00  0.257325344214E+00
  0.270450688830E+00  0.283967229860E+00  0.297846506231E+00  0.312052841750E+00  0.326542528973E+00
  0.341262981018E+00  0.356151862881E+00  0.371136217682E+00  0.386131607935E+00  0.401041297321E+00
  0.415755504693E+00  0.430150769134E+00  0.444089472811E+00  0.457419577087E+00  0.469974636656E+00
  0.481574166225E+00  0.492024444005E+00  0.501119845527E+00  0.508644809320E+00  0.514376541791E+00
  0.518088570927E+00  0.519555255596E+00  0.518557347195E+00  0.514888680734E+00  0.508364040249E+00
  0.498828195383E+00  0.486166038361E+00  0.470313659598E+00  0.451270082030E+00  0.429109225561E+00
  0.403991491729E+00  0.376174144418E+00  0.346019418031E+00  0.313999017360E+00  0.280693397034E+00
  0.246783945046E+00  0.213035977313E+00  0.180270324662E+00  0.149321321471E+00  0.120979264675E+00
  0.959159975244E-01  0.745932927678E-01  0.571552796852E-01  0.433186968313E-01  0.324931533204E-01
  0.241144943379E-01  0.177011986139E-01  0.128478462527E-01  0.921769791000E-02  0.653486577980E-02
  0.457642643750E-02  0.316476251432E-02  0.216035495005E-02  0.145518393772E-02  0.966837412135E-03
  0.633373516800E-03  0.408939568209E-03  0.260115617512E-03  0.162925899381E-03  0.100445698842E-03
  0.609233416548E-04  0.363356721947E-04  0.212989364950E-04  0.122638848322E-04  0.693275416292E-05
  0.384543255576E-05  0.209166501614E-05  0.111502377809E-05  0.582170419777E-06  0.297515904551E-06
  0.148721913350E-06  0.726683391160E-07  0.346825646497E-07  0.161566679113E-07  0.734063939636E-08
  0.325021079071E-08  0.140128082801E-08  0.587761370348E-09  0.239635090005E-09  0.948788100184E-10
  0.364449775835E-10  0.135681317488E-10  0.489062763070E-11  0.170491871281E-11  0.574187699936E-12
  0.186601976694E-12  0.584489020669E-13  0.176240019388E-13  0.510923284367E-14  0.142222799995E-14
  0.379637046867E-15  0.970422439336E-16  0.237211612805E-16  0.553689280979E-17  0.123226717617E-17
  0.261087602958E-18  0.525803876364E-19  0.100486941782E-19  0.181933877233E-20  0.311517235128E-21
  0.503543862898E-22  0.766966087687E-23  0.109867519372E-23  0.147727129759E-24  0.186064832015E-25
  0.219062271821E-26  0.240561521430E-27  0.245846997856E-28  0.233279499301E-29
 pseudo wavefunction
  0.911856052367E-04  0.941507336303E-04  0.972122806015E-04  0.100373381442E-03  0.103637273394E-03
  0.107007298969E-03  0.110486909368E-03  0.114079668014E-03  0.117789254208E-03  0.121619466888E-03
  0.125574228528E-03  0.129657589149E-03  0.133873730468E-03  0.138226970182E-03  0.142721766389E-03
  0.147362722153E-03  0.152154590217E-03  0.157102277873E-03  0.162210851985E-03  0.167485544178E-03
  0.172931756197E-03  0.178555065440E-03  0.184361230665E-03  0.190356197892E-03  0.196546106491E-03
  0.202937295468E-03  0.209536309958E-03  0.216349907928E-03  0.223385067095E-03  0.230648992077E-03
  0.238149121765E-03  0.245893136947E-03  0.253888968168E-03  0.262144803858E-03  0.270669098710E-03
  0.279470582345E-03  0.288558268249E-03  0.297941463003E-03  0.307629775816E-03  0.317633128362E-03
  0.327961764946E-03  0.338626262990E-03  0.349637543866E-03  0.361006884083E-03  0.372745926834E-03
  0.384866693917E-03  0.397381598051E-03  0.410303455584E-03  0.423645499617E-03  0.437421393562E-03
  0.451645245127E-03  0.466331620768E-03  0.481495560604E-03  0.497152593822E-03  0.513318754577E-03
  0.530010598414E-03  0.547245219222E-03  0.565040266738E-03  0.583413964624E-03  0.602385129129E-03
  0.621973188356E-03  0.642198202161E-03  0.663080882693E-03  0.684642615606E-03  0.706905481960E-03
  0.729892280833E-03  0.753626552669E-03  0.778132603384E-03  0.803435529259E-03  0.829561242638E-03
  0.856536498465E-03  0.884388921684E-03  0.913147035525E-03  0.942840290720E-03  0.973499095654E-03
  0.100515484751E-02  0.103783996442E-02  0.107158791867E-02  0.110643327096E-02  0.114241170582E-02
  0.117956006812E-02  0.121791640083E-02  0.125751998398E-02  0.129841137485E-02  0.134063244954E-02
  0.138422644582E-02  0.142923800743E-02  0.147571322980E-02  0.152369970722E-02  0.157324658161E-02
  0.162440459283E-02  0.167722613063E-02  0.173176528832E-02  0.178807791813E-02  0.184622168842E-02
  0.190625614273E-02  0.196824276075E-02  0.203224502127E-02  0.209832846718E-02  0.216656077259E-02
  0.223701181211E-02  0.230975373241E-02  0.238486102608E-02  0.246241060791E-02  0.254248189364E-02
  0.262515688127E-02  0.271052023504E-02  0.279865937205E-02  0.288966455185E-02  0.298362896876E-02
  0.308064884734E-02  0.318082354090E-02  0.328425563318E-02  0.339105104338E-02  0.350131913463E-02
  0.361517282590E-02  0.373272870759E-02  0.385410716090E-02  0.397943248106E-02  0.410883300451E-02
  0.424244124030E-02  0.438039400571E-02  0.452283256626E-02  0.466990278027E-02  0.482175524817E-02
  0.497854546661E-02  0.514043398753E-02  0.530758658248E-02  0.548017441224E-02  0.565837420192E-02
  0.584236842174E-02  0.603234547374E-02  0.622849988446E-02  0.643103250391E-02  0.664015071102E-02
  0.685606862566E-02  0.707900732767E-02  0.730919508283E-02  0.754686757626E-02  0.779226815335E-02
  0.804564806848E-02  0.830726674182E-02  0.857739202437E-02  0.885630047167E-02  0.914427762628E-02
  0.944161830946E-02  0.974862692220E-02  0.100656177560E-01  0.103929153139E-01  0.107308546412E-01
  0.110797816680E-01  0.114400535612E-01  0.118120390897E-01  0.121961189998E-01  0.125926864033E-01
  0.130021471783E-01  0.134249203823E-01  0.138614386794E-01  0.143121487801E-01  0.147775118963E-01
  0.152580042099E-01  0.157541173572E-01  0.162663589284E-01  0.167952529827E-01  0.173413405807E-01
  0.179051803326E-01  0.184873489652E-01  0.190884419053E-01  0.197090738831E-01  0.203498795536E-01
  0.210115141380E-01  0.216946540856E-01  0.223999977557E-01  0.231282661220E-01  0.238802034980E-01
  0.246565782852E-01  0.254581837457E-01  0.262858387968E-01  0.271403888321E-01  0.280227065664E-01
  0.289336929075E-01  0.298742778541E-01  0.308454214212E-01  0.318481145936E-01  0.328833803080E-01
  0.339522744644E-01  0.350558869681E-01  0.361953428018E-01  0.373718031302E-01  0.385864664357E-01
  0.398405696880E-01  0.411353895467E-01  0.424722435982E-01  0.438524916274E-01  0.452775369250E-01
  0.467488276307E-01  0.482678581127E-01  0.498361703841E-01  0.514553555574E-01  0.531270553354E-01
  0.548529635413E-01  0.566348276861E-01  0.584744505747E-01  0.603736919501E-01  0.623344701750E-01
  0.643587639522E-01  0.664486140813E-01  0.686061252522E-01  0.708334678748E-01  0.731328799423E-01
  0.755066689287E-01  0.779572137173E-01  0.804869665591E-01  0.830984550582E-01  0.857942841818E-01
  0.885771382918E-01  0.914497831937E-01  0.944150681989E-01  0.974759281959E-01  0.100635385724E+00
  0.103896553045E+00  0.107262634201E+00  0.110736927060E+00  0.114322825328E+00  0.118023820528E+00
  0.121843503924E+00  0.125785568395E+00  0.129853810217E+00  0.134052130769E+00  0.138384538118E+00
  0.142855148484E+00  0.147468187546E+00  0.152227991580E+00  0.157139008391E+00  0.162205798016E+00
  0.167433033162E+00  0.172825499344E+00  0.178388094686E+00  0.184125829330E+00  0.190043824424E+00
  0.196147310615E+00  0.202441626003E+00  0.208932213488E+00  0.215624617438E+00  0.222524479596E+00
  0.229637534160E+00  0.236969601922E+00  0.244526583380E+00  0.252314450707E+00  0.260339238466E+00
  0.268607032924E+00  0.277123959850E+00  0.285896170621E+00  0.294929826486E+00  0.304231080801E+00
  0.313806059046E+00  0.323660836428E+00  0.333801412817E+00  0.344233684822E+00  0.354963414707E+00
  0.365996195910E+00  0.377337414863E+00  0.388992208807E+00  0.400965419285E+00  0.413261540985E+00
  0.425884665559E+00  0.438838420084E+00  0.452125899764E+00  0.465749594506E+00  0.479711308977E+00
  0.494012075749E+00  0.508652061169E+00  0.523630463562E+00  0.538945403438E+00  0.554593805374E+00
  0.570571271316E+00  0.586871945060E+00  0.603488367798E+00  0.620411324662E+00  0.637629682330E+00
  0.655130217910E+00  0.672897439454E+00  0.690913398673E+00  0.709157496639E+00  0.727606283525E+00
  0.746233253743E+00  0.765008638165E+00  0.783899195493E+00  0.802868005278E+00  0.821874265508E+00
  0.840873098182E+00  0.859815366784E+00  0.878647510073E+00  0.897311397075E+00  0.915744208649E+00
  0.933878351338E+00  0.951641409504E+00  0.968956141820E+00  0.985740528057E+00  0.100190787166E+01
  0.101736696270E+01  0.103202230449E+01  0.104577440511E+01  0.105852013218E+01  0.107015312599E+01
  0.108056426075E+01  0.108964213852E+01  0.109727359287E+01  0.110334417116E+01  0.110773855475E+01
  0.111034086562E+01  0.111103479685E+01  0.110970349257E+01  0.110622909242E+01  0.110049184680E+01
  0.109236870379E+01  0.108173126988E+01  0.106844305601E+01  0.105235594229E+01  0.103330583339E+01
  0.101111132883E+01  0.985807687503E+00  0.957639882149E+00  0.926887071694E+00  0.893843778634E+00
  0.858816011951E+00  0.822117367942E+00  0.784065177104E+00  0.744976749970E+00  0.705165768212E+00
  0.664938851888E+00  0.624592334510E+00  0.584409264544E+00  0.544656652387E+00  0.505582982225E+00
  0.467416013031E+00  0.430360900360E+00  0.394598677625E+00  0.360285140099E+00  0.327550173044E+00
  0.296497555566E+00  0.267205254725E+00  0.239726200399E+00  0.214089506845E+00  0.190302083046E+00
  0.168350556072E+00  0.148203420903E+00  0.129813327194E+00  0.113119417551E+00  0.980496415609E-01
  0.845229834322E-01  0.724515569619E-01  0.617425379926E-01  0.522999200262E-01  0.440260916811E-01
  0.368232439206E-01  0.305946197194E-01  0.252456191386E-01  0.206847696216E-01  0.168245663541E-01
  0.135821825848E-01  0.108800463991E-01  0.864627943153E-02  0.681499449879E-02  0.532645263090E-02
  0.412708464123E-02  0.316938730899E-02  0.241170868255E-02  0.181794041903E-02  0.135713717817E-02
  0.100308383162E-02  0.733830745116E-03  0.531215855812E-03  0.380389970185E-03  0.269358927600E-03
  0.188553272104E-03  0.130433074709E-03  0.891327285631E-04  0.601480295980E-04
 ae wavefunction
  0.903426078624E-03  0.932590946104E-03  0.962696243482E-03  0.993772224547E-03  0.102585011199E-02
  0.105896212791E-02  0.109314152576E-02  0.112842262287E-02  0.116484083410E-02  0.120243270661E-02
  0.124123595567E-02  0.128128950143E-02  0.132263350704E-02  0.136530941782E-02  0.140936000159E-02
  0.145482939035E-02  0.150176312312E-02  0.155020819018E-02  0.160021307858E-02  0.165182781908E-02
  0.170510403449E-02  0.176009498944E-02  0.181685564176E-02  0.187544269526E-02  0.193591465419E-02
  0.199833187932E-02  0.206275664564E-02  0.212925320186E-02  0.219788783158E-02  0.226872891639E-02
  0.234184700067E-02  0.241731485849E-02  0.249520756226E-02  0.257560255357E-02  0.265857971599E-02
  0.274422144995E-02  0.283261274990E-02  0.292384128354E-02  0.301799747346E-02  0.311517458097E-02
  0.321546879238E-02  0.331897930770E-02  0.342580843184E-02  0.353606166830E-02  0.364984781548E-02
  0.376727906570E-02  0.388847110682E-02  0.401354322671E-02  0.414261842050E-02  0.427582350072E-02
  0.441328921037E-02  0.455515033893E-02  0.470154584146E-02  0.485261896077E-02  0.500851735272E-02
  0.516939321465E-02  0.533540341719E-02  0.550670963919E-02  0.568347850602E-02  0.586588173132E-02
  0.605409626196E-02  0.624830442667E-02  0.644869408788E-02  0.665545879720E-02  0.686879795444E-02
  0.708891696997E-02  0.731602743080E-02  0.755034727009E-02  0.779210094024E-02  0.804151958944E-02
  0.829884124180E-02  0.856431098098E-02  0.883818113703E-02  0.912071147692E-02  0.941216939831E-02
  0.971283012635E-02  0.100229769140E-01  0.103429012452E-01  0.106729030410E-01  0.110132908688E-01
  0.113643821534E-01  0.117265033920E-01  0.120999903701E-01  0.124851883801E-01  0.128824524420E-01
  0.132921475251E-01  0.137146487712E-01  0.141503417190E-01  0.145996225288E-01  0.150628982077E-01
  0.155405868336E-01  0.160331177802E-01  0.165409319394E-01  0.170644819417E-01  0.176042323759E-01
  0.181606600036E-01  0.187342539715E-01  0.193255160182E-01  0.199349606759E-01  0.205631154658E-01
  0.212105210863E-01  0.218777315920E-01  0.225653145642E-01  0.232738512700E-01  0.240039368094E-01
  0.247561802488E-01  0.255312047399E-01  0.263296476211E-01  0.271521605007E-01  0.279994093207E-01
  0.288720743966E-01  0.297708504340E-01  0.306964465179E-01  0.316495860726E-01  0.326310067903E-01
  0.336414605245E-01  0.346817131458E-01  0.357525443578E-01  0.368547474674E-01  0.379891291091E-01
  0.391565089164E-01  0.403577191387E-01  0.415936041984E-01  0.428650201828E-01  0.441728342687E-01
  0.455179240713E-01  0.469011769151E-01  0.483234890188E-01  0.497857645899E-01  0.512889148217E-01
  0.528338567875E-01  0.544215122221E-01  0.560528061879E-01  0.577286656129E-01  0.594500176967E-01
  0.612177881736E-01  0.630328994248E-01  0.648962684304E-01  0.668088045522E-01  0.687714071354E-01
  0.707849629213E-01  0.728503432576E-01  0.749684010971E-01  0.771399677714E-01  0.793658495284E-01
  0.816468238205E-01  0.839836353321E-01  0.863769917291E-01  0.888275591226E-01  0.913359572270E-01
  0.939027542020E-01  0.965284611625E-01  0.992135263409E-01  0.101958328889E+00  0.104763172300E+00
  0.107628277445E+00  0.110553775191E+00  0.113539698609E+00  0.116585974736E+00  0.119692415891E+00
  0.122858710520E+00  0.126084413566E+00  0.129368936348E+00  0.132711535932E+00  0.136111303991E+00
  0.139567155140E+00  0.143077814740E+00  0.146641806164E+00  0.150257437527E+00  0.153922787859E+00
  0.157635692752E+00  0.161393729460E+00  0.165194201471E+00  0.169034122561E+00  0.172910200341E+00
  0.176818819327E+00  0.180756023548E+00  0.184717498731E+00  0.188698554093E+00  0.192694103795E+00
  0.196698648097E+00  0.200706254289E+00  0.204710537451E+00  0.208704641134E+00  0.212681218042E+00
  0.216632410817E+00  0.220549833043E+00  0.224424550579E+00  0.228247063383E+00  0.232007287947E+00
  0.235694540534E+00  0.239297521387E+00  0.242804300111E+00  0.246202302434E+00  0.249478298604E+00
  0.252618393636E+00  0.255608019708E+00  0.258431930985E+00  0.261074201175E+00  0.263518224142E+00
  0.265746717935E+00  0.267741732585E+00  0.269484662062E+00  0.270956260793E+00  0.272136665158E+00
  0.273005420404E+00  0.273541513425E+00  0.273723411867E+00  0.273529110032E+00  0.272936182059E+00
  0.271921842865E+00  0.270463017315E+00  0.268536418116E+00  0.266118632871E+00  0.263186220760E+00
  0.259715819257E+00  0.255684261275E+00  0.251068703078E+00  0.245846763274E+00  0.239996673102E+00
  0.233497438202E+00  0.226329011930E+00  0.218472480223E+00  0.209910257886E+00  0.200626296068E+00
  0.190606300566E+00  0.179837960434E+00  0.168311186250E+00  0.156018357195E+00  0.142954575939E+00
  0.129117930142E+00  0.114509759130E+00  0.991349241228E-01  0.830020801053E-01  0.661239471428E-01
  0.485175786222E-01  0.302046235254E-01  0.112115794481E-01 -0.842996730679E-02 -0.286831185218E-01
 -0.495054617937E-01 -0.708488929197E-01 -0.926594658127E-01 -0.114877271318E+00 -0.137436344396E+00
 -0.160264597383E+00 -0.183283776403E+00 -0.206409439403E+00 -0.229550958329E+00 -0.252611554080E+00
 -0.275488379593E+00 -0.298072671434E+00 -0.320249990665E+00 -0.341900568055E+00 -0.362899757902E+00
 -0.383118593051E+00 -0.402424426502E+00 -0.420681645702E+00 -0.437752449871E+00 -0.453497687492E+00
 -0.467777752815E+00 -0.480453541722E+00 -0.491387463483E+00 -0.500444503381E+00 -0.507493327930E+00
 -0.512407423601E+00 -0.515066258108E+00 -0.515356454739E+00 -0.513172968342E+00 -0.508420253860E+00
 -0.501013416916E+00 -0.490879337017E+00 -0.477957754120E+00 -0.462202308701E+00 -0.443581525716E+00
 -0.422079733191E+00 -0.397697904065E+00 -0.370454411608E+00 -0.340385685768E+00 -0.307546758381E+00
 -0.272011683454E+00 -0.233873817997E+00 -0.193245948419E+00 -0.150260247126E+00 -0.105068045590E+00
 -0.578394119947E-01 -0.876252620286E-02  0.419571491219E-01  0.940978947347E-01  0.147422943822E+00
  0.201681853231E+00  0.256612016094E+00  0.311940304778E+00  0.367384858053E+00  0.422657071783E+00
  0.477463917876E+00  0.531510805019E+00  0.584505255755E+00  0.636161612162E+00  0.686206527196E+00
  0.734383858938E+00  0.780455998376E+00  0.824198389792E+00  0.865387706669E+00  0.903790900433E+00
  0.939164603471E+00  0.971266708477E+00  0.999872155994E+00  0.102478437430E+01  0.104584031281E+01
  0.106291156439E+01  0.107590428077E+01  0.108475917795E+01  0.108945187557E+01  0.108999336564E+01
  0.108643031054E+01  0.107884491610E+01  0.106735423210E+01  0.105210881811E+01  0.103329079211E+01
  0.101111132883E+01  0.985807687503E+00  0.957639882149E+00  0.926887071694E+00  0.893843778634E+00
  0.858816011951E+00  0.822117367942E+00  0.784065177104E+00  0.744976749970E+00  0.705165768212E+00
  0.664938851888E+00  0.624592334510E+00  0.584409264544E+00  0.544656652387E+00  0.505582982225E+00
  0.467416013031E+00  0.430360900360E+00  0.394598677625E+00  0.360285140099E+00  0.327550173044E+00
  0.296497555566E+00  0.267205254725E+00  0.239726200399E+00  0.214089506845E+00  0.190302083046E+00
  0.168350556072E+00  0.148203420903E+00  0.129813327194E+00  0.113119417551E+00  0.980496415609E-01
  0.845229834322E-01  0.724515569619E-01  0.617425379926E-01  0.522999200262E-01  0.440260916811E-01
  0.368232439206E-01  0.305946197194E-01  0.252456191386E-01  0.206847696216E-01  0.168245663541E-01
  0.135821825848E-01  0.108800463991E-01  0.864627943153E-02  0.681499449879E-02  0.532645263090E-02
  0.412708464123E-02  0.316938730899E-02  0.241170868255E-02  0.181794041903E-02  0.135713717817E-02
  0.100308383162E-02  0.733830745116E-03  0.531215855812E-03  0.380389970185E-03  0.269358927600E-03
  0.188553272104E-03  0.130433074709E-03  0.891327285631E-04  0.601480295980E-04
 pseudo wavefunction
  0.115012624033E-03  0.118752547634E-03  0.122614084220E-03  0.126601188341E-03  0.130717943140E-03
  0.134968564534E-03  0.139357405530E-03  0.143888960685E-03  0.148567870706E-03  0.153398927207E-03
  0.158387077611E-03  0.163537430219E-03  0.168855259443E-03  0.174346011204E-03  0.180015308511E-03
  0.185868957219E-03  0.191912951977E-03  0.198153482361E-03  0.204596939220E-03  0.211249921216E-03
  0.218119241584E-03  0.225211935106E-03  0.232535265320E-03  0.240096731955E-03  0.247904078613E-03
  0.255965300697E-03  0.264288653603E-03  0.272882661168E-03  0.281756124407E-03  0.290918130520E-03
  0.300378062199E-03  0.310145607240E-03  0.320230768459E-03  0.330643873940E-03  0.341395587610E-03
  0.352496920161E-03  0.363959240324E-03  0.375794286513E-03  0.388014178845E-03  0.400631431553E-03
  0.413658965801E-03  0.427110122918E-03  0.440998678057E-03  0.455338854307E-03  0.470145337253E-03
  0.485433290019E-03  0.501218368798E-03  0.517516738878E-03  0.534345091204E-03  0.551720659468E-03
  0.569661237757E-03  0.588185198777E-03  0.607311512666E-03  0.627059766424E-03  0.647450183970E-03
  0.668503646852E-03  0.690241715632E-03  0.712686651967E-03  0.735861441405E-03  0.759789816925E-03
  0.784496283240E-03  0.810006141894E-03  0.836345517169E-03  0.863541382843E-03  0.891621589808E-03
  0.920614894595E-03  0.950550988822E-03  0.981460529598E-03  0.101337517092E-02  0.104632759609E-02
  0.108035155119E-02  0.111548187961E-02  0.115175455778E-02  0.118920673196E-02  0.122787675634E-02
  0.126780423225E-02  0.130903004875E-02  0.135159642452E-02  0.139554695104E-02  0.144092663729E-02
  0.148778195581E-02  0.153616089027E-02  0.158611298465E-02  0.163768939396E-02  0.169094293659E-02
  0.174592814847E-02  0.180270133884E-02  0.186132064795E-02  0.192184610661E-02  0.198433969761E-02
  0.204886541925E-02  0.211548935085E-02  0.218427972040E-02  0.225530697444E-02  0.232864385020E-02
  0.240436545007E-02  0.248254931850E-02  0.256327552144E-02  0.264662672826E-02  0.273268829644E-02
  0.282154835898E-02  0.291329791459E-02  0.300803092094E-02  0.310584439078E-02  0.320683849135E-02
  0.331111664687E-02  0.341878564447E-02  0.352995574353E-02  0.364474078853E-02  0.376325832565E-02
  0.388562972307E-02  0.401198029525E-02  0.414243943123E-02  0.427714072705E-02  0.441622212256E-02
  0.455982604258E-02  0.470809954276E-02  0.486119446001E-02  0.501926756804E-02  0.518248073772E-02
  0.535100110282E-02  0.552500123107E-02  0.570465930075E-02  0.589015928304E-02  0.608169113032E-02
  0.627945097053E-02  0.648364130784E-02  0.669447122992E-02  0.691215662180E-02  0.713692038677E-02
  0.736899267444E-02  0.760861111612E-02  0.785602106794E-02  0.811147586179E-02  0.837523706436E-02
  0.864757474472E-02  0.892876775037E-02  0.921910399242E-02  0.951888073990E-02  0.982840492363E-02
  0.101479934499E-01  0.104779735244E-01  0.108186829866E-01  0.111704706545E-01  0.115336966818E-01
  0.119087329247E-01  0.122959633225E-01  0.126957842889E-01  0.131086051172E-01  0.135348483976E-01
  0.139749504485E-01  0.144293617615E-01  0.148985474611E-01  0.153829877784E-01  0.158831785407E-01
  0.163996316770E-01  0.169328757389E-01  0.174834564391E-01  0.180519372066E-01  0.186388997601E-01
  0.192449446992E-01  0.198706921151E-01  0.205167822204E-01  0.211838759993E-01  0.218726558782E-01
  0.225838264179E-01  0.233181150273E-01  0.240762727008E-01  0.248590747775E-01  0.256673217261E-01
  0.265018399528E-01  0.273634826364E-01  0.282531305881E-01  0.291716931394E-01  0.301201090566E-01
  0.310993474853E-01  0.321104089226E-01  0.331543262208E-01  0.342321656210E-01  0.353450278197E-01
  0.364940490666E-01  0.376804022973E-01  0.389052982996E-01  0.401699869151E-01  0.414757582777E-01
  0.428239440877E-01  0.442159189256E-01  0.456531016031E-01  0.471369565548E-01  0.486689952698E-01
  0.502507777650E-01  0.518839141007E-01  0.535700659385E-01  0.553109481439E-01  0.571083304326E-01
  0.589640390622E-01  0.608799585696E-01  0.628580335553E-01  0.649002705134E-01  0.670087397100E-01
  0.691855771082E-01  0.714329863414E-01  0.737532407340E-01  0.761486853702E-01  0.786217392095E-01
  0.811748972499E-01  0.838107327370E-01  0.865318994189E-01  0.893411338445E-01  0.922412577055E-01
  0.952351802192E-01  0.983259005494E-01  0.101516510264E+00  0.104810195827E+00  0.108210241116E+00
  0.111720029971E+00  0.115343048757E+00  0.119082888949E+00  0.122943249720E+00  0.126927940530E+00
  0.131040883715E+00  0.135286117054E+00  0.139667796311E+00  0.144190197741E+00  0.148857720543E+00
  0.153674889247E+00  0.158646356020E+00  0.163776902872E+00  0.169071443737E+00  0.174535026414E+00
  0.180172834335E+00  0.185990188141E+00  0.191992547020E+00  0.198185509787E+00  0.204574815668E+00
  0.211166344721E+00  0.217966117890E+00  0.224980296594E+00  0.232215181830E+00  0.239677212710E+00
  0.247372964362E+00  0.255309145129E+00  0.263492592975E+00  0.271930271011E+00  0.280629262034E+00
  0.289596761982E+00  0.298840072170E+00  0.308366590188E+00  0.318183799316E+00  0.328299256293E+00
  0.338720577282E+00  0.349455421834E+00  0.360511474666E+00  0.371896425022E+00  0.383617943390E+00
  0.395683655329E+00  0.408101112105E+00  0.420877757885E+00  0.434020893128E+00  0.447537633871E+00
  0.461434866519E+00  0.475719197784E+00  0.490396899328E+00  0.505473846708E+00  0.520955452150E+00
  0.536846590667E+00  0.553151519037E+00  0.569873787102E+00  0.587016140860E+00  0.604580416802E+00
  0.622567426925E+00  0.640976833871E+00  0.659807015636E+00  0.679054919303E+00  0.698715903302E+00
  0.718783567706E+00  0.739249572163E+00  0.760103441113E+00  0.781332356049E+00  0.802920934705E+00
  0.824850997181E+00  0.847101319236E+00  0.869647373154E+00  0.892461056891E+00  0.915510412462E+00
  0.938759334922E+00  0.962167273653E+00  0.985688928128E+00  0.100927394083E+01  0.103286659050E+01
  0.105640548953E+01  0.107982328993E+01  0.110304640277E+01  0.112599473700E+01  0.114858146370E+01
  0.117071281280E+01  0.119228790935E+01  0.121319865710E+01  0.123332967699E+01  0.125255830783E+01
  0.127075467602E+01  0.128778183999E+01  0.130349601287E+01  0.131774686500E+01  0.133037790368E+01
  0.134122692379E+01  0.135012651665E+01  0.135690461825E+01  0.136138506942E+01  0.136338815178E+01
  0.136273105310E+01  0.135922820528E+01  0.135269142818E+01  0.134292980335E+01  0.132974919606E+01
  0.131295134241E+01  0.129233242442E+01  0.126768107237E+01  0.123877576437E+01  0.120538164232E+01
  0.116725783119E+01  0.112440203268E+01  0.107707525393E+01  0.102556721761E+01  0.000000000000E+00
  0.000000000000E+00  0.000000000000E+00  0.000000000000E+00  0.000000000000E+00  0.000000000000E+00
  0.000000000000E+00  0.000000000000E+00  0.000000000000E+00  0.000000000000E+00  0.000000000000E+00
  0.000000000000E+00  0.000000000000E+00  0.000000000000E+00  0.000000000000E+00  0.000000000000E+00
  0.000000000000E+00  0.000000000000E+00  0.000000000000E+00  0.000000000000E+00  0.000000000000E+00
  0.000000000000E+00  0.000000000000E+00  0.000000000000E+00  0.000000000000E+00  0.000000000000E+00
  0.000000000000E+00  0.000000000000E+00  0.000000000000E+00  0.000000000000E+00  0.000000000000E+00
  0.000000000000E+00  0.000000000000E+00  0.000000000000E+00  0.000000000000E+00  0.000000000000E+00
  0.000000000000E+00  0.000000000000E+00  0.000000000000E+00  0.000000000000E+00  0.000000000000E+00
  0.000000000000E+00  0.000000000000E+00  0.000000000000E+00  0.000000000000E+00  0.000000000000E+00
  0.000000000000E+00  0.000000000000E+00  0.000000000000E+00  0.000000000000E+00  0.000000000000E+00
  0.000000000000E+00  0.000000000000E+00  0.000000000000E+00  0.000000000000E+00
 ae wavefunction
  0.112835692434E-02  0.116478312552E-02  0.120238390047E-02  0.124119703542E-02  0.128126152675E-02
  0.132261761905E-02  0.136530684509E-02  0.140937206636E-02  0.145485751512E-02  0.150180883791E-02
  0.155027314014E-02  0.160029903213E-02  0.165193667666E-02  0.170523783793E-02  0.176025593186E-02
  0.181704607825E-02  0.187566515420E-02  0.193617184942E-02  0.199862672304E-02  0.206309226223E-02
  0.212963294260E-02  0.219831529039E-02  0.226920794654E-02  0.234238173271E-02  0.241790971928E-02
  0.249586729533E-02  0.257633224082E-02  0.265938480077E-02  0.274510776178E-02  0.283358653074E-02
  0.292490921586E-02  0.301916671013E-02  0.311645277715E-02  0.321686413954E-02  0.332050056989E-02
  0.342746498433E-02  0.353786353878E-02  0.365180572806E-02  0.376940448772E-02  0.389077629883E-02
  0.401604129570E-02  0.414532337671E-02  0.427875031812E-02  0.441645389118E-02  0.455856998243E-02
  0.470523871725E-02  0.485660458691E-02  0.501281657900E-02  0.517402831137E-02  0.534039816973E-02
  0.551208944881E-02  0.568927049732E-02  0.587211486668E-02  0.606080146356E-02  0.625551470646E-02
  0.645644468606E-02  0.666378732986E-02  0.687774457067E-02  0.709852451944E-02  0.732634164219E-02
  0.756141694114E-02  0.780397814028E-02  0.805425987507E-02  0.831250388662E-02  0.857895922027E-02
  0.885388242839E-02  0.913753777783E-02  0.943019746160E-02  0.973214181507E-02  0.100436595365E-01
  0.103650479119E-01  0.106966130446E-01  0.110386700885E-01  0.113915434857E-01  0.117555672093E-01
  0.121310850084E-01  0.125184506586E-01  0.129180282159E-01  0.133301922741E-01  0.137553282256E-01
  0.141938325262E-01  0.146461129623E-01  0.151125889210E-01  0.155936916640E-01  0.160898646015E-01
  0.166015635708E-01  0.171292571142E-01  0.176734267593E-01  0.182345672998E-01  0.188131870766E-01
  0.194098082580E-01  0.200249671203E-01  0.206592143251E-01  0.213131151962E-01  0.219872499919E-01
  0.226822141746E-01  0.233986186748E-01  0.241370901500E-01  0.248982712368E-01  0.256828207941E-01
  0.264914141387E-01  0.273247432690E-01  0.281835170776E-01  0.290684615501E-01  0.299803199487E-01
  0.309198529793E-01  0.318878389393E-01  0.328850738450E-01  0.339123715350E-01  0.349705637497E-01
  0.360605001817E-01  0.371830484956E-01  0.383390943152E-01  0.395295411733E-01  0.407553104223E-01
  0.420173411007E-01  0.433165897540E-01  0.446540302034E-01  0.460306532598E-01  0.474474663788E-01
  0.489054932506E-01  0.504057733211E-01  0.519493612388E-01  0.535373262203E-01  0.551707513308E-01
  0.568507326717E-01  0.585783784691E-01  0.603548080559E-01  0.621811507408E-01  0.640585445555E-01
  0.659881348726E-01  0.679710728852E-01  0.700085139385E-01  0.721016157052E-01  0.742515361936E-01
  0.764594315780E-01  0.787264538406E-01  0.810537482134E-01  0.834424504080E-01  0.858936836206E-01
  0.884085552991E-01  0.909881536588E-01  0.936335439335E-01  0.963457643443E-01  0.991258217758E-01
  0.101974687138E+00  0.104893290405E+00  0.107882515304E+00  0.110943193650E+00  0.114076099297E+00
  0.117281941695E+00  0.120561359029E+00  0.123914910930E+00  0.127343070730E+00  0.130846217249E+00
  0.134424626087E+00  0.138078460411E+00  0.141807761219E+00  0.145612437044E+00  0.149492253111E+00
  0.153446819899E+00  0.157475581108E+00  0.161577801018E+00  0.165752551207E+00  0.169998696638E+00
  0.174314881084E+00  0.178699511891E+00  0.183150744072E+00  0.187666463720E+00  0.192244270745E+00
  0.196881460936E+00  0.201575007343E+00  0.206321541008E+00  0.211117331035E+00  0.215958264043E+00
  0.220839823004E+00  0.225757065518E+00  0.230704601551E+00  0.235676570690E+00  0.240666618963E+00
  0.245667875300E+00  0.250672927696E+00  0.255673799181E+00  0.260661923670E+00  0.265628121827E+00
  0.270562577056E+00  0.275454811755E+00  0.280293664001E+00  0.285067264819E+00  0.289763016241E+00
  0.294367570351E+00  0.298866809549E+00  0.303245828277E+00  0.307488916476E+00  0.311579545069E+00
  0.315500353777E+00  0.319233141607E+00  0.322758860371E+00  0.326057611627E+00  0.329108647435E+00
  0.331890375387E+00  0.334380368334E+00  0.336555379327E+00  0.338391362244E+00  0.339863498652E+00
  0.340946231435E+00  0.341613305747E+00  0.341837817886E+00  0.341592272664E+00  0.340848649863E+00
  0.339578480410E+00  0.337752932837E+00  0.335342910639E+00  0.332319161108E+00  0.328652396190E+00
  0.324313425907E+00  0.319273304817E+00  0.313503491953E+00  0.306976024618E+00  0.299663706326E+00
  0.291540309103E+00  0.282580790254E+00  0.272761523580E+00  0.262060544913E+00  0.250457811659E+00
  0.237935475915E+00  0.224478170506E+00  0.210073307134E+00  0.194711385591E+00  0.178386312787E+00
  0.161095730075E+00  0.142841347136E+00  0.123629280343E+00  0.103470393243E+00  0.823806364186E-01
  0.603813835705E-01  0.374997602077E-01  0.137689608420E-01 -0.107714499064E-01 -0.360752572407E-01
 -0.620893422249E-01 -0.887534585789E-01 -0.116000043827E+00 -0.143754066521E+00 -0.171932908886E+00
 -0.200446282039E+00 -0.229196170145E+00 -0.258076801642E+00 -0.286974650711E+00 -0.315768479823E+00
 -0.344329442622E+00 -0.372521272605E+00 -0.400200583665E+00 -0.427217301295E+00 -0.453415229894E+00
 -0.478632746903E+00 -0.502703605639E+00 -0.525457829470E+00 -0.546722685399E+00 -0.566323733549E+00
 -0.584085951214E+00 -0.599834931992E+00 -0.613398155792E+00 -0.624606323525E+00 -0.633294746253E+00
 -0.639304777565E+00 -0.642485275611E+00 -0.642694083036E+00 -0.639799510676E+00 -0.633681813794E+00
 -0.624234647821E+00 -0.611366491926E+00 -0.595002028953E+00 -0.575083469478E+00 -0.551571808039E+00
 -0.524447999991E+00 -0.493714044790E+00 -0.459393963589E+00 -0.421534655265E+00 -0.380206615729E+00
 -0.335504503111E+00 -0.287547530522E+00 -0.236479667443E+00 -0.182469630279E+00 -0.125710644701E+00
 -0.664199646058E-01 -0.483813839371E-02  0.587719791710E-01  0.124126461644E+00  0.190921774263E+00
  0.258836440679E+00  0.327532887649E+00  0.396659454741E+00  0.465852587636E+00  0.534739290721E+00
  0.602939996510E+00  0.670072120093E+00  0.735754641423E+00  0.799613976930E+00  0.861290827159E+00
  0.920446257915E+00  0.976763296354E+00  0.102994001410E+01  0.107967473687E+01  0.112565245354E+01
  0.116754424429E+01  0.120502190201E+01  0.123777772143E+01  0.126553878936E+01  0.128807325816E+01
  0.130519174661E+01  0.131674723807E+01  0.132263507543E+01  0.132279333787E+01  0.131720332923E+01
  0.130588979116E+01  0.128892051501E+01  0.126640515937E+01  0.123849318595E+01  0.120537092396E+01
  0.116725783119E+01  0.112440203268E+01  0.107707525393E+01  0.102556721761E+01  0.000000000000E+00
  0.000000000000E+00  0.000000000000E+00  0.000000000000E+00  0.000000000000E+00  0.000000000000E+00
  0.000000000000E+00  0.000000000000E+00  0.000000000000E+00  0.000000000000E+00  0.000000000000E+00
  0.000000000000E+00  0.000000000000E+00  0.000000000000E+00  0.000000000000E+00  0.000000000000E+00
  0.000000000000E+00  0.000000000000E+00  0.000000000000E+00  0.000000000000E+00  0.000000000000E+00
  0.000000000000E+00  0.000000000000E+00  0.000000000000E+00  0.000000000000E+00  0.000000000000E+00
  0.000000000000E+00  0.000000000000E+00  0.000000000000E+00  0.000000000000E+00  0.000000000000E+00
  0.000000000000E+00  0.000000000000E+00  0.000000000000E+00  0.000000000000E+00  0.000000000000E+00
  0.000000000000E+00  0.000000000000E+00  0.000000000000E+00  0.000000000000E+00  0.000000000000E+00
  0.000000000000E+00  0.000000000000E+00  0.000000000000E+00  0.000000000000E+00  0.000000000000E+00
  0.000000000000E+00  0.000000000000E+00  0.000000000000E+00  0.000000000000E+00  0.000000000000E+00
  0.000000000000E+00  0.000000000000E+00  0.000000000000E+00  0.000000000000E+00
 pseudo wavefunction
  0.491295143029E-08  0.523766017452E-08  0.558382969845E-08  0.595287839647E-08  0.634631840806E-08
  0.676576181362E-08  0.721292723983E-08  0.768964690148E-08  0.819787410888E-08  0.873969127127E-08
  0.931731842930E-08  0.993312235146E-08  0.105896262316E-07  0.112895200275E-07  0.120356714828E-07
  0.128311378771E-07  0.136791785528E-07  0.145832682702E-07  0.155471114450E-07  0.165746573262E-07
  0.176701161785E-07  0.188379765328E-07  0.200830235780E-07  0.214103587674E-07  0.228254207215E-07
  0.243340075126E-07  0.259423004210E-07  0.276568892631E-07  0.294847993915E-07  0.314335204816E-07
  0.335110372192E-07  0.357258620170E-07  0.380870698934E-07  0.406043356567E-07  0.432879735460E-07
  0.461489794934E-07  0.491990761783E-07  0.524507610599E-07  0.559173575845E-07  0.596130697766E-07
  0.635530404385E-07  0.677534131965E-07  0.722313986476E-07  0.770053448781E-07  0.820948126430E-07
  0.875206555142E-07  0.933051053258E-07  0.994718632664E-07  0.106046196993E-06  0.113055044161E-06
  0.120527122800E-06  0.128493048983E-06  0.136985462270E-06  0.146039159448E-06  0.155691237106E-06
  0.165981243633E-06  0.176951341266E-06  0.188646478842E-06  0.201114575973E-06  0.214406719391E-06
  0.228577372271E-06  0.243684597384E-06  0.259790295008E-06  0.276960456555E-06  0.295265434962E-06
  0.314780232955E-06  0.335584810367E-06  0.357764411759E-06  0.381409915703E-06  0.406618207147E-06
  0.433492574386E-06  0.462143132277E-06  0.492687273418E-06  0.525250149154E-06  0.559965182365E-06
  0.596974614152E-06  0.636430086651E-06  0.678493264366E-06  0.723336496573E-06  0.771143523492E-06
  0.822110229143E-06  0.876445443949E-06  0.934371800396E-06  0.996126645233E-06  0.106196301197E-05
  0.113215065764E-05  0.120697716810E-05  0.128674913636E-05  0.137179341880E-05  0.146245847440E-05
  0.155911579255E-05  0.166216141508E-05  0.177201755903E-05  0.188913434663E-05  0.201399164951E-05
  0.214710105497E-05  0.228900796208E-05  0.244029381632E-05  0.260157849198E-05  0.277352283192E-05
  0.295683135527E-05  0.315225514401E-05  0.336059492035E-05  0.358270432754E-05  0.381949342738E-05
  0.407193242905E-05  0.434105566419E-05  0.462796582485E-05  0.493383848141E-05  0.525992689913E-05
  0.560756717299E-05  0.597818370188E-05  0.637329502462E-05  0.679452004154E-05  0.724358464737E-05
  0.772232880234E-05  0.823271407067E-05  0.877683165719E-05  0.935691097504E-05  0.997532877966E-05
  0.106346189062E-04  0.113374826507E-04  0.120867998369E-04  0.128856406146E-04  0.137372780378E-04
  0.146452014736E-04  0.156131308975E-04  0.166450321332E-04  0.177451330993E-04  0.189179411297E-04
  0.201682614384E-04  0.215012168042E-04  0.229222685562E-04  0.244372389457E-04  0.260523349967E-04
  0.277741739312E-04  0.296098102753E-04  0.315667647555E-04  0.336530551042E-04  0.358772289000E-04
  0.382483985783E-04  0.407762787531E-04  0.434712260058E-04  0.463442813008E-04  0.494072152037E-04
  0.526725760853E-04  0.561537415099E-04  0.598649730164E-04  0.638214745185E-04  0.680394545599E-04
  0.725361926811E-04  0.773301101683E-04  0.824408454724E-04  0.878893346083E-04  0.936978968603E-04
  0.998903261462E-04  0.106491988410E-03  0.113529925443E-03  0.121032965558E-03  0.129031841561E-03
  0.137559316511E-03  0.146650317774E-03  0.156342079921E-03  0.166674297046E-03  0.177689285135E-03
  0.189432155130E-03  0.201950997415E-03  0.215297078450E-03  0.229525050367E-03  0.244693174378E-03
  0.260863558895E-03  0.278102413332E-03  0.296480318621E-03  0.316072515533E-03  0.336959211969E-03
  0.359225910473E-03  0.382963757279E-03  0.408269914311E-03  0.435247955628E-03  0.464008289920E-03
  0.494668610743E-03  0.527354376316E-03  0.562199320796E-03  0.599345999085E-03  0.638946367350E-03
  0.681162401573E-03  0.726166756597E-03  0.774143468302E-03  0.825288701694E-03  0.879811547871E-03
  0.937934873029E-03  0.999896222860E-03  0.106594878589E-02  0.113636241958E-02  0.121142474311E-02
  0.129144230130E-02  0.137674180395E-02  0.146767144565E-02  0.156460231095E-02  0.166792987048E-02
  0.177807557359E-02  0.189548854370E-02  0.202064738275E-02  0.215406209149E-02  0.229627611301E-02
  0.244786850687E-02  0.260945626209E-02  0.278169675744E-02  0.296529037790E-02  0.316098329701E-02
  0.336957043474E-02  0.359189860178E-02  0.382886984090E-02  0.408144497731E-02  0.435064739003E-02
  0.463756701705E-02  0.494336460775E-02  0.526927623638E-02  0.561661809135E-02  0.598679155535E-02
  0.638128859216E-02  0.680169745647E-02  0.724970874356E-02  0.772712179636E-02  0.823585148766E-02
  0.877793539591E-02  0.935554139316E-02  0.997097566419E-02  0.106266911757E-01  0.113252966151E-01
  0.120695658166E-01  0.128624476957E-01  0.137070767065E-01  0.146067838426E-01  0.155651081953E-01
  0.165858090841E-01  0.176728787729E-01  0.188305557806E-01  0.200633387947E-01  0.213760011901E-01
  0.227736061527E-01  0.242615224011E-01  0.258454404945E-01  0.275313897060E-01  0.293257554334E-01
  0.312352971078E-01  0.332671665505E-01  0.354289267138E-01  0.377285707253E-01  0.401745411397E-01
  0.427757492777E-01  0.455415945135E-01  0.484819833403E-01  0.516073480169E-01  0.549286645648E-01
  0.584574698437E-01  0.622058773942E-01  0.661865916883E-01  0.704129203720E-01  0.748987840304E-01
  0.796587229373E-01  0.847079001810E-01  0.900621004797E-01  0.957377239167E-01  0.101751773730E+00
  0.108121837198E+00  0.114866058553E+00  0.122003102741E+00  0.129552108748E+00  0.137532631061E+00
  0.145964567752E+00  0.154868073511E+00  0.164263455872E+00  0.174171052757E+00  0.184611089347E+00
  0.195603512268E+00  0.207167798962E+00  0.219322740180E+00  0.232086193507E+00  0.245474805986E+00
  0.259503704054E+00  0.274186149296E+00  0.289533158912E+00  0.305553090341E+00  0.322251190147E+00
  0.339629108213E+00  0.357684379355E+00  0.376409875838E+00  0.395793235907E+00  0.415816275354E+00
  0.436454391381E+00  0.457675970539E+00  0.479441815374E+00  0.501704607504E+00  0.524408428123E+00
  0.547488360338E+00  0.570870201001E+00  0.594470312745E+00  0.618195649290E+00  0.641943988501E+00
  0.665604407565E+00  0.689058032365E+00  0.712179088030E+00  0.734836268657E+00  0.756894430536E+00
  0.778216593643E+00  0.798666209656E+00  0.818109620309E+00  0.836418586674E+00  0.853472717646E+00
  0.869161564846E+00  0.883386082766E+00  0.896059080236E+00  0.907104217236E+00  0.916453037330E+00
  0.924039481607E+00  0.929791319649E+00  0.933617975746E+00  0.935394347453E+00  0.934940435212E+00
  0.932000150764E+00  0.926453951972E+00  0.918353454858E+00  0.907781441120E+00  0.894836841187E+00
  0.879633511513E+00  0.862298917620E+00  0.842972751931E+00  0.821805508735E+00  0.798957014276E+00
  0.774594934653E+00  0.748893239003E+00  0.722030614826E+00  0.694188824273E+00  0.665550983659E+00
  0.636299769906E+00  0.606615561454E+00  0.576674547032E+00  0.546646852545E+00  0.516694755551E+00
  0.486971065295E+00  0.457617745339E+00  0.428764843312E+00  0.400529771797E+00  0.373016955607E+00
  0.346317832902E+00  0.320511171399E+00  0.295663639908E+00  0.271830561148E+00  0.249056764651E+00
  0.227377458861E+00  0.206819049332E+00  0.187399844944E+00  0.169130615483E+00  0.152014989672E+00
  0.136049709456E+00  0.121224779781E+00  0.107523569217E+00  0.949229228435E-01  0.833933444121E-01
  0.728992917419E-01  0.633996109496E-01  0.548481153782E-01  0.471942972578E-01  0.403841464126E-01
  0.343610416644E-01  0.290666768510E-01  0.244419838142E-01  0.204280182263E-01  0.169667796172E-01
  0.140019434580E-01  0.114794898993E-01  0.934822020057E-02  0.756015768227E-02  0.607083497393E-02
  0.483947334516E-02  0.382906298189E-02  0.300635525500E-02  0.234177940308E-02
 ae wavefunction
 -0.334028943372E-06 -0.354388576073E-06 -0.375878980838E-06 -0.398569474333E-06 -0.422533355379E-06
 -0.447848165451E-06 -0.474595943808E-06 -0.502863515392E-06 -0.532742791620E-06 -0.564331084899E-06
 -0.597731447436E-06 -0.633053031057E-06 -0.670411467525E-06 -0.709929270257E-06 -0.751736269637E-06
 -0.795970064574E-06 -0.842776510383E-06 -0.892310233520E-06 -0.944735180707E-06 -0.100022520006E-05
 -0.105896466210E-05 -0.112114911769E-05 -0.118698599796E-05 -0.125669535960E-05 -0.133051067641E-05
 -0.140867968146E-05 -0.149146526335E-05 -0.157914641845E-05 -0.167201926495E-05 -0.177039812115E-05
 -0.187461665258E-05 -0.198502909280E-05 -0.210201154216E-05 -0.222596334991E-05 -0.235730858497E-05
 -0.249649760108E-05 -0.264400870265E-05 -0.280034991750E-05 -0.296606088413E-05 -0.314171485988E-05
 -0.332792085892E-05 -0.352532592849E-05 -0.373461757052E-05 -0.395652632148E-05 -0.419182849628E-05
 -0.444134911278E-05 -0.470596500195E-05 -0.498660812015E-05 -0.528426907732E-05 -0.560000088900E-05
 -0.593492297667E-05 -0.629022542134E-05 -0.666717349589E-05 -0.706711248905E-05 -0.749147284070E-05
 -0.794177561311E-05 -0.841963831006E-05 -0.892678107768E-05 -0.946503330446E-05 -0.100363406453E-04
 -0.106427725068E-04 -0.112865300069E-04 -0.119699544583E-04 -0.126955363944E-04 -0.134659251778E-04
 -0.142839392354E-04 -0.151525769482E-04 -0.160750282446E-04 -0.170546869456E-04 -0.180951639058E-04
 -0.192003009967E-04 -0.203741859891E-04 -0.216211684112E-04 -0.229458764142E-04 -0.243532347042E-04
 -0.258484836789E-04 -0.274371997417E-04 -0.291253169430E-04 -0.309191500259E-04 -0.328254189137E-04
 -0.348512748063E-04 -0.370043279085E-04 -0.392926769816E-04 -0.417249407327E-04 -0.443102912515E-04
 -0.470584895586E-04 -0.499799234301E-04 -0.530856476369E-04 -0.563874267324E-04 -0.598977805747E-04
 -0.636300327426E-04 -0.675983620064E-04 -0.718178570856E-04 -0.763045748581E-04 -0.810756022560E-04
 -0.861491220759E-04 -0.915444829200E-04 -0.972822735808E-04 -0.103384402062E-03 -0.109874179596E-03
 -0.116776409908E-03 -0.124117484086E-03 -0.131925481364E-03 -0.140230276213E-03 -0.149063652074E-03
 -0.158459422210E-03 -0.168453557977E-03 -0.179084325129E-03 -0.190392428488E-03 -0.202421165541E-03
 -0.215216589484E-03 -0.228827682300E-03 -0.243306538406E-03 -0.258708559492E-03 -0.275092661287E-03
 -0.292521492831E-03 -0.311061669036E-03 -0.330784017301E-03 -0.351763838950E-03 -0.374081186369E-03
 -0.397821156707E-03 -0.423074203073E-03 -0.449936464197E-03 -0.478510113599E-03 -0.508903729314E-03
 -0.541232685297E-03 -0.575619565689E-03 -0.612194603165E-03 -0.651096142635E-03 -0.692471131648E-03
 -0.736475638884E-03 -0.783275402156E-03 -0.833046407501E-03 -0.885975500821E-03 -0.942261033792E-03
 -0.100211354566E-02 -0.106575648270E-02 -0.113342695711E-02 -0.120537654719E-02 -0.128187214074E-02
 -0.136319682363E-02 -0.144965081547E-02 -0.154155245454E-02 -0.163923923402E-02 -0.174306889157E-02
 -0.185342055464E-02 -0.197069594326E-02 -0.209532063302E-02 -0.222774537998E-02 -0.236844750988E-02
 -0.251793237382E-02 -0.267673487243E-02 -0.284542105055E-02 -0.302458976460E-02 -0.321487442421E-02
 -0.341694481014E-02 -0.363150896998E-02 -0.385931519293E-02 -0.410115406524E-02 -0.435786060678E-02
 -0.463031648993E-02 -0.491945234072E-02 -0.522625012247E-02 -0.555174560132E-02 -0.589703089275E-02
 -0.626325708753E-02 -0.665163695512E-02 -0.706344772137E-02 -0.750003391739E-02 -0.796281029461E-02
 -0.845326480104E-02 -0.897296161194E-02 -0.952354420752E-02 -0.101067384885E-01 -0.107243559194E-01
 -0.113782966878E-01 -0.120705528655E-01 -0.128032115575E-01 -0.135784580198E-01 -0.143985787280E-01
 -0.152659643752E-01 -0.161831127729E-01 -0.171526316312E-01 -0.181772411864E-01 -0.192597766440E-01
 -0.204031904018E-01 -0.216105540130E-01 -0.228850598468E-01 -0.242300224002E-01 -0.256488792098E-01
 -0.271451913082E-01 -0.287226431673E-01 -0.303850420629E-01 -0.321363167933E-01 -0.339805156778E-01
 -0.359218037570E-01 -0.379644591115E-01 -0.401128682099E-01 -0.423715201938E-01 -0.447449999986E-01
 -0.472379802099E-01 -0.498552115429E-01 -0.526015118349E-01 -0.554817534316E-01 -0.585008488466E-01
 -0.616637345693E-01 -0.649753528938E-01 -0.684406316392E-01 -0.720644616323E-01 -0.758516718204E-01
 -0.798070018870E-01 -0.839350722440E-01 -0.882403512774E-01 -0.927271197326E-01 -0.973994321301E-01
 -0.102261075116E+00 -0.107315522660E+00 -0.112565888039E+00 -0.118014872541E+00 -0.123664710878E+00
 -0.129517113286E+00 -0.135573204339E+00 -0.141833458534E+00 -0.148297632724E+00 -0.154964695527E+00
 -0.161832753883E+00 -0.168898976958E+00 -0.176159517685E+00 -0.183609432250E+00 -0.191242597930E+00
 -0.199051629768E+00 -0.207027796662E+00 -0.215160937550E+00 -0.223439378541E+00 -0.231849851952E+00
 -0.240377418388E+00 -0.249005393154E+00 -0.257715278375E+00 -0.266486702142E+00 -0.275297365886E+00
 -0.284123000320E+00 -0.292937329893E+00 -0.301712043703E+00 -0.310416769841E+00 -0.319019048763E+00
 -0.327484301274E+00 -0.335775788522E+00 -0.343854565252E+00 -0.351679433186E+00 -0.359206907175E+00
 -0.366391211041E+00 -0.373184320789E+00 -0.379536068527E+00 -0.385394311210E+00 -0.390705157055E+00
 -0.395413233773E+00 -0.399461980814E+00 -0.402793953479E+00 -0.405351133822E+00 -0.407075250688E+00
 -0.407908112326E+00 -0.407791955906E+00 -0.406669814476E+00 -0.404485900802E+00 -0.401186005191E+00
 -0.396717904351E+00 -0.391031777382E+00 -0.384080626600E+00 -0.375820699759E+00 -0.366211912233E+00
 -0.355218266731E+00 -0.342808269029E+00 -0.328955338257E+00 -0.313638209836E+00 -0.296841329224E+00
 -0.278555234772E+00 -0.258776926368E+00 -0.237510217582E+00 -0.214766066748E+00 -0.190562882662E+00
 -0.164926799089E+00 -0.137891911528E+00 -0.109500468978E+00 -0.798030128223E-01 -0.488584554802E-01
 -0.167340921345E-01  0.164944587780E-01  0.507433874190E-01  0.859208936547E-01  0.121927450051E+00
  0.158656116506E+00  0.195992897397E+00  0.233817140114E+00  0.272001992322E+00  0.310414968323E+00
  0.348918722482E+00  0.387372193269E+00  0.425632329138E+00  0.463556569434E+00  0.501005932695E+00
  0.537847740760E+00  0.573955830148E+00  0.609205836279E+00  0.643465762317E+00  0.676587015213E+00
  0.708402949644E+00  0.738736519240E+00  0.767411361536E+00  0.794259983153E+00  0.819127400558E+00
  0.841872012222E+00  0.862365711590E+00  0.880494239004E+00  0.896157985135E+00  0.909273108915E+00
  0.919772744019E+00  0.927608087737E+00  0.932749236722E+00  0.935185692079E+00  0.934926514873E+00
  0.932000150764E+00  0.926453951972E+00  0.918353454858E+00  0.907781441120E+00  0.894836841187E+00
  0.879633511513E+00  0.862298917620E+00  0.842972751931E+00  0.821805508735E+00  0.798957014276E+00
  0.774594934653E+00  0.748893239003E+00  0.722030614826E+00  0.694188824273E+00  0.665550983659E+00
  0.636299769906E+00  0.606615561454E+00  0.576674547032E+00  0.546646852545E+00  0.516694755551E+00
  0.486971065295E+00  0.457617745339E+00  0.428764843312E+00  0.400529771797E+00  0.373016955607E+00
  0.346317832902E+00  0.320511171399E+00  0.295663639908E+00  0.271830561148E+00  0.249056764651E+00
  0.227377458861E+00  0.206819049332E+00  0.187399844944E+00  0.169130615483E+00  0.152014989672E+00
  0.136049709456E+00  0.121224779781E+00  0.107523569217E+00  0.949229228435E-01  0.833933444121E-01
  0.728992917419E-01  0.633996109496E-01  0.548481153782E-01  0.471942972578E-01  0.403841464126E-01
  0.343610416644E-01  0.290666768510E-01  0.244419838142E-01  0.204280182263E-01  0.169667796172E-01
  0.140019434580E-01  0.114794898993E-01  0.934822020057E-02  0.756015768227E-02  0.607083497393E-02
  0.483947334516E-02  0.382906298189E-02  0.300635525500E-02  0.234177940308E-02
 pseudo wavefunction
  0.791173641949E-08  0.843464205649E-08  0.899210778118E-08  0.958641775264E-08  0.102200070955E-07
  0.108954718776E-07  0.116155797471E-07  0.123832812727E-07  0.132017220333E-07  0.140742555065E-07
  0.150044568095E-07  0.159961373474E-07  0.170533604301E-07  0.181804579217E-07  0.193820479893E-07
  0.206630540258E-07  0.220287248230E-07  0.234846560779E-07  0.250368133204E-07  0.266915563567E-07
  0.284556653279E-07  0.303363684905E-07  0.323413718341E-07  0.344788906556E-07  0.367576832204E-07
  0.391870866485E-07  0.417770551729E-07  0.445382009253E-07  0.474818374187E-07  0.506200259033E-07
  0.539656247861E-07  0.575323423168E-07  0.613347927564E-07  0.653885562571E-07  0.697102427006E-07
  0.743175597554E-07  0.792293854321E-07  0.844658454340E-07  0.900483956202E-07  0.959999099187E-07
  0.102344774050E-06  0.109108985444E-06  0.116320259765E-06  0.124008144470E-06  0.132204139876E-06
  0.140941828234E-06  0.150257011325E-06  0.160187857153E-06  0.170775056339E-06  0.182061988839E-06
  0.194094901699E-06  0.206923098537E-06  0.220599141567E-06  0.235179066961E-06  0.250722614457E-06
  0.267293472132E-06  0.284959537356E-06  0.303793195001E-06  0.323871614020E-06  0.345277063647E-06
  0.368097250482E-06  0.392425677858E-06  0.418362028963E-06  0.446012575280E-06  0.475490612021E-06
  0.506916922343E-06  0.540420272240E-06  0.576137938152E-06  0.614216269432E-06  0.654811288002E-06
  0.698089327629E-06  0.744227715463E-06  0.793415498605E-06  0.845854218715E-06  0.901758737794E-06
  0.961358118559E-06  0.102489656300E-05  0.109263441296E-05  0.116484921685E-05  0.124183686689E-05
  0.132391281145E-05  0.141141334757E-05  0.150469699893E-05  0.160414598477E-05  0.171016778606E-05
  0.182319681504E-05  0.194369619516E-05  0.207215965869E-05  0.220911356970E-05  0.235511908072E-05
  0.251077443199E-05  0.267671740268E-05  0.285362792403E-05  0.304223086526E-05  0.324329900361E-05
  0.345765619062E-05  0.368618072771E-05  0.392980896486E-05  0.418953913710E-05  0.446643545453E-05
  0.476163246274E-05  0.507633969131E-05  0.541184660958E-05  0.576952790994E-05  0.615084914024E-05
  0.655737270854E-05  0.699076428458E-05  0.745279962443E-05  0.794537184606E-05  0.847049918584E-05
  0.903033326756E-05  0.962716791797E-05  0.102634485649E-04  0.109417822565E-04  0.116649483426E-04
  0.124359098619E-04  0.132578256815E-04  0.141340634394E-04  0.150682133414E-04  0.160641028703E-04
  0.171258124666E-04  0.182576922464E-04  0.194643798230E-04  0.207508193065E-04  0.221222815594E-04
  0.235843857901E-04  0.251431225733E-04  0.268048783918E-04  0.285764617999E-04  0.304651313152E-04
  0.324786251543E-04  0.346251929316E-04  0.369136294545E-04  0.393533107497E-04  0.419542324708E-04
  0.447270508432E-04  0.476831263138E-04  0.508345700849E-04  0.541942937215E-04  0.577760620366E-04
  0.615945494693E-04  0.656654001875E-04  0.700052921604E-04  0.746320054631E-04  0.795644950928E-04
  0.848229685942E-04  0.904289688112E-04  0.964054621039E-04  0.102776932391E-03  0.109569481402E-03
  0.116810935549E-03  0.124530959853E-03  0.132761179397E-03  0.141535308789E-03  0.150889290176E-03
  0.160861440368E-03  0.171492607669E-03  0.182826339058E-03  0.194909058404E-03  0.207790256439E-03
  0.221522693260E-03  0.236162614193E-03  0.251769979892E-03  0.268408711616E-03  0.286146952668E-03
  0.305057347086E-03  0.325217336685E-03  0.346709477692E-03  0.369621778233E-03  0.394048058055E-03
  0.420088331943E-03  0.447849218383E-03  0.477444375122E-03  0.508994963405E-03  0.542630142744E-03
  0.578487598239E-03  0.616714102572E-03  0.657466114936E-03  0.700910419326E-03  0.747224804750E-03
  0.796598790098E-03  0.849234396588E-03  0.905346970874E-03  0.965166062123E-03  0.102893635656E-02
  0.109691867322E-02  0.116939102487E-02  0.124664974832E-02  0.132901070862E-02  0.141681058188E-02
  0.151040822187E-02  0.161018611560E-02  0.171655193393E-02  0.182994018285E-02  0.195081396232E-02
  0.207966683925E-02  0.221702484194E-02  0.236344858380E-02  0.251953552438E-02  0.268592237658E-02
  0.286328766900E-02  0.305235447340E-02  0.325389330739E-02  0.346872522344E-02  0.369772509559E-02
  0.394182511618E-02  0.420201851547E-02  0.447936351773E-02  0.477498754814E-02  0.509009170578E-02
  0.542595551839E-02  0.578394199601E-02  0.616550300079E-02  0.657218495177E-02  0.700563488383E-02
  0.746760688129E-02  0.795996890729E-02  0.848471005127E-02  0.904394821754E-02  0.963993827907E-02
  0.102750807215E-01  0.109519308028E-01  0.116732082561E-01  0.124418075619E-01  0.132608088188E-01
  0.141334892409E-01  0.150633353107E-01  0.160540556179E-01  0.171095944125E-01  0.182341459020E-01
  0.194321693218E-01  0.207084048066E-01  0.220678900904E-01  0.235159780588E-01  0.250583551801E-01
  0.267010608313E-01  0.284505075401E-01  0.303135021521E-01  0.322972679323E-01  0.344094676011E-01
  0.366582272968E-01  0.390521614503E-01  0.416003985415E-01  0.443126077010E-01  0.471990260990E-01
  0.502704870503E-01  0.535384487418E-01  0.570150234674E-01  0.607130072259E-01  0.646459095092E-01
  0.688279830720E-01  0.732742534325E-01  0.780005478125E-01  0.830235231689E-01  0.883606929145E-01
  0.940304518583E-01  0.100052098826E+00  0.106445856333E+00  0.113232886602E+00  0.120435303107E+00
  0.128076176714E+00  0.136179535380E+00  0.144770356224E+00  0.153874548634E+00  0.163518926937E+00
  0.173731170973E+00  0.184539772730E+00  0.195973967015E+00  0.208063643934E+00  0.220839240730E+00
  0.234331610348E+00  0.248571863834E+00  0.263591183519E+00  0.279420603698E+00  0.296090755375E+00
  0.313631571457E+00  0.332071948722E+00  0.351439362795E+00  0.371759432434E+00  0.393055429534E+00
  0.415347731528E+00  0.438653213244E+00  0.462984575907E+00  0.488349611750E+00  0.514750403806E+00
  0.542182461820E+00  0.570633796964E+00  0.600083940163E+00  0.630502911405E+00  0.661850150472E+00
  0.694073423037E+00  0.727107720143E+00  0.760874173609E+00  0.795279014867E+00  0.830212610046E+00
  0.865548609590E+00  0.901143256067E+00  0.936834898847E+00  0.972443768369E+00  0.100777206537E+01
  0.104260442079E+01  0.107670877923E+01  0.110983775180E+01  0.114173047131E+01  0.117211496318E+01
  0.120071101711E+01  0.122723350624E+01  0.125139605107E+01  0.127291486357E+01  0.129151253346E+01
  0.130692143346E+01  0.131888632791E+01  0.132716567388E+01  0.133153101477E+01  0.133176379675E+01
  0.132764890527E+01  0.131896424601E+01  0.130546581085E+01  0.128686790943E+01  0.126281864711E+01
  0.123288319788E+01  0.119679968712E+01  0.115456546998E+01  0.110621675007E+01  0.000000000000E+00
  0.000000000000E+00  0.000000000000E+00  0.000000000000E+00  0.000000000000E+00  0.000000000000E+00
  0.000000000000E+00  0.000000000000E+00  0.000000000000E+00  0.000000000000E+00  0.000000000000E+00
  0.000000000000E+00  0.000000000000E+00  0.000000000000E+00  0.000000000000E+00  0.000000000000E+00
  0.000000000000E+00  0.000000000000E+00  0.000000000000E+00  0.000000000000E+00  0.000000000000E+00
  0.000000000000E+00  0.000000000000E+00  0.000000000000E+00  0.000000000000E+00  0.000000000000E+00
  0.000000000000E+00  0.000000000000E+00  0.000000000000E+00  0.000000000000E+00  0.000000000000E+00
  0.000000000000E+00  0.000000000000E+00  0.000000000000E+00  0.000000000000E+00  0.000000000000E+00
  0.000000000000E+00  0.000000000000E+00  0.000000000000E+00  0.000000000000E+00  0.000000000000E+00
  0.000000000000E+00  0.000000000000E+00  0.000000000000E+00  0.000000000000E+00  0.000000000000E+00
  0.000000000000E+00  0.000000000000E+00  0.000000000000E+00  0.000000000000E+00  0.000000000000E+00
  0.000000000000E+00  0.000000000000E+00  0.000000000000E+00  0.000000000000E+00
 ae wavefunction
 -0.521199654712E-06 -0.552967671797E-06 -0.586500081311E-06 -0.621905041071E-06 -0.659296922425E-06
 -0.698796716723E-06 -0.740532433396E-06 -0.784639549193E-06 -0.831261477512E-06 -0.880550059146E-06
 -0.932666090956E-06 -0.987779887303E-06 -0.104607187348E-05 -0.110773321252E-05 -0.117296648446E-05
 -0.124198639087E-05 -0.131502051621E-05 -0.139231013087E-05 -0.147411104812E-05 -0.156069453077E-05
 -0.165234826023E-05 -0.174937736307E-05 -0.185210550318E-05 -0.196087604465E-05 -0.207605328691E-05
 -0.219802377871E-05 -0.232719771668E-05 -0.246401043111E-05 -0.260892396821E-05 -0.276242877263E-05
 -0.292504547736E-05 -0.309732680859E-05 -0.327985961224E-05 -0.347326701053E-05 -0.367821069683E-05
 -0.389539337793E-05 -0.412556137323E-05 -0.436950738095E-05 -0.462807342279E-05 -0.490215397746E-05
 -0.519269931662E-05 -0.550071905663E-05 -0.582728593705E-05 -0.617353984618E-05 -0.654069210246E-05
 -0.693003001765E-05 -0.734292174986E-05 -0.778082147175E-05 -0.824527487579E-05 -0.873792502864E-05
 -0.926051861313E-05 -0.981491256527E-05 -0.104030811463E-04 -0.110271234696E-04 -0.116892715139E-04
 -0.123918986600E-04 -0.131375287704E-04 -0.139288458654E-04 -0.147687044207E-04 -0.156601403277E-04
 -0.166063825733E-04 -0.176108656590E-04 -0.186772428386E-04 -0.198094002016E-04 -0.210114716658E-04
 -0.222878549474E-04 -0.236432285527E-04 -0.250825698683E-04 -0.266111744231E-04 -0.282346763931E-04
 -0.299590704204E-04 -0.317907348344E-04 -0.337364563961E-04 -0.358034566142E-04 -0.379994197253E-04
 -0.403325225531E-04 -0.428114662058E-04 -0.454455098441E-04 -0.482445066399E-04 -0.512189419856E-04
 -0.543799742133E-04 -0.577394778604E-04 -0.613100897803E-04 -0.651052581204E-04 -0.691392944948E-04
 -0.734274294525E-04 -0.779858714955E-04 -0.828318698669E-04 -0.879837813141E-04 -0.934611411183E-04
 -0.992847386414E-04 -0.105476697636E-03 -0.112060561689E-03 -0.119061385043E-03 -0.126505829181E-03
 -0.134422265508E-03 -0.142840884483E-03 -0.151793811690E-03 -0.161315231128E-03 -0.171441516317E-03
 -0.182211369571E-03 -0.193665970035E-03 -0.205849130936E-03 -0.218807466679E-03 -0.232590570318E-03
 -0.247251202115E-03 -0.262845489692E-03 -0.279433140713E-03 -0.297077668612E-03 -0.315846632262E-03
 -0.335811890376E-03 -0.357049871559E-03 -0.379641860871E-03 -0.403674303830E-03 -0.429239129044E-03
 -0.456434090331E-03 -0.485363129613E-03 -0.516136761698E-03 -0.548872482216E-03 -0.583695200041E-03
 -0.620737695559E-03 -0.660141106234E-03 -0.702055440990E-03 -0.746640125015E-03 -0.794064576664E-03
 -0.844508818155E-03 -0.898164121971E-03 -0.955233694806E-03 -0.101593340109E-02 -0.108049252816E-02
 -0.114915459526E-02 -0.122217820863E-02 -0.129983796497E-02 -0.138242540590E-02 -0.147025002563E-02
 -0.156364033489E-02 -0.166294498338E-02 -0.176853394389E-02 -0.188079976084E-02 -0.200015886615E-02
 -0.212705296565E-02 -0.226195049896E-02 -0.240534817627E-02 -0.255777259502E-02 -0.271978194002E-02
 -0.289196777024E-02 -0.307495689554E-02 -0.326941334714E-02 -0.347604044470E-02 -0.369558296382E-02
 -0.392882940707E-02 -0.417661438193E-02 -0.443982108882E-02 -0.471938392225E-02 -0.501629118811E-02
 -0.533158793966E-02 -0.566637893497E-02 -0.602183171775E-02 -0.639917982372E-02 -0.679972611382E-02
 -0.722484623541E-02 -0.767599221198E-02 -0.815469616137E-02 -0.866257414155E-02 -0.920133012273E-02
 -0.977276008324E-02 -0.103787562258E-01 -0.110213113102E-01 -0.117025230955E-01 -0.124245988868E-01
 -0.131898601760E-01 -0.140007473677E-01 -0.148598245775E-01 -0.157697844900E-01 -0.167334532581E-01
 -0.177537954283E-01 -0.188339188667E-01 -0.199770796666E-01 -0.211866870056E-01 -0.224663079266E-01
 -0.238196720048E-01 -0.252506758657E-01 -0.267633875106E-01 -0.283620504036E-01 -0.300510872701E-01
 -0.318351035485E-01 -0.337188904356E-01 -0.357074274580E-01 -0.378058844954E-01 -0.400196231785E-01
 -0.423541975729E-01 -0.448153540589E-01 -0.474090303048E-01 -0.501413532280E-01 -0.530186358281E-01
 -0.560473727692E-01 -0.592342345815E-01 -0.625860603415E-01 -0.661098486869E-01 -0.698127470082E-01
 -0.737020386570E-01 -0.777851279987E-01 -0.820695231337E-01 -0.865628161014E-01 -0.912726603777E-01
 -0.962067454692E-01 -0.101372768406E+00 -0.106778401927E+00 -0.112431259155E+00 -0.118338854556E+00
 -0.124508560985E+00 -0.130947562605E+00 -0.137662803503E+00 -0.144660931817E+00 -0.151948239195E+00
 -0.159530595439E+00 -0.167413378205E+00 -0.175601397635E+00 -0.184098815848E+00 -0.192909061243E+00
 -0.202034737588E+00 -0.211477527946E+00 -0.221238093489E+00 -0.231315967362E+00 -0.241709443759E+00
 -0.252415462488E+00 -0.263429489354E+00 -0.274745392756E+00 -0.286355317042E+00 -0.298249553212E+00
 -0.310416407733E+00 -0.322842070372E+00 -0.335510482123E+00 -0.348403204513E+00 -0.361499291838E+00
 -0.374775168070E+00 -0.388204510477E+00 -0.401758142062E+00 -0.415403934952E+00 -0.429106726563E+00
 -0.442828249105E+00 -0.456527072362E+00 -0.470158556551E+00 -0.483674810585E+00 -0.497024648878E+00
 -0.510153539912E+00 -0.523003542488E+00 -0.535513231767E+00 -0.547617625794E+00 -0.559248132344E+00
 -0.570332542495E+00 -0.580795098527E+00 -0.590556656985E+00 -0.599534953340E+00 -0.607644957169E+00
 -0.614799293235E+00 -0.620908700843E+00 -0.625882512702E+00 -0.629629145559E+00 -0.632056606384E+00
 -0.633073019647E+00 -0.632587182567E+00 -0.630509149351E+00 -0.626750843726E+00 -0.621226695447E+00
 -0.613854296422E+00 -0.604555070592E+00 -0.593254954258E+00 -0.579885081738E+00 -0.564382474412E+00
 -0.546690729633E+00 -0.526760707416E+00 -0.504551212917E+00 -0.480029671957E+00 -0.453172797020E+00
 -0.423967241222E+00 -0.392410235356E+00 -0.358510204510E+00 -0.322287357315E+00 -0.283774241119E+00
 -0.243016254065E+00 -0.200072103814E+00 -0.155014201593E+00 -0.107928979160E+00 -0.589171172230E-01
 -0.809367485740E-02  0.444118867542E-01  0.984557878778E-01  0.153880116153E+00  0.210513103430E+00
  0.268169477828E+00  0.326650877698E+00  0.385746327489E+00  0.445232805485E+00  0.504875986175E+00
  0.564431315043E+00  0.623645676090E+00  0.682259983370E+00  0.740012959962E+00  0.796645850042E+00
  0.851906504301E+00  0.905549447341E+00  0.957328190817E+00  0.100698027543E+01  0.105421331571E+01
  0.109870304325E+01  0.114010562147E+01  0.117807516518E+01  0.121227658247E+01  0.124239130005E+01
  0.126811873316E+01  0.128917664816E+01  0.130530195106E+01  0.131625220605E+01  0.132180765194E+01
  0.132177335587E+01  0.131598118326E+01  0.130429137736E+01  0.128659363507E+01  0.126280765593E+01
  0.123288319788E+01  0.119679968712E+01  0.115456546998E+01  0.110621675007E+01  0.000000000000E+00
  0.000000000000E+00  0.000000000000E+00  0.000000000000E+00  0.000000000000E+00  0.000000000000E+00
  0.000000000000E+00  0.000000000000E+00  0.000000000000E+00  0.000000000000E+00  0.000000000000E+00
  0.000000000000E+00  0.000000000000E+00  0.000000000000E+00  0.000000000000E+00  0.000000000000E+00
  0.000000000000E+00  0.000000000000E+00  0.000000000000E+00  0.000000000000E+00  0.000000000000E+00
  0.000000000000E+00  0.000000000000E+00  0.000000000000E+00  0.000000000000E+00  0.000000000000E+00
  0.000000000000E+00  0.000000000000E+00  0.000000000000E+00  0.000000000000E+00  0.000000000000E+00
  0.000000000000E+00  0.000000000000E+00  0.000000000000E+00  0.000000000000E+00  0.000000000000E+00
  0.000000000000E+00  0.000000000000E+00  0.000000000000E+00  0.000000000000E+00  0.000000000000E+00
  0.000000000000E+00  0.000000000000E+00  0.000000000000E+00  0.000000000000E+00  0.000000000000E+00
  0.000000000000E+00  0.000000000000E+00  0.000000000000E+00  0.000000000000E+00  0.000000000000E+00
  0.000000000000E+00  0.000000000000E+00  0.000000000000E+00  0.000000000000E+00
 End of Dataset
  PAW_PBE Te 08Apr2002                   
   6.00000000000000     
 parameters from PSCTR are:
   VRHFIN =Te: s2p4
   LEXCH  = PE
   EATOM  =   223.2721 eV,   16.4100 Ry

   TITEL  = PAW_PBE Te 08Apr2002
   LULTRA =        F    use ultrasoft PP ?
   IUNSCR =        1    unscreen: 0-lin 1-nonlin 2-no
   RPACOR =    2.200    partial core radius
   POMASS =  127.600; ZVAL   =    6.000    mass and valenz
   RCORE  =    2.300    outmost cutoff radius
   RWIGS  =    2.900; RWIGS  =    1.535    wigner-seitz radius (au A)
   ENMAX  =  174.982; ENMIN  =  131.236 eV
   ICORE  =        3    local potential
   LCOR   =        T    correct aug charges
   LPAW   =        T    paw PP
   EAUG   =  368.792
   DEXC   =    0.000
   RMAX   =    2.345    core radius for proj-oper
   RAUG   =    1.300    factor for augmentation sphere
   RDEP   =    2.397    radius for radial grids
   RDEPT  =    2.174    core radius for aug-charge
 
   Atomic configuration
   13 entries
     n  l   j            E        occ.
     1  0  0.50    -31621.2075   2.0000
     2  0  0.50     -4848.7941   2.0000
     2  1  1.50     -4352.1960   6.0000
     3  0  0.50      -964.9612   2.0000
     3  1  1.50      -803.6179   6.0000
     3  2  2.50      -559.8710  10.0000
     4  0  0.50      -164.3522   2.0000
     4  1  1.50      -114.3756   6.0000
     4  2  2.50       -41.6483  10.0000
     5  0  0.50       -15.1072   2.0000
     5  1  0.50        -5.9526   4.0000
     5  2  1.50        -5.4423   0.0000
     4  3  2.50        -5.4423   0.0000
   Description
     l       E           TYP  RCUT    TYP  RCUT
     0    -15.1072389     23  2.300
     0    -16.4678215     23  2.300
     1     -5.9526306     23  2.300
     1     -2.4873968     23  2.300
     2     -5.4423304     23  2.300
     3     -1.3605826     23  2.300
   Error from kinetic energy argument (eV)
   NDATA  =      100
   STEP   =   20.000   1.050
  26.7      24.1      22.8      20.4      19.3      17.2      15.3      14.4
  12.7      11.2      10.5      9.15      7.98      6.94      6.02      5.20
  4.49      3.86      3.32      2.63      2.25      1.92      1.51      1.28
  1.09     0.856     0.672     0.572     0.451     0.356     0.283     0.226
 0.182     0.148     0.121     0.996E-01 0.778E-01 0.652E-01 0.519E-01 0.440E-01
 0.354E-01 0.285E-01 0.230E-01 0.184E-01 0.148E-01 0.118E-01 0.939E-02 0.712E-02
 0.577E-02 0.458E-02 0.381E-02 0.342E-02 0.313E-02 0.296E-02 0.281E-02 0.269E-02
 0.253E-02 0.229E-02 0.200E-02 0.170E-02 0.143E-02 0.119E-02 0.101E-02 0.874E-03
 0.802E-03 0.748E-03 0.703E-03 0.651E-03 0.575E-03 0.501E-03 0.418E-03 0.352E-03
 0.306E-03 0.279E-03 0.258E-03 0.241E-03 0.216E-03 0.187E-03 0.156E-03 0.135E-03
 0.120E-03 0.111E-03 0.103E-03 0.909E-04 0.774E-04 0.659E-04 0.583E-04 0.535E-04
 0.491E-04 0.433E-04 0.365E-04 0.319E-04 0.288E-04 0.266E-04 0.234E-04 0.199E-04
 0.173E-04 0.160E-04 0.144E-04 0.125E-04
END of PSCTR-controll parameters
 local part
   81.2582175088937     
  0.43287524E+01  0.43585095E+01  0.44300409E+01  0.45490556E+01  0.47152452E+01
  0.49281735E+01  0.51872729E+01  0.54918418E+01  0.58410420E+01  0.62338975E+01
  0.66692960E+01  0.71459912E+01  0.76626078E+01  0.82176479E+01  0.88094982E+01
  0.94364392E+01  0.10096653E+02  0.10788231E+02  0.11509184E+02  0.12257449E+02
  0.13030892E+02  0.13827318E+02  0.14644477E+02  0.15480067E+02  0.16331740E+02
  0.17197112E+02  0.18073764E+02  0.18959255E+02  0.19851125E+02  0.20746906E+02
  0.21644128E+02  0.22540329E+02  0.23433062E+02  0.24319900E+02  0.25198447E+02
  0.26066342E+02  0.26921268E+02  0.27760954E+02  0.28583188E+02  0.29385816E+02
  0.30166753E+02  0.30923986E+02  0.31655585E+02  0.32359700E+02  0.33034576E+02
  0.33678549E+02  0.34290059E+02  0.34867647E+02  0.35409962E+02  0.35915765E+02
  0.36383928E+02  0.36813443E+02  0.37203416E+02  0.37553076E+02  0.37861773E+02
  0.38128980E+02  0.38354294E+02  0.38537437E+02  0.38678254E+02  0.38776716E+02
  0.38832916E+02  0.38847068E+02  0.38819505E+02  0.38750680E+02  0.38641159E+02
  0.38491620E+02  0.38302850E+02  0.38075741E+02  0.37811285E+02  0.37510573E+02
  0.37174786E+02  0.36805194E+02  0.36403149E+02  0.35970080E+02  0.35507485E+02
  0.35016930E+02  0.34500037E+02  0.33958480E+02  0.33393982E+02  0.32808300E+02
  0.32203229E+02  0.31580585E+02  0.30942207E+02  0.30289944E+02  0.29625651E+02
  0.28951182E+02  0.28268384E+02  0.27579089E+02  0.26885107E+02  0.26188222E+02
  0.25490184E+02  0.24792704E+02  0.24097448E+02  0.23406032E+02  0.22720016E+02
  0.22040900E+02  0.21370119E+02  0.20709041E+02  0.20058960E+02  0.19421094E+02
  0.18796581E+02  0.18186480E+02  0.17591762E+02  0.17013314E+02  0.16451935E+02
  0.15908336E+02  0.15383137E+02  0.14876869E+02  0.14389976E+02  0.13922810E+02
  0.13475636E+02  0.13048634E+02  0.12641897E+02  0.12255438E+02  0.11889186E+02
  0.11542996E+02  0.11216645E+02  0.10909841E+02  0.10622222E+02  0.10353364E+02
  0.10102781E+02  0.98699339E+01  0.96542299E+01  0.94550309E+01  0.92716561E+01
  0.91033876E+01  0.89494749E+01  0.88091398E+01  0.86815809E+01  0.85659790E+01
  0.84615017E+01  0.83673078E+01  0.82825525E+01  0.82063918E+01  0.81379867E+01
  0.80765077E+01  0.80211387E+01  0.79710810E+01  0.79255568E+01  0.78838128E+01
  0.78451231E+01  0.78087922E+01  0.77741579E+01  0.77405932E+01  0.77075091E+01
  0.76743557E+01  0.76406244E+01  0.76058487E+01  0.75696053E+01  0.75315150E+01
  0.74912425E+01  0.74484970E+01  0.74030318E+01  0.73546435E+01  0.73031720E+01
  0.72484990E+01  0.71905468E+01  0.71292772E+01  0.70646900E+01  0.69968207E+01
  0.69257391E+01  0.68515470E+01  0.67743758E+01  0.66943842E+01  0.66117561E+01
  0.65266972E+01  0.64394334E+01  0.63502074E+01  0.62592763E+01  0.61669090E+01
  0.60733837E+01  0.59789847E+01  0.58840008E+01  0.57887219E+01  0.56934372E+01
  0.55984324E+01  0.55039880E+01  0.54103765E+01  0.53178611E+01  0.52266936E+01
  0.51371126E+01  0.50493420E+01  0.49635899E+01  0.48800473E+01  0.47988869E+01
  0.47202627E+01  0.46443089E+01  0.45711397E+01  0.45008489E+01  0.44335096E+01
  0.43691744E+01  0.43078755E+01  0.42496249E+01  0.41944153E+01  0.41422199E+01
  0.40929943E+01  0.40466762E+01  0.40031873E+01  0.39624339E+01  0.39243083E+01
  0.38886899E+01  0.38554465E+01  0.38244358E+01  0.37955067E+01  0.37685006E+01
  0.37432530E+01  0.37195952E+01  0.36973550E+01  0.36763590E+01  0.36564333E+01
  0.36374056E+01  0.36191058E+01  0.36013675E+01  0.35840296E+01  0.35669368E+01
  0.35499409E+01  0.35329016E+01  0.35156877E+01  0.34981775E+01  0.34802595E+01
  0.34618330E+01  0.34428089E+01  0.34231093E+01  0.34026685E+01  0.33814326E+01
  0.33593601E+01  0.33364211E+01  0.33125978E+01  0.32878837E+01  0.32622837E+01
  0.32358134E+01  0.32084986E+01  0.31803748E+01  0.31514865E+01  0.31218868E+01
  0.30916360E+01  0.30608015E+01  0.30294568E+01  0.29976802E+01  0.29655545E+01
  0.29331658E+01  0.29006027E+01  0.28679554E+01  0.28353147E+01  0.28027713E+01
  0.27704149E+01  0.27383335E+01  0.27066125E+01  0.26753340E+01  0.26445763E+01
  0.26144131E+01  0.25849130E+01  0.25561390E+01  0.25281481E+01  0.25009908E+01
  0.24747108E+01  0.24493449E+01  0.24249225E+01  0.24014662E+01  0.23789907E+01
  0.23575038E+01  0.23370060E+01  0.23174908E+01  0.22989449E+01  0.22813484E+01
  0.22646750E+01  0.22488928E+01  0.22339643E+01  0.22198468E+01  0.22064932E+01
  0.21938523E+01  0.21818694E+01  0.21704868E+01  0.21596446E+01  0.21492807E+01
  0.21393323E+01  0.21297354E+01  0.21204265E+01  0.21113420E+01  0.21024198E+01
  0.20935989E+01  0.20848206E+01  0.20760285E+01  0.20671691E+01  0.20581924E+01
  0.20490518E+01  0.20397050E+01  0.20301136E+01  0.20202440E+01  0.20100671E+01
  0.19995588E+01  0.19886998E+01  0.19774756E+01  0.19658770E+01  0.19538993E+01
  0.19415430E+01  0.19288129E+01  0.19157188E+01  0.19022743E+01  0.18884976E+01
  0.18744104E+01  0.18600380E+01  0.18454091E+01  0.18305549E+01  0.18155095E+01
  0.18003088E+01  0.17849905E+01  0.17695936E+01  0.17541582E+01  0.17387246E+01
  0.17233335E+01  0.17080252E+01  0.16928394E+01  0.16778148E+01  0.16629887E+01
  0.16483970E+01  0.16340732E+01  0.16200489E+01  0.16063528E+01  0.15930113E+01
  0.15800474E+01  0.15674812E+01  0.15553296E+01  0.15436059E+01  0.15323204E+01
  0.15214795E+01  0.15110865E+01  0.15011411E+01  0.14916397E+01  0.14825754E+01
  0.14739383E+01  0.14657151E+01  0.14578901E+01  0.14504447E+01  0.14433578E+01
  0.14366063E+01  0.14301649E+01  0.14240069E+01  0.14181040E+01  0.14124269E+01
  0.14069453E+01  0.14016284E+01  0.13964453E+01  0.13913648E+01  0.13863562E+01
  0.13813894E+01  0.13764350E+01  0.13714647E+01  0.13664515E+01  0.13613700E+01
  0.13561965E+01  0.13509093E+01  0.13454888E+01  0.13399174E+01  0.13341801E+01
  0.13282643E+01  0.13221597E+01  0.13158588E+01  0.13093564E+01  0.13026499E+01
  0.12957395E+01  0.12886275E+01  0.12813188E+01  0.12738206E+01  0.12661423E+01
  0.12582954E+01  0.12502932E+01  0.12421509E+01  0.12338851E+01  0.12255140E+01
  0.12170569E+01  0.12085339E+01  0.11999660E+01  0.11913748E+01  0.11827822E+01
  0.11742101E+01  0.11656806E+01  0.11572151E+01  0.11488348E+01  0.11405601E+01
  0.11324106E+01  0.11244047E+01  0.11165597E+01  0.11088914E+01  0.11014141E+01
  0.10941407E+01  0.10870821E+01  0.10802476E+01  0.10736447E+01  0.10672787E+01
  0.10611533E+01  0.10552701E+01  0.10496290E+01  0.10442277E+01  0.10390623E+01
  0.10341269E+01  0.10294142E+01  0.10249150E+01  0.10206188E+01  0.10165135E+01
  0.10125860E+01  0.10088219E+01  0.10052060E+01  0.10017221E+01  0.99835365E+00
  0.99508338E+00  0.99189382E+00  0.98876729E+00  0.98568617E+00  0.98263301E+00
  0.97959066E+00  0.97654252E+00  0.97347258E+00  0.97036564E+00  0.96720742E+00
  0.96398465E+00  0.96068520E+00  0.95729819E+00  0.95381404E+00  0.95022453E+00
  0.94652288E+00  0.94270377E+00  0.93876337E+00  0.93469937E+00  0.93051094E+00
  0.92619876E+00  0.92176495E+00  0.91721307E+00  0.91254801E+00  0.90777597E+00
  0.90290437E+00  0.89794172E+00  0.89289754E+00  0.88778228E+00  0.88260716E+00
  0.87738408E+00  0.87212546E+00  0.86684418E+00  0.86155337E+00  0.85626636E+00
  0.85099650E+00  0.84575702E+00  0.84056097E+00  0.83542100E+00  0.83034933E+00
  0.82535758E+00  0.82045668E+00  0.81565677E+00  0.81096714E+00  0.80639611E+00
  0.80195099E+00  0.79763802E+00  0.79346234E+00  0.78942792E+00  0.78553758E+00
  0.78179292E+00  0.77819439E+00  0.77474122E+00  0.77143149E+00  0.76826217E+00
  0.76522909E+00  0.76232711E+00  0.75955005E+00  0.75689088E+00  0.75434173E+00
  0.75189399E+00  0.74953842E+00  0.74726520E+00  0.74506409E+00  0.74292448E+00
  0.74083550E+00  0.73878615E+00  0.73676537E+00  0.73476216E+00  0.73276570E+00
  0.73076541E+00  0.72875111E+00  0.72671305E+00  0.72464202E+00  0.72252945E+00
  0.72036744E+00  0.71814887E+00  0.71586741E+00  0.71351760E+00  0.71109487E+00
  0.70859557E+00  0.70601700E+00  0.70335743E+00  0.70061609E+00  0.69779318E+00
  0.69488982E+00  0.69190809E+00  0.68885094E+00  0.68572218E+00  0.68252641E+00
  0.67926898E+00  0.67595590E+00  0.67259382E+00  0.66918991E+00  0.66575179E+00
  0.66228749E+00  0.65880534E+00  0.65531387E+00  0.65182176E+00  0.64833775E+00
  0.64487052E+00  0.64142867E+00  0.63802055E+00  0.63465426E+00  0.63133753E+00
  0.62807764E+00  0.62488141E+00  0.62175506E+00  0.61870424E+00  0.61573393E+00
  0.61284842E+00  0.61005126E+00  0.60734526E+00  0.60473247E+00  0.60221413E+00
  0.59979071E+00  0.59746187E+00  0.59522652E+00  0.59308278E+00  0.59102807E+00
  0.58905909E+00  0.58717188E+00  0.58536187E+00  0.58362395E+00  0.58195247E+00
  0.58034136E+00  0.57878416E+00  0.57727407E+00  0.57580406E+00  0.57436691E+00
  0.57295525E+00  0.57156171E+00  0.57017891E+00  0.56879959E+00  0.56741662E+00
  0.56602315E+00  0.56461258E+00  0.56317870E+00  0.56171568E+00  0.56021816E+00
  0.55868129E+00  0.55710075E+00  0.55547279E+00  0.55379428E+00  0.55206269E+00
  0.55027614E+00  0.54843342E+00  0.54653395E+00  0.54457783E+00  0.54256580E+00
  0.54049922E+00  0.53838008E+00  0.53621097E+00  0.53399498E+00  0.53173577E+00
  0.52943743E+00  0.52710449E+00  0.52474186E+00  0.52235476E+00  0.51994870E+00
  0.51752940E+00  0.51510275E+00  0.51267471E+00  0.51025133E+00  0.50783861E+00
  0.50544248E+00  0.50306875E+00  0.50072303E+00  0.49841067E+00  0.49613674E+00
  0.49390599E+00  0.49172277E+00  0.48959099E+00  0.48751416E+00  0.48549527E+00
  0.48353683E+00  0.48164083E+00  0.47980869E+00  0.47804134E+00  0.47633910E+00
  0.47470178E+00  0.47312863E+00  0.47161837E+00  0.47016920E+00  0.46877883E+00
  0.46744452E+00  0.46616309E+00  0.46493097E+00  0.46374422E+00  0.46259860E+00
  0.46148959E+00  0.46041243E+00  0.45936219E+00  0.45833380E+00  0.45732211E+00
  0.45632192E+00  0.45532806E+00  0.45433541E+00  0.45333897E+00  0.45233392E+00
  0.45131562E+00  0.45027969E+00  0.44922204E+00  0.44813891E+00  0.44702687E+00
  0.44588289E+00  0.44470435E+00  0.44348904E+00  0.44223520E+00  0.44094152E+00
  0.43960718E+00  0.43823178E+00  0.43681544E+00  0.43535872E+00  0.43386262E+00
  0.43232859E+00  0.43075851E+00  0.42915462E+00  0.42751957E+00  0.42585629E+00
  0.42416807E+00  0.42245843E+00  0.42073113E+00  0.41899015E+00  0.41723959E+00
  0.41548370E+00  0.41372678E+00  0.41197316E+00  0.41022718E+00  0.40849310E+00
  0.40677509E+00  0.40507718E+00  0.40340322E+00  0.40175686E+00  0.40014149E+00
  0.39856024E+00  0.39701592E+00  0.39551102E+00  0.39404769E+00  0.39262771E+00
  0.39125249E+00  0.38992305E+00  0.38864001E+00  0.38740358E+00  0.38621357E+00
  0.38506942E+00  0.38397016E+00  0.38291445E+00  0.38190059E+00  0.38092657E+00
  0.37999005E+00  0.37908840E+00  0.37821873E+00  0.37737795E+00  0.37656273E+00
  0.37576961E+00  0.37499497E+00  0.37423511E+00  0.37348627E+00  0.37274465E+00
  0.37200649E+00  0.37126805E+00  0.37052569E+00  0.36977591E+00  0.36901534E+00
  0.36824080E+00  0.36744934E+00  0.36663822E+00  0.36580499E+00  0.36494746E+00
  0.36406376E+00  0.36315230E+00  0.36221186E+00  0.36124152E+00  0.36024073E+00
  0.35920927E+00  0.35814727E+00  0.35705520E+00  0.35593387E+00  0.35478440E+00
  0.35360822E+00  0.35240706E+00  0.35118289E+00  0.34993796E+00  0.34867471E+00
  0.34739580E+00  0.34610405E+00  0.34480242E+00  0.34349398E+00  0.34218190E+00
  0.34086938E+00  0.33955964E+00  0.33825591E+00  0.33696135E+00  0.33567904E+00
  0.33441198E+00  0.33316300E+00  0.33193479E+00  0.33072985E+00  0.32955046E+00
  0.32839869E+00  0.32727636E+00  0.32618502E+00  0.32512595E+00  0.32410017E+00
  0.32310836E+00  0.32215096E+00  0.32122805E+00  0.32033946E+00  0.31948469E+00
  0.31866298E+00  0.31787326E+00  0.31711422E+00  0.31638430E+00  0.31568170E+00
  0.31500442E+00  0.31435026E+00  0.31371685E+00  0.31310168E+00  0.31250212E+00
  0.31191545E+00  0.31133885E+00  0.31076951E+00  0.31020455E+00  0.30964116E+00
  0.30907653E+00  0.30850794E+00  0.30793277E+00  0.30734852E+00  0.30675281E+00
  0.30614347E+00  0.30551847E+00  0.30487600E+00  0.30421447E+00  0.30353251E+00
  0.30282898E+00  0.30210302E+00  0.30135399E+00  0.30058153E+00  0.29978555E+00
  0.29896621E+00  0.29812393E+00  0.29725939E+00  0.29637350E+00  0.29546740E+00
  0.29454246E+00  0.29360023E+00  0.29264246E+00  0.29167106E+00  0.29068808E+00
  0.28969571E+00  0.28869622E+00  0.28769198E+00  0.28668542E+00  0.28567899E+00
  0.28467515E+00  0.28367637E+00  0.28268504E+00  0.28170352E+00  0.28073405E+00
  0.27977879E+00  0.27883976E+00  0.27791884E+00  0.27701772E+00  0.27613796E+00
  0.27528088E+00  0.27444765E+00  0.27363917E+00  0.27285618E+00  0.27209914E+00
  0.27136833E+00  0.27066376E+00  0.26998522E+00  0.26933229E+00  0.26870430E+00
  0.26810041E+00  0.26751954E+00  0.26696044E+00  0.26642169E+00  0.26590169E+00
  0.26539873E+00  0.26491095E+00  0.26443639E+00  0.26397299E+00  0.26351865E+00
  0.26307117E+00  0.26262839E+00  0.26218808E+00  0.26174808E+00  0.26130623E+00
  0.26086046E+00  0.26040876E+00  0.25994923E+00  0.25948007E+00  0.25899963E+00
  0.25850640E+00  0.25799902E+00  0.25747630E+00  0.25693725E+00  0.25638104E+00
  0.25580705E+00  0.25521486E+00  0.25460425E+00  0.25397521E+00  0.25332793E+00
  0.25266279E+00  0.25198039E+00  0.25128149E+00  0.25056704E+00  0.24983815E+00
  0.24909607E+00  0.24834221E+00  0.24757810E+00  0.24680537E+00  0.24602575E+00
  0.24524104E+00  0.24445311E+00  0.24366385E+00  0.24287521E+00  0.24208910E+00
  0.24130743E+00  0.24053207E+00  0.23976484E+00  0.23900747E+00  0.23826163E+00
  0.23752886E+00  0.23681058E+00  0.23610810E+00  0.23542258E+00  0.23475501E+00
  0.23410624E+00  0.23347695E+00  0.23286764E+00  0.23227864E+00  0.23171009E+00
  0.23116194E+00  0.23063398E+00  0.23012582E+00  0.22963688E+00  0.22916644E+00
  0.22871361E+00  0.22827735E+00  0.22785651E+00  0.22744980E+00  0.22705582E+00
  0.22667310E+00  0.22630005E+00  0.22593504E+00  0.22557639E+00  0.22522238E+00
  0.22487128E+00  0.22452135E+00  0.22417089E+00  0.22381820E+00  0.22346168E+00
  0.22309976E+00  0.22273097E+00  0.22235393E+00  0.22196737E+00  0.22157014E+00
  0.22116121E+00  0.22073970E+00  0.22030486E+00  0.21985610E+00  0.21939298E+00
  0.21891523E+00  0.21842274E+00  0.21791554E+00  0.21739385E+00  0.21685804E+00
  0.21630863E+00  0.21574627E+00  0.21517178E+00  0.21458606E+00  0.21399018E+00
  0.21338529E+00  0.21277262E+00  0.21215351E+00  0.21152936E+00  0.21090162E+00
  0.21027180E+00  0.20964141E+00  0.20901201E+00  0.20838511E+00  0.20776223E+00
  0.20714486E+00  0.20653441E+00  0.20593225E+00  0.20533968E+00  0.20475789E+00
  0.20418799E+00  0.20363097E+00  0.20308772E+00  0.20255900E+00  0.20204542E+00
  0.20154748E+00  0.20106553E+00  0.20059977E+00  0.20015027E+00  0.19971694E+00
  0.19929954E+00  0.19889772E+00  0.19851097E+00  0.19813864E+00  0.19778000E+00
  0.19743416E+00  0.19710017E+00  0.19677695E+00  0.19646336E+00  0.19615818E+00
  0.19586012E+00  0.19556787E+00  0.19528004E+00  0.19499527E+00  0.19471214E+00
  0.19442929E+00  0.19414533E+00  0.19385893E+00  0.19356882E+00  0.19327376E+00
  0.19297260E+00  0.19266427E+00  0.19234776E+00  0.19202221E+00  0.19168683E+00
  0.19134094E+00  0.19098400E+00  0.19061557E+00  0.19023537E+00  0.18984322E+00
  0.18943907E+00  0.18902303E+00  0.18859532E+00  0.18815628E+00  0.18770637E+00
  0.18724619E+00  0.18677642E+00  0.18629786E+00  0.18581138E+00  0.18531795E+00
  0.18481861E+00  0.18431445E+00  0.18380664E+00  0.18329638E+00  0.18278487E+00
  0.18227337E+00  0.18176313E+00  0.18125537E+00  0.18075133E+00  0.18025217E+00
  0.17975906E+00  0.17927305E+00  0.17879519E+00  0.17832640E+00  0.17786756E+00
  0.17741943E+00  0.17698268E+00  0.17655790E+00  0.17614554E+00  0.17574596E+00
  0.17535939E+00  0.17498594E+00  0.17462563E+00  0.17427833E+00  0.17394381E+00
  0.17362171E+00  0.17331159E+00  0.17301288E+00  0.17272493E+00  0.17244700E+00
  0.17217826E+00  0.17191782E+00  0.17166471E+00  0.17141792E+00  0.17117638E+00
  0.17093899E+00  0.17070464E+00  0.17047219E+00  0.17024049E+00  0.17000843E+00
  0.16977489E+00  0.16953880E+00  0.16929914E+00  0.16905492E+00  0.16880522E+00
  0.16854921E+00  0.16828609E+00  0.16801520E+00  0.16773592E+00  0.16744775E+00
  0.16715029E+00  0.16684323E+00  0.16652636E+00  0.16619961E+00  0.16586299E+00
 gradient corrections used for XC
           5
 core charge-density (partial)
  0.32970131E+01  0.32952689E+01  0.32900415E+01  0.32813471E+01  0.32692124E+01
  0.32536748E+01  0.32347818E+01  0.32125911E+01  0.31871701E+01  0.31585957E+01
  0.31269537E+01  0.30923385E+01  0.30548528E+01  0.30146065E+01  0.29717168E+01
  0.29263073E+01  0.28785076E+01  0.28284522E+01  0.27762806E+01  0.27221359E+01
  0.26661648E+01  0.26085164E+01  0.25493421E+01  0.24887943E+01  0.24270265E+01
  0.23641919E+01  0.23004435E+01  0.22359331E+01  0.21708107E+01  0.21052244E+01
  0.20393192E+01  0.19732371E+01  0.19071166E+01  0.18410919E+01  0.17752927E+01
  0.17098443E+01  0.16448664E+01  0.15804736E+01  0.15167748E+01  0.14538730E+01
  0.13918653E+01  0.13308427E+01  0.12708897E+01  0.12120847E+01  0.11544996E+01
  0.10982002E+01  0.10432457E+01  0.98968898E+00  0.93757692E+00  0.88695013E+00
  0.83784325E+00  0.79028507E+00  0.74429866E+00  0.69990159E+00  0.65710609E+00
  0.61591928E+00  0.57634335E+00  0.53837584E+00  0.50200984E+00  0.46723425E+00
  0.43403400E+00  0.40239035E+00  0.37228112E+00  0.34368093E+00  0.31656147E+00
  0.29089177E+00  0.26663844E+00  0.24376588E+00  0.22223661E+00  0.20201141E+00
  0.18304963E+00  0.16530936E+00  0.14874770E+00  0.13332090E+00  0.11898463E+00
  0.10569414E+00  0.93404442E-01  0.82070476E-01  0.71647293E-01  0.62090197E-01
  0.53354886E-01  0.45397589E-01  0.38175190E-01  0.31645337E-01  0.25766545E-01
  0.20498293E-01  0.15801106E-01  0.11636625E-01  0.79676795E-02  0.47583374E-02
  0.19739558E-02 -0.41878099E-03 -0.24518293E-02 -0.41557628E-02 -0.55597554E-02
 -0.66915719E-02 -0.75775645E-02 -0.82426752E-02 -0.87104447E-02 -0.90030256E-02
 -0.91412013E-02 -0.91444087E-02 -0.90307655E-02 -0.88171010E-02 -0.85189901E-02
 -0.81507907E-02 -0.77256832E-02 -0.72557124E-02 -0.67518318E-02 -0.62239486E-02
 -0.56809709E-02 -0.51308552E-02 -0.45806550E-02 -0.40365695E-02 -0.35039929E-02
 -0.29875633E-02 -0.24912114E-02 -0.20182086E-02 -0.15712147E-02 -0.11523243E-02
 -0.76311286E-03 -0.40468062E-03 -0.77696071E-04  0.21756243E-03  0.48116648E-03
  0.71349902E-03  0.91521750E-03  0.10872187E-02  0.12306053E-02  0.13466545E-02
  0.14367885E-02  0.15025462E-02  0.15455578E-02  0.15675205E-02  0.15701763E-02
  0.15552919E-02  0.15246395E-02  0.14799808E-02  0.14230511E-02  0.13555465E-02
  0.12791116E-02  0.11953292E-02  0.11057119E-02  0.10116942E-02  0.91462647E-03
  0.81577030E-03  0.71629472E-03  0.61727367E-03  0.51968447E-03  0.42440728E-03
  0.33222537E-03  0.24382623E-03  0.15980343E-03  0.80659025E-04  0.68066451E-05
 -0.61424989E-04 -0.12378809E-03 -0.18011146E-03 -0.23029588E-03 -0.27430918E-03
 -0.31218124E-03 -0.34399876E-03 -0.36989999E-03 -0.39006949E-03 -0.40473278E-03
 -0.41415119E-03 -0.41861667E-03 -0.41844685E-03 -0.41398016E-03 -0.40557121E-03
 -0.39358631E-03 -0.37839931E-03 -0.36038756E-03 -0.33992829E-03 -0.31739512E-03
 -0.29315493E-03 -0.26756499E-03 -0.24097038E-03 -0.21370172E-03 -0.18607315E-03
 -0.15838063E-03 -0.13090047E-03 -0.10388824E-03 -0.77577756E-04 -0.52180530E-04
 -0.27885290E-04 -0.48578139E-05  0.16759046E-04  0.36845140E-04  0.55302618E-04
  0.72055351E-04  0.87048208E-04  0.10024619E-03  0.11163346E-03  0.12121223E-03
  0.12900163E-03  0.13503641E-03  0.13936567E-03  0.14205153E-03  0.14316768E-03
  0.14279808E-03  0.14103549E-03  0.13798014E-03  0.13373833E-03  0.12842109E-03
  0.12214291E-03  0.11502048E-03  0.10717149E-03  0.98713531E-04  0.89762981E-04
  0.80434067E-04  0.70837932E-04  0.61081809E-04  0.51268275E-04  0.41494589E-04
  0.31852113E-04  0.22425819E-04  0.13293886E-04  0.45273694E-05 -0.38100412E-05
 -0.11662185E-04 -0.18980523E-04 -0.25724152E-04 -0.31859755E-04 -0.37361491E-04
 -0.42210812E-04 -0.46396240E-04 -0.49913089E-04 -0.52763137E-04 -0.54954263E-04
 -0.56500056E-04 -0.57419379E-04 -0.57735927E-04 -0.57477751E-04 -0.56676782E-04
 -0.55368332E-04 -0.53590605E-04 -0.51384194E-04 -0.48791599E-04 -0.45856735E-04
 -0.42624470E-04 -0.39140163E-04 -0.35449236E-04 -0.31596752E-04 -0.27627030E-04
 -0.23583278E-04 -0.19507261E-04 -0.15438990E-04 -0.11416447E-04 -0.74753434E-05
 -0.36489067E-05  0.32300692E-07  0.35405274E-05  0.68509487E-05  0.99417505E-05
  0.12794183E-04  0.15392582E-04  0.17724368E-04  0.19780011E-04  0.21552973E-04
  0.23039627E-04  0.24239156E-04  0.25153428E-04  0.25786851E-04  0.26146223E-04
  0.26240556E-04  0.26080891E-04  0.25680112E-04  0.25052739E-04  0.24214729E-04
  0.23183261E-04  0.21976528E-04  0.20613530E-04  0.19113862E-04  0.17497511E-04
  0.15784662E-04  0.13995501E-04  0.12150038E-04  0.10267930E-04  0.83683191E-05
  0.64696846E-05  0.45897017E-05  0.27451180E-05  0.95164140E-06 -0.77615707E-06
 -0.24249265E-05 -0.39826049E-05 -0.54384737E-05 -0.67831976E-05 -0.80088514E-05
 -0.91089319E-05 -0.10078358E-04 -0.10913456E-04 -0.11611936E-04 -0.12172856E-04
 -0.12596573E-04 -0.12884687E-04 -0.13039977E-04 -0.13066327E-04 -0.12968645E-04
 -0.12752781E-04 -0.12425430E-04 -0.11994046E-04 -0.11466735E-04 -0.10852164E-04
 -0.10159453E-04 -0.93980827E-05 -0.85777877E-05 -0.77084622E-05 -0.68000636E-05
 -0.58625202E-05 -0.49056425E-05 -0.39390393E-05 -0.29720389E-05 -0.20136153E-05
 -0.10723214E-05 -0.15622743E-06  0.72713332E-06  0.15708120E-05  0.23684847E-05
  0.31144863E-05  0.38038360E-05  0.44322574E-05  0.49961902E-05  0.54927957E-05
  0.59199556E-05  0.62762644E-05  0.65610156E-05  0.67741825E-05  0.69163932E-05
  0.69889013E-05  0.69935513E-05  0.69327407E-05  0.68093784E-05  0.66268394E-05
  0.63889184E-05  0.60997794E-05  0.57639058E-05  0.53860482E-05  0.49711716E-05
  0.45244037E-05  0.40509823E-05  0.35562045E-05  0.30453765E-05  0.25237657E-05
  0.19965543E-05  0.14687957E-05  0.94537334E-06  0.43096232E-06 -0.70005232E-07
 -0.55337200E-06 -0.10152834E-05 -0.14522122E-05 -0.18609788E-05 -0.22387683E-05
 -0.25831436E-05 -0.28920541E-05 -0.31638419E-05 -0.33972427E-05 -0.35913846E-05
 -0.37457823E-05 -0.38603293E-05 -0.39352852E-05 -0.39712622E-05 -0.39692073E-05
 -0.39303827E-05 -0.38563443E-05 -0.37489180E-05 -0.36101741E-05 -0.34424009E-05
 -0.32480766E-05 -0.30298415E-05 -0.27904679E-05 -0.25328319E-05 -0.22598833E-05
 -0.19746170E-05 -0.16800443E-05 -0.13791657E-05 -0.10749436E-05 -0.77027713E-06
 -0.46797786E-06 -0.17074732E-06  0.11884395E-06  0.39837547E-06  0.66559394E-06
  0.91842832E-06  0.11550028E-05  0.13736478E-05  0.15729083E-05  0.17515506E-05
  0.19085666E-05  0.20431757E-05  0.21548253E-05  0.22431882E-05  0.23081592E-05
  0.23498489E-05  0.23685765E-05  0.23648601E-05  0.23394067E-05  0.22930994E-05
  0.22269845E-05  0.21422573E-05  0.20402465E-05  0.19223986E-05  0.17902611E-05
  0.16454654E-05  0.14897101E-05  0.13247432E-05  0.11523451E-05  0.97431181E-06
  0.79243767E-06  0.60849982E-06  0.42424241E-06  0.24136187E-06  0.61492989E-07
 -0.11380402E-06 -0.28305544E-06 -0.44488486E-06 -0.59802277E-06 -0.74131495E-06
 -0.87372958E-06 -0.99436303E-06 -0.11024444E-05 -0.11973386E-05 -0.12785484E-05
 -0.13457147E-05 -0.13986164E-05 -0.14371680E-05 -0.14614166E-05 -0.14715381E-05
 -0.14678317E-05 -0.14507141E-05 -0.14207120E-05 -0.13784545E-05 -0.13246650E-05
 -0.12601513E-05 -0.11857965E-05 -0.11025491E-05 -0.10114120E-05 -0.91343283E-06
 -0.80969242E-06 -0.70129476E-06 -0.58935618E-06 -0.47499495E-06 -0.35932117E-06
 -0.24342700E-06 -0.12837725E-06 -0.15200539E-07  0.95119022E-07  0.20164950E-06
  0.30351816E-06  0.39991775E-06  0.49011207E-06  0.57344068E-06  0.64932289E-06
  0.71726088E-06  0.77684197E-06  0.82774019E-06  0.86971684E-06  0.90262044E-06
  0.92638579E-06  0.94103229E-06  0.94666160E-06  0.94345457E-06  0.93166755E-06
  0.91162816E-06  0.88373048E-06  0.84842977E-06  0.80623682E-06  0.75771191E-06
  0.70345851E-06  0.64411670E-06  0.58035649E-06  0.51287104E-06  0.44236978E-06
  0.36957162E-06  0.29519822E-06  0.21996744E-06  0.14458693E-06  0.69747997E-07
 -0.38801739E-08 -0.75656048E-07 -0.14497082E-06 -0.21125308E-06 -0.27397308E-06
 -0.33264643E-06 -0.38683737E-06 -0.43616151E-06 -0.48028802E-06 -0.51894129E-06
 -0.55190210E-06 -0.57900817E-06 -0.60015427E-06 -0.61529178E-06 -0.62442771E-06
 -0.62762336E-06 -0.62499239E-06 -0.61669856E-06 -0.60295304E-06 -0.58401137E-06
 -0.56017008E-06 -0.53176305E-06 -0.49915759E-06 -0.46275034E-06 -0.42296299E-06
 -0.38023788E-06 -0.33503353E-06 -0.28782011E-06 -0.23907493E-06 -0.18927798E-06
 -0.13890749E-06 -0.88435741E-07 -0.38324855E-07  0.10977073E-07  0.59039715E-07
  0.10545397E-06  0.14983518E-06  0.19182598E-06  0.23109895E-06  0.26735886E-06
  0.30034455E-06  0.32983056E-06  0.35562830E-06  0.37758692E-06  0.39559382E-06
  0.40957478E-06  0.41949373E-06  0.42535226E-06  0.42718871E-06  0.42507700E-06
  0.41912517E-06  0.40947361E-06  0.39629310E-06  0.37978256E-06  0.36016663E-06
  0.33769306E-06  0.31262999E-06  0.28526302E-06  0.25589230E-06  0.22482948E-06
  0.19239462E-06  0.15891316E-06  0.12471282E-06  0.90120642E-07  0.55460003E-07
  0.21047818E-07 -0.12808189E-07 -0.45812064E-07 -0.77682031E-07 -0.10815272E-06
 -0.13697722E-06 -0.16392888E-06 -0.18880293E-06 -0.21141784E-06 -0.23161649E-06
 -0.24926702E-06 -0.26426348E-06 -0.27652624E-06 -0.28600217E-06 -0.29266448E-06
 -0.29651247E-06 -0.29757094E-06 -0.29588943E-06 -0.29154125E-06 -0.28462230E-06
 -0.27524977E-06 -0.26356056E-06 -0.24970969E-06 -0.23386851E-06 -0.21622276E-06
 -0.19697067E-06 -0.17632084E-06 -0.15449019E-06 -0.13170180E-06 -0.10818278E-06
 -0.84162143E-07 -0.59868680E-07 -0.35528923E-07 -0.11365135E-07  0.12406604E-07
  0.35578217E-07  0.57951343E-07  0.79338929E-07  0.99566679E-07  0.11847437E-06
  0.13591701E-06  0.15176584E-06  0.16590913E-06  0.17825290E-06  0.18872136E-06
  0.19725723E-06  0.20382190E-06  0.20839538E-06  0.21097614E-06  0.21158070E-06
  0.21024316E-06  0.20701452E-06  0.20196186E-06  0.19516748E-06  0.18672779E-06
  0.17675216E-06  0.16536171E-06  0.15268799E-06  0.13887152E-06  0.12406042E-06
  0.10840887E-06  0.92075628E-07  0.75222505E-07  0.58012832E-07  0.40609964E-07
  0.23175807E-07  0.58693829E-08 -0.11154548E-07 -0.27746800E-07 -0.43765000E-07
 -0.59074736E-07 -0.73550622E-07 -0.87077247E-07 -0.99550027E-07 -0.11087594E-06
 -0.12097414E-06 -0.12977645E-06 -0.13722774E-06 -0.14328616E-06 -0.14792328E-06
 -0.15112409E-06 -0.15288685E-06 -0.15322288E-06 -0.15215621E-06 -0.14972312E-06
 -0.14597154E-06 -0.14096046E-06 -0.13475914E-06 -0.12744633E-06 -0.11910933E-06
 -0.10984309E-06 -0.99749175E-07 -0.88934757E-07 -0.77511507E-07 -0.65594527E-07
 -0.53301238E-07 -0.40750281E-07 -0.28060420E-07 -0.15349471E-07 -0.27332567E-08
  0.96754051E-08  0.21767660E-07  0.33439530E-07  0.44592756E-07  0.55135585E-07
  0.64983476E-07  0.74059728E-07  0.82296032E-07  0.89632931E-07  0.96020196E-07
  0.10141711E-06  0.10579266E-06  0.10912566E-06  0.11140471E-06  0.11262818E-06
  0.11280403E-06  0.11194955E-06  0.11009105E-06  0.10726344E-06  0.10350978E-06
  0.98880761E-07  0.93434056E-07  0.87233725E-07  0.80349499E-07  0.72856056E-07
  0.64832258E-07  0.56360361E-07  0.47525218E-07  0.38413461E-07  0.29112693E-07
  0.19710677E-07  0.10294542E-07  0.95000823E-09 -0.82393626E-08 -0.17192883E-07
 -0.25833416E-07 -0.34088012E-07 -0.41888491E-07 -0.49171975E-07 -0.55881364E-07
 -0.61965749E-07 -0.67380763E-07 -0.72088870E-07 -0.76059585E-07 -0.79269621E-07
 -0.81702983E-07 -0.83350980E-07 -0.84212180E-07 -0.84292294E-07 -0.83604007E-07
 -0.82166741E-07 -0.80006360E-07 -0.77154833E-07 -0.73649835E-07 -0.69534314E-07
 -0.64856008E-07 -0.59666938E-07 -0.54022862E-07 -0.47982707E-07 -0.41607988E-07
 -0.34962204E-07 -0.28110236E-07 -0.21117732E-07 -0.14050507E-07 -0.69739441E-08
  0.47590469E-10  0.69513077E-08  0.13676538E-07  0.20165244E-07  0.26362497E-07
  0.32216926E-07  0.37681117E-07  0.42711979E-07  0.47271056E-07  0.51324804E-07
  0.54844806E-07  0.57807945E-07  0.60196529E-07  0.61998355E-07  0.63206732E-07
  0.63820449E-07  0.63843699E-07  0.63285947E-07  0.62161761E-07  0.60490599E-07
  0.58296547E-07  0.55608032E-07  0.52457492E-07  0.48881017E-07  0.44917965E-07
  0.40610554E-07  0.36003432E-07  0.31143238E-07  0.26078144E-07  0.20857401E-07
  0.15530873E-07  0.10148578E-07  0.47602328E-08 -0.58518703E-09 -0.58398820E-08
 -0.10957639E-07 -0.15894224E-07 -0.20607747E-07 -0.25059009E-07 -0.29211804E-07
 -0.33033208E-07 -0.36493816E-07 -0.39567955E-07 -0.42233856E-07 -0.44473790E-07
 -0.46274162E-07 -0.47625569E-07 -0.48522820E-07 -0.48964914E-07 -0.48954986E-07
 -0.48500212E-07 -0.47611679E-07 -0.46304227E-07 -0.44596254E-07 -0.42509497E-07
 -0.40068779E-07 -0.37301739E-07 -0.34238541E-07 -0.30911559E-07 -0.27355052E-07
 -0.23604824E-07 -0.19697879E-07 -0.15672066E-07 -0.11565726E-07 -0.74173379E-08
 -0.32651678E-08  0.85307199E-09  0.49005554E-08  0.88416616E-08  0.12642278E-07
  0.16270084E-07  0.19694819E-07  0.22888519E-07  0.25825739E-07  0.28483739E-07
  0.30842655E-07  0.32885629E-07  0.34598916E-07  0.35971965E-07  0.36997462E-07
  0.37671348E-07  0.37992807E-07  0.37964225E-07  0.37591119E-07  0.36882039E-07
  0.35848450E-07  0.34504578E-07  0.32867247E-07  0.30955682E-07  0.28791304E-07
  0.26397502E-07  0.23799391E-07  0.21023563E-07  0.18097823E-07  0.15050917E-07
  0.11912265E-07  0.87116803E-08  0.54790951E-08  0.22442898E-08 -0.96337395E-09
 -0.41152130E-08 -0.71834710E-08 -0.10141556E-07 -0.12964262E-07 -0.15627979E-07
 -0.18110881E-07 -0.20393095E-07 -0.22456856E-07 -0.24286635E-07 -0.25869245E-07
 -0.27193929E-07 -0.28252417E-07 -0.29038971E-07 -0.29550396E-07 -0.29786030E-07
 -0.29747719E-07 -0.29439761E-07 -0.28868829E-07 -0.28043883E-07 -0.26976049E-07
 -0.25678494E-07 -0.24166273E-07 -0.22456167E-07 -0.20566507E-07 -0.18516989E-07
 -0.16328471E-07 -0.14022774E-07 -0.11622465E-07 -0.91506483E-08 -0.66307465E-08
 -0.40862841E-08 -0.15406745E-08  0.98299040E-09  0.34621437E-08  0.58749401E-08
  0.82004434E-08  0.10418802E-07  0.12511413E-07  0.14461075E-07  0.16252117E-07
  0.17870529E-07  0.19304055E-07  0.20542285E-07  0.21576722E-07  0.22400830E-07
  0.23010068E-07  0.23401904E-07  0.23575806E-07  0.23533222E-07  0.23277540E-07
  0.22814027E-07  0.22149759E-07  0.21293530E-07  0.20255750E-07  0.19048327E-07
  0.17684540E-07  0.16178900E-07  0.14547004E-07  0.12805373E-07  0.10971297E-07
  0.90626648E-08  0.70977956E-08  0.50952659E-08  0.30737395E-08  0.10517977E-08
 -0.95222778E-09 -0.29204169E-08 -0.48354175E-08 -0.66805943E-08 -0.84401692E-08
 -0.10099353E-07 -0.11644464E-07 -0.13063039E-07 -0.14343926E-07 -0.15477372E-07
 -0.16455087E-07 -0.17270302E-07 -0.17917810E-07 -0.18393991E-07 -0.18696824E-07
 -0.18825883E-07 -0.18782320E-07 -0.18568835E-07 -0.18189627E-07 -0.17650340E-07
 -0.16957991E-07 -0.16120887E-07 -0.15148538E-07 -0.14051548E-07 -0.12841508E-07
 -0.11530882E-07 -0.10132876E-07 -0.86613114E-08 -0.71304958E-08 -0.55550821E-08
 -0.39499342E-08 -0.23299894E-08 -0.71012278E-09  0.89498685E-09  0.24709865E-08
  0.40039748E-08  0.54806211E-08  0.68882791E-08  0.82150916E-08  0.94500877E-08
  0.10583270E-07  0.11605692E-07  0.12509528E-07  0.13288122E-07  0.13936043E-07
  0.14449110E-07  0.14824415E-07  0.15060337E-07  0.15156534E-07  0.15113936E-07
  0.14934715E-07  0.14622249E-07  0.14181083E-07  0.13616865E-07  0.12936284E-07
  0.12146996E-07  0.11257545E-07  0.10277268E-07  0.92162080E-08  0.80850093E-08
  0.68948151E-08  0.56571609E-08  0.43838646E-08  0.30869166E-08  0.17783690E-08
  0.47022608E-09 -0.82566348E-09 -0.20977118E-08 -0.33346933E-08 -0.45258412E-08
 -0.56609393E-08 -0.67304073E-08 -0.77253791E-08 -0.86377743E-08 -0.94603610E-08
 -0.10186811E-07 -0.10811744E-07 -0.11330767E-07 -0.11740499E-07 -0.12038592E-07
 -0.12223736E-07 -0.12295659E-07 -0.12255117E-07 -0.12103874E-07 -0.11844676E-07
 -0.11481209E-07 -0.11018057E-07 -0.10460650E-07 -0.98152042E-08 -0.90886541E-08
 -0.82885833E-08 -0.74231468E-08 -0.65009906E-08 -0.55311676E-08 -0.45230505E-08
 -0.34862435E-08 -0.24304924E-08 -0.13655951E-08 -0.30131212E-09  0.75272085E-09
  0.17870787E-08  0.27926292E-08  0.37606125E-08  0.46827150E-08  0.55511397E-08
  0.63586699E-08  0.70987275E-08  0.77654249E-08  0.83536094E-08  0.88589013E-08
  0.92777237E-08  0.96073253E-08  0.98457956E-08  0.99920714E-08  0.10045937E-07
  0.10008014E-07  0.98797486E-08  0.96633869E-08  0.93619445E-08  0.89791710E-08
  0.85195071E-08  0.79880358E-08  0.73904295E-08  0.67328911E-08  0.60220916E-08
 kinetic energy density (partial)
  0.31618065E+03  0.31601961E+03  0.31553695E+03  0.31473409E+03  0.31361337E+03
  0.31217806E+03  0.31043234E+03  0.30838127E+03  0.30603077E+03  0.30338760E+03
  0.30045931E+03  0.29725422E+03  0.29378138E+03  0.29005050E+03  0.28607194E+03
  0.28185666E+03  0.27741614E+03  0.27276234E+03  0.26790767E+03  0.26286492E+03
  0.25764719E+03  0.25226784E+03  0.24674048E+03  0.24107882E+03  0.23529672E+03
  0.22940807E+03  0.22342674E+03  0.21736657E+03  0.21124126E+03  0.20506439E+03
  0.19884930E+03  0.19260912E+03  0.18635667E+03  0.18010445E+03  0.17386461E+03
  0.16764889E+03  0.16146860E+03  0.15533462E+03  0.14925734E+03  0.14324663E+03
  0.13731189E+03  0.13146194E+03  0.12570508E+03  0.12004905E+03  0.11450102E+03
  0.10906760E+03  0.10375484E+03  0.98568186E+02  0.93512561E+02  0.88592306E+02
  0.83811213E+02  0.79172532E+02  0.74678983E+02  0.70332765E+02  0.66135575E+02
  0.62088623E+02  0.58192647E+02  0.54447934E+02  0.50854341E+02  0.47411311E+02
  0.44117898E+02  0.40972785E+02  0.37974311E+02  0.35120489E+02  0.32409033E+02
  0.29837375E+02  0.27402695E+02  0.25101936E+02  0.22931835E+02  0.20888937E+02
  0.18969621E+02  0.17170122E+02  0.15486551E+02  0.13914912E+02  0.12451127E+02
  0.11091052E+02  0.98304932E+01  0.86652290E+01  0.75910223E+01  0.66036383E+01
  0.56988582E+01  0.48724941E+01  0.41204010E+01  0.34384892E+01  0.28227357E+01
  0.22691942E+01  0.17740042E+01  0.13333998E+01  0.94371717E+00  0.60140120E+00
  0.30301130E+00  0.45226517E-01 -0.17515024E+00 -0.36118871E+00 -0.51582858E+00
 -0.64187737E+00 -0.74200914E+00 -0.81876375E+00 -0.87454667E+00 -0.91162951E+00
 -0.93215095E+00 -0.93811818E+00 -0.93140890E+00 -0.91377359E+00 -0.88683831E+00
 -0.85210772E+00 -0.81096851E+00 -0.76469308E+00 -0.71444342E+00 -0.66127527E+00
 -0.60614240E+00 -0.54990106E+00 -0.49331457E+00 -0.43705797E+00 -0.38172271E+00
 -0.32782142E+00 -0.27579267E+00 -0.22600571E+00 -0.17876517E+00 -0.13431576E+00
 -0.92846772E-01 -0.54496655E-01 -0.19357334E-01  0.12521498E-01  0.41128261E-01
  0.66485504E-01  0.88646078E-01  0.10768947E+00  0.12371831E+00  0.13685505E+00
  0.14723882E+00  0.15502249E+00  0.16036988E+00  0.16345317E+00  0.16445054E+00
  0.16354391E+00  0.16091694E+00  0.15675317E+00  0.15123436E+00  0.14453897E+00
  0.13684084E+00  0.12830800E+00  0.11910171E+00  0.10937551E+00  0.99274586E-01
  0.88935113E-01  0.78483836E-01  0.68037717E-01  0.57703711E-01  0.47578643E-01
  0.37749188E-01  0.28291926E-01  0.19273494E-01  0.10750798E-01  0.27712979E-02
 -0.46266535E-02 -0.11413422E-01 -0.17567657E-01 -0.23075825E-01 -0.27931707E-01
 -0.32135882E-01 -0.35695183E-01 -0.38622148E-01 -0.40934465E-01 -0.42654410E-01
 -0.43808294E-01 -0.44425916E-01 -0.44540024E-01 -0.44185797E-01 -0.43400340E-01
 -0.42222200E-01 -0.40690909E-01 -0.38846548E-01 -0.36729339E-01 -0.34379268E-01
 -0.31835733E-01 -0.29137226E-01 -0.26321042E-01 -0.23423026E-01 -0.20477336E-01
 -0.17516258E-01 -0.14570030E-01 -0.11666709E-01 -0.88320630E-02 -0.60894872E-02
 -0.34599503E-02 -0.96196455E-03  0.13884211E-02  0.35776049E-02  0.55943966E-02
  0.74299626E-02  0.90777536E-02  0.10533417E-01  0.11794698E-01  0.12861321E-01
  0.13734875E-01  0.14418673E-01  0.14917619E-01  0.15238061E-01  0.15387646E-01
  0.15375168E-01  0.15210416E-01  0.14904029E-01  0.14467340E-01  0.13912235E-01
  0.13251012E-01  0.12496240E-01  0.11660631E-01  0.10756915E-01  0.97977215E-02
  0.87954713E-02  0.77622745E-02  0.67098383E-02  0.56493828E-02  0.45915671E-02
  0.35464234E-02  0.25233016E-02  0.15308221E-02  0.57683836E-03 -0.33159188E-03
 -0.11882267E-02 -0.19876519E-02 -0.27252844E-02 -0.33973685E-02 -0.40009654E-02
 -0.45339348E-02 -0.49949118E-02 -0.53832773E-02 -0.56991239E-02 -0.59432167E-02
 -0.61169507E-02 -0.62223052E-02 -0.62617943E-02 -0.62384164E-02 -0.61556017E-02
 -0.60171581E-02 -0.58272173E-02 -0.55901803E-02 -0.53106638E-02 -0.49934466E-02
 -0.46434185E-02 -0.42655297E-02 -0.38647425E-02 -0.34459863E-02 -0.30141134E-02
 -0.25738592E-02 -0.21298049E-02 -0.16863432E-02 -0.12476474E-02 -0.81764463E-03
 -0.39999161E-03  0.19452567E-05  0.38510663E-03  0.74675328E-03  0.10844757E-02
  0.13962002E-02  0.16801921E-02  0.19350553E-02  0.21597289E-02  0.23534815E-02
  0.25159021E-02  0.26468891E-02  0.27466370E-02  0.28156207E-02  0.28545784E-02
  0.28644930E-02  0.28465718E-02  0.28022253E-02  0.27330454E-02  0.26407825E-02
  0.25273226E-02  0.23946641E-02  0.22448946E-02  0.20801680E-02  0.19026818E-02
  0.17146556E-02  0.15183095E-02  0.13158443E-02  0.11094219E-02  0.90114790E-03
  0.69305447E-03  0.48708520E-03  0.28508125E-03  0.88768999E-04 -0.10025078E-03
 -0.28051207E-03 -0.45069130E-03 -0.60961328E-03 -0.75625570E-03 -0.88975201E-03
 -0.10093928E-02 -0.11146256E-02 -0.12050536E-02 -0.12804328E-02 -0.13406676E-02
 -0.13858060E-02 -0.14160334E-02 -0.14316647E-02 -0.14331367E-02 -0.14209992E-02
 -0.13959052E-02 -0.13586012E-02 -0.13099160E-02 -0.12507509E-02 -0.11820678E-02
 -0.11048783E-02 -0.10202327E-02 -0.92920906E-03 -0.83290186E-03 -0.73241184E-03
 -0.62883559E-03 -0.52325581E-03 -0.41673203E-03 -0.31029183E-03 -0.20492284E-03
 -0.10156519E-03 -0.11049176E-05  0.95632116E-04  0.18788538E-03  0.27496411E-03
  0.35625097E-03  0.43120487E-03  0.49936303E-03  0.56034226E-03  0.61383947E-03
  0.65963143E-03  0.69757389E-03  0.72759994E-03  0.74971776E-03  0.76400787E-03
  0.77061967E-03  0.76976762E-03  0.76172697E-03  0.74682899E-03  0.72545599E-03
  0.69803604E-03  0.66503739E-03  0.62696284E-03  0.58434392E-03  0.53773505E-03
  0.48770775E-03  0.43484477E-03  0.37973449E-03  0.32296534E-03  0.26512050E-03
  0.20677275E-03  0.14847969E-03  0.90779152E-04  0.34185076E-04 -0.20816376E-04
 -0.73770257E-04 -0.12425589E-03 -0.17188949E-03 -0.21632644E-03 -0.25726302E-03
 -0.29443782E-03 -0.32763265E-03 -0.35667309E-03 -0.38142858E-03 -0.40181214E-03
 -0.41777972E-03 -0.42932913E-03 -0.43649872E-03 -0.43936564E-03 -0.43804391E-03
 -0.43268212E-03 -0.42346100E-03 -0.41059068E-03 -0.39430789E-03 -0.37487286E-03
 -0.35256629E-03 -0.32768608E-03 -0.30054411E-03 -0.27146293E-03 -0.24077255E-03
 -0.20880713E-03 -0.17590191E-03 -0.14239007E-03 -0.10859980E-03 -0.74851496E-04
 -0.41455084E-04 -0.87075516E-05  0.23109337E-04  0.53731119E-04  0.82912486E-04
  0.11042891E-03  0.13607803E-03  0.15968080E-03  0.18108239E-03  0.20015284E-03
  0.21678748E-03  0.23090707E-03  0.24245780E-03  0.25141094E-03  0.25776237E-03
  0.26153186E-03  0.26276216E-03  0.26151795E-03  0.25788454E-03  0.25196654E-03
  0.24388627E-03  0.23378217E-03  0.22180705E-03  0.20812626E-03  0.19291585E-03
  0.17636064E-03  0.15865230E-03  0.13998738E-03  0.12056543E-03  0.10058709E-03
  0.80252221E-04  0.59758128E-04  0.39297862E-04  0.19058580E-04 -0.77997501E-06
 -0.20046889E-04 -0.38581371E-04 -0.56233916E-04 -0.72867336E-04 -0.88357654E-04
 -0.10259484E-03 -0.11548344E-03 -0.12694296E-03 -0.13690826E-03 -0.14532965E-03
 -0.15217290E-03 -0.15741917E-03 -0.16106469E-03 -0.16312039E-03 -0.16361143E-03
 -0.16257651E-03 -0.16006718E-03 -0.15614703E-03 -0.15089074E-03 -0.14438315E-03
 -0.13671816E-03 -0.12799765E-03 -0.11833037E-03 -0.10783071E-03 -0.96617556E-04
 -0.84813078E-04 -0.72541523E-04 -0.59928046E-04 -0.47097548E-04 -0.34173552E-04
 -0.21277123E-04 -0.85258348E-05  0.39671979E-05  0.16094227E-04  0.27753703E-04
  0.38851030E-04  0.49299235E-04  0.59019559E-04  0.67941949E-04  0.76005461E-04
  0.83158581E-04  0.89359432E-04  0.94575911E-04  0.98785719E-04  0.10197631E-03
  0.10414474E-03  0.10529748E-03  0.10545005E-03  0.10462672E-03  0.10285999E-03
  0.10019016E-03  0.96664685E-04  0.92337639E-04  0.87268999E-04  0.81523978E-04
  0.75172294E-04  0.68287429E-04  0.60945862E-04  0.53226305E-04  0.45208935E-04
  0.36974626E-04  0.28604204E-04  0.20177715E-04  0.11773718E-04  0.34686129E-05
 -0.46639975E-05 -0.12553906E-04 -0.20134850E-04 -0.27345017E-04 -0.34127492E-04
 -0.40430652E-04 -0.46208505E-04 -0.51420966E-04 -0.56034079E-04 -0.60020167E-04
 -0.63357941E-04 -0.66032524E-04 -0.68035443E-04 -0.69364538E-04 -0.70023841E-04
 -0.70023378E-04 -0.69378944E-04 -0.68111816E-04 -0.66248428E-04 -0.63820013E-04
 -0.60862199E-04 -0.57414588E-04 -0.53520300E-04 -0.49225496E-04 -0.44578894E-04
 -0.39631264E-04 -0.34434919E-04 -0.29043206E-04 -0.23510002E-04 -0.17889207E-04
 -0.12234262E-04 -0.65976715E-05 -0.10305518E-05  0.44177992E-05  0.97003070E-05
  0.14772495E-04  0.19592825E-04  0.24123011E-04  0.28328283E-04  0.32177627E-04
  0.35643977E-04  0.38704371E-04  0.41340063E-04  0.43536597E-04  0.45283843E-04
  0.46575986E-04  0.47411484E-04  0.47792981E-04  0.47727196E-04  0.47224761E-04
  0.46300044E-04  0.44970931E-04  0.43258587E-04  0.41187187E-04  0.38783637E-04
  0.36077263E-04  0.33099495E-04  0.29883534E-04  0.26464013E-04  0.22876651E-04
  0.19157907E-04  0.15344633E-04  0.11473730E-04  0.75818153E-05  0.37048956E-05
 -0.12194474E-06 -0.38648418E-05 -0.74914318E-05 -0.10971111E-04 -0.14275276E-04
 -0.17377538E-04 -0.20253914E-04 -0.22882990E-04 -0.25246066E-04 -0.27327259E-04
 -0.29113589E-04 -0.30595038E-04 -0.31764572E-04 -0.32618143E-04 -0.33154663E-04
 -0.33375949E-04 -0.33286645E-04 -0.32894122E-04 -0.32208351E-04 -0.31241758E-04
 -0.30009064E-04 -0.28527094E-04 -0.26814592E-04 -0.24892001E-04 -0.22781249E-04
 -0.20505515E-04 -0.18088997E-04 -0.15556668E-04 -0.12934036E-04 -0.10246901E-04
 -0.75211163E-05 -0.47823519E-05 -0.20558670E-05  0.63371058E-06  0.32625944E-05
  0.58080374E-05  0.82485167E-05  0.10563903E-04  0.12735615E-04  0.14746756E-04
  0.16582231E-04  0.18228849E-04  0.19675403E-04  0.20912729E-04  0.21933751E-04
  0.22733503E-04  0.23309128E-04  0.23659863E-04  0.23787005E-04  0.23693857E-04
  0.23385658E-04  0.22869498E-04  0.22154213E-04  0.21250276E-04  0.20169664E-04
  0.18925724E-04  0.17533022E-04  0.16007189E-04  0.14364759E-04  0.12622996E-04
  0.10799732E-04  0.89131881E-05  0.69818023E-05  0.50240615E-05  0.30583303E-05
  0.11026886E-05 -0.82522741E-06 -0.27083759E-05 -0.45304520E-05 -0.62760216E-05
 -0.79306439E-05 -0.94809831E-05 -0.10914908E-04 -0.12221577E-04 -0.13391515E-04
 -0.14416670E-04 -0.15290458E-04 -0.16007799E-04 -0.16565128E-04 -0.16960404E-04
 -0.17193097E-04 -0.17264163E-04 -0.17176009E-04 -0.16932443E-04 -0.16538612E-04
 -0.16000933E-04 -0.15327008E-04 -0.14525534E-04 -0.13606202E-04 -0.12579595E-04
 -0.11457071E-04 -0.10250647E-04 -0.89728783E-05 -0.76367349E-05 -0.62554759E-05
 -0.48425240E-05 -0.34113413E-05 -0.19753062E-05 -0.54759433E-06  0.85893743E-06
  0.22318613E-05  0.35592831E-05  0.48299406E-05  0.60332934E-05  0.71596053E-05
  0.82000178E-05  0.91466143E-05  0.99924745E-05  0.10731719E-04  0.11359544E-04
  0.11872243E-04  0.12267225E-04  0.12543013E-04  0.12699241E-04  0.12736633E-04
  0.12656982E-04  0.12463110E-04  0.12158827E-04  0.11748878E-04  0.11238880E-04
  0.10635263E-04  0.99451878E-05  0.91764770E-05  0.83375262E-05  0.74372207E-05
  0.64848454E-05  0.54899941E-05  0.44624766E-05  0.34122268E-05  0.23492096E-05
  0.12833311E-05  0.22434929E-06 -0.81821157E-06 -0.18351430E-05 -0.28176302E-05
 -0.37573251E-05 -0.46464136E-05 -0.54776773E-05 -0.62445482E-05 -0.69411571E-05
 -0.75623744E-05 -0.81038441E-05 -0.85620096E-05 -0.89341319E-05 -0.92183008E-05
 -0.94134376E-05 -0.95192905E-05 -0.95364230E-05 -0.94661944E-05 -0.93107343E-05
 -0.90729098E-05 -0.87562871E-05 -0.83650872E-05 -0.79041367E-05 -0.73788134E-05
 -0.67949889E-05 -0.61589665E-05 -0.54774168E-05 -0.47573116E-05 -0.40058550E-05
 -0.32304150E-05 -0.24384531E-05 -0.16374561E-05 -0.83486718E-06 -0.38019579E-07
  0.74592811E-06  0.15100538E-05  0.22477308E-05  0.29526825E-05  0.36190340E-05
  0.42413581E-05  0.48147173E-05  0.53347003E-05  0.57974534E-05  0.61997061E-05
  0.65387908E-05  0.68126577E-05  0.70198824E-05  0.71596693E-05  0.72318479E-05
  0.72368644E-05  0.71757676E-05  0.70501893E-05  0.68623204E-05  0.66148814E-05
  0.63110897E-05  0.59546223E-05  0.55495746E-05  0.51004171E-05  0.46119484E-05
  0.40892467E-05  0.35376193E-05  0.29625508E-05  0.23696503E-05  0.17645992E-05
  0.11530978E-05  0.54081420E-06 -0.66667110E-07 -0.66389428E-06 -0.12455954E-05
 -0.18067233E-05 -0.23424978E-05 -0.28484448E-05 -0.33204317E-05 -0.37546996E-05
 -0.41478916E-05 -0.44970764E-05 -0.47997686E-05 -0.50539439E-05 -0.52580502E-05
 -0.54110144E-05 -0.55122444E-05 -0.55616272E-05 -0.55595221E-05 -0.55067501E-05
 -0.54045797E-05 -0.52547077E-05 -0.50592379E-05 -0.48206552E-05 -0.45417974E-05
 -0.42258240E-05 -0.38761825E-05 -0.34965730E-05 -0.30909104E-05 -0.26632859E-05
 -0.22179271E-05 -0.17591578E-05 -0.12913569E-05 -0.81891857E-06 -0.34621164E-06
  0.12245932E-06  0.58289204E-06  0.10310231E-05  0.14629626E-05  0.18750266E-05
  0.22637677E-05  0.26260023E-05  0.29588359E-05  0.32596842E-05  0.35262925E-05
  0.37567511E-05  0.39495069E-05  0.41033725E-05  0.42175314E-05  0.42915398E-05
  0.43253249E-05  0.43191801E-05  0.42737570E-05  0.41900539E-05  0.40694018E-05
  0.39134472E-05  0.37241324E-05  0.35036740E-05  0.32545382E-05  0.29794151E-05
  0.26811907E-05  0.23629183E-05  0.20277880E-05  0.16790958E-05  0.13202126E-05
  0.95455190E-06  0.58553885E-06  0.21657874E-06 -0.14897350E-06 -0.50784290E-06
 -0.85686302E-06 -0.11930030E-05 -0.15133930E-05 -0.18153479E-05 -0.20963890E-05
 -0.23542634E-05 -0.25869610E-05 -0.27927295E-05 -0.29700862E-05 -0.31178279E-05
 -0.32350372E-05 -0.33210875E-05 -0.33756436E-05 -0.33986612E-05 -0.33903830E-05
 -0.33513320E-05 -0.32823031E-05 -0.31843521E-05 -0.30587820E-05 -0.29071280E-05
 -0.27311401E-05 -0.25327645E-05 -0.23141225E-05 -0.20774897E-05 -0.18252724E-05
 -0.15599845E-05 -0.12842227E-05 -0.10006423E-05 -0.71193211E-06 -0.42078952E-06
 -0.12989607E-06  0.15810666E-06  0.44064042E-06  0.71521272E-06  0.97943826E-06
  0.12310590E-05  0.14679629E-05  0.16882009E-05  0.18900023E-05  0.20717886E-05
  0.22321846E-05  0.23700287E-05  0.24843797E-05  0.25745229E-05  0.26399731E-05
  0.26804761E-05  0.26960073E-05  0.26867693E-05  0.26531867E-05  0.25958992E-05
  0.25157527E-05  0.24137890E-05  0.22912339E-05  0.21494829E-05  0.19900869E-05
  0.18147357E-05  0.16252407E-05  0.14235172E-05  0.12115653E-05  0.99145074E-06
  0.76528530E-06  0.53520705E-06  0.30336059E-06  0.71877567E-07 -0.15714249E-06
 -0.38165074E-06 -0.59966691E-06 -0.80929631E-06 -0.10087459E-05 -0.11963390E-05
 -0.13705291E-05 -0.15299122E-05 -0.16732372E-05 -0.17994156E-05 -0.19075291E-05
 -0.19968355E-05 -0.20667732E-05 -0.21169640E-05 -0.21472137E-05 -0.21575117E-05
 -0.21480287E-05 -0.21191127E-05 -0.20712832E-05 -0.20052247E-05 -0.19217781E-05
 -0.18219308E-05 -0.17068062E-05 -0.15776516E-05 -0.14358251E-05 -0.12827819E-05
 -0.11200602E-05 -0.94926557E-06 -0.77205602E-06 -0.59012603E-06 -0.40519082E-06
 -0.21897051E-06 -0.33174453E-07  0.15051405E-06  0.33045274E-06  0.50505467E-06
  0.67280192E-06  0.83225845E-06  0.98208202E-06  0.11210352E-05  0.12479950E-05
  0.13619620E-05  0.14620675E-05  0.15475796E-05  0.16179084E-05  0.16726093E-05
  0.17113852E-05  0.17340875E-05  0.17407150E-05  0.17314127E-05  0.17064683E-05
  0.16663076E-05  0.16114891E-05  0.15426974E-05  0.14607349E-05  0.13665136E-05
  0.12610450E-05  0.11454300E-05  0.10208475E-05  0.88854302E-06  0.74981624E-06
  0.60600889E-06  0.45849183E-06  0.30865235E-06  0.15788138E-06  0.75608231E-08
 -0.14094884E-06 -0.28632059E-06 -0.42727251E-06 -0.56257882E-06 -0.69108026E-06
 -0.81169381E-06 -0.92342149E-06 -0.10253584E-05 -0.11166998E-05 -0.11967469E-05
 -0.12649123E-05 -0.13207236E-05 -0.13638263E-05 -0.13939857E-05 -0.14110874E-05
 -0.14151369E-05 -0.14062581E-05 -0.13846907E-05 -0.13507865E-05 -0.13050051E-05
 -0.12479080E-05 -0.11801527E-05 -0.11024853E-05 -0.10157327E-05 -0.92079413E-06
 -0.81863208E-06 -0.71026293E-06 -0.59674695E-06 -0.47917824E-06 -0.35867435E-06
 -0.23636589E-06 -0.11338613E-06  0.91392818E-08  0.13010248E-06  0.24842316E-06
  0.36305805E-06  0.47300992E-06  0.57733604E-06  0.67515610E-06  0.76565941E-06
  0.84811142E-06  0.92185946E-06  0.98633766E-06  0.10410711E-05  0.10856788E-05
  0.11198764E-05  0.11434773E-05  0.11563934E-05  0.11586345E-05  0.11503071E-05
  0.11316124E-05  0.11028433E-05  0.10643807E-05  0.10166887E-05  0.96030997E-06
  0.89585932E-06  0.82401766E-06  0.74552492E-06  0.66117263E-06  0.57179618E-06
 atomic pseudo charge-density
  0.60000000E+01  0.59866607E+01  0.59468313E+01  0.58810730E+01  0.57903027E+01
  0.56757674E+01  0.55390090E+01  0.53818231E+01  0.52062125E+01  0.50143371E+01
  0.48084639E+01  0.45909168E+01  0.43640303E+01  0.41301058E+01  0.38913738E+01
  0.36499612E+01  0.34078646E+01  0.31669300E+01  0.29288375E+01  0.26950927E+01
  0.24670215E+01  0.22457705E+01  0.20323097E+01  0.18274396E+01  0.16317994E+01
  0.14458775E+01  0.12700231E+01  0.11044583E+01  0.94929089E+00  0.80452673E+00
  0.67008224E+00  0.54579618E+00  0.43144090E+00  0.32673291E+00  0.23134264E+00
  0.14490341E+00  0.67019572E-01 -0.27260978E-02 -0.64765886E-01 -0.11954129E+00
 -0.16749793E+00 -0.20908108E+00 -0.24473184E+00 -0.27488388E+00 -0.29996067E+00
 -0.32037323E+00 -0.33651824E+00 -0.34877663E+00 -0.35751238E+00 -0.36307179E+00
 -0.36578283E+00 -0.36595492E+00 -0.36387876E+00 -0.35982639E+00 -0.35405148E+00
 -0.34678961E+00 -0.33825875E+00 -0.32865979E+00 -0.31817719E+00 -0.30697960E+00
 -0.29522061E+00 -0.28303946E+00 -0.27056181E+00 -0.25790051E+00 -0.24515634E+00
 -0.23241881E+00 -0.21976688E+00 -0.20726973E+00 -0.19498740E+00 -0.18297155E+00
 -0.17126612E+00 -0.15990789E+00 -0.14892719E+00 -0.13834840E+00 -0.12819052E+00
 -0.11846768E+00 -0.10918964E+00 -0.10036224E+00 -0.91987792E-01 -0.84065518E-01
 -0.76591899E-01 -0.69561017E-01 -0.62964871E-01 -0.56793672E-01 -0.51036108E-01
 -0.45679588E-01 -0.40710471E-01 -0.36114267E-01 -0.31875823E-01 -0.27979493E-01
 -0.24409291E-01 -0.21149022E-01 -0.18182411E-01 -0.15493207E-01 -0.13065279E-01
 -0.10882702E-01 -0.89298327E-02 -0.71913679E-02 -0.56524043E-02 -0.42984821E-02
 -0.31156244E-02 -0.20903688E-02 -0.12097922E-02 -0.46153001E-03  0.16620970E-03
  0.68463743E-03  0.11043773E-02  0.14354665E-02  0.16873575E-02  0.18689242E-02
  0.19884702E-02  0.20537395E-02  0.20719300E-02  0.20497074E-02  0.19932222E-02
  0.19081267E-02  0.17995941E-02  0.16723373E-02  0.15306297E-02  0.13783252E-02
  0.12188794E-02  0.10553705E-02  0.89052089E-03  0.72671742E-03  0.56603296E-03
  0.41024673E-03  0.26086463E-03  0.11913908E-03 -0.13911673E-04 -0.13748468E-03
 -0.25097412E-03 -0.35395372E-03 -0.44615986E-03 -0.52747532E-03 -0.59791384E-03
 -0.65760532E-03 -0.70678182E-03 -0.74576430E-03 -0.77495012E-03 -0.79480126E-03
 -0.80583333E-03 -0.80860530E-03 -0.80370994E-03 -0.79176504E-03 -0.77340525E-03
 -0.74927466E-03 -0.72002000E-03 -0.68628453E-03 -0.64870254E-03 -0.60789439E-03
 -0.56446220E-03 -0.51898605E-03 -0.47202069E-03 -0.42409280E-03 -0.37569864E-03
 -0.32730223E-03 -0.27933385E-03 -0.23218904E-03 -0.18622788E-03 -0.14177462E-03
 -0.99117644E-04 -0.58509729E-04 -0.20168515E-04  0.15722741E-04  0.49014228E-04
  0.79588439E-04  0.10735887E-03  0.13226858E-03  0.15428861E-03  0.17341631E-03
  0.18967363E-03  0.20310520E-03  0.21377656E-03  0.22177221E-03  0.22719367E-03
  0.23015764E-03  0.23079398E-03  0.22924393E-03  0.22565820E-03  0.22019518E-03
  0.21301922E-03  0.20429892E-03  0.19420551E-03  0.18291138E-03  0.17058857E-03
  0.15740745E-03  0.14353545E-03  0.12913589E-03  0.11436694E-03  0.99380637E-04
  0.84322021E-04  0.69328392E-04  0.54528645E-04  0.40042719E-04  0.25981138E-04
  0.12444652E-04 -0.47602522E-06 -0.12700392E-04 -0.24158247E-04 -0.34789691E-04
 -0.44545051E-04 -0.53384736E-04 -0.61279012E-04 -0.68207725E-04 -0.74159957E-04
 -0.79133632E-04 -0.83135078E-04 -0.86178535E-04 -0.88285643E-04 -0.89484887E-04
 -0.89811018E-04 -0.89304462E-04 -0.88010703E-04 -0.85979668E-04 -0.83265098E-04
 -0.79923925E-04 -0.76015656E-04 -0.71601757E-04 -0.66745063E-04 -0.61509194E-04
 -0.55958002E-04 -0.50155030E-04 -0.44163012E-04 -0.38043393E-04 -0.31855880E-04
 -0.25658036E-04 -0.19504899E-04 -0.13448644E-04 -0.75382824E-05 -0.18193958E-05
  0.36660875E-05  0.88800782E-05  0.13788474E-04  0.18361270E-04  0.22572627E-04
  0.26400913E-04  0.29828698E-04  0.32842724E-04  0.35433839E-04  0.37596902E-04
  0.39330657E-04  0.40637587E-04  0.41523734E-04  0.41998510E-04  0.42074475E-04
  0.41767112E-04  0.41094573E-04  0.40077426E-04  0.38738386E-04  0.37102037E-04
  0.35194559E-04  0.33043437E-04  0.30677187E-04  0.28125076E-04  0.25416843E-04
  0.22582433E-04  0.19651740E-04  0.16654351E-04  0.13619313E-04  0.10574907E-04
  0.75484360E-05  0.45660319E-05  0.16524776E-05 -0.11689537E-05 -0.38766406E-05
 -0.64507368E-05 -0.88732753E-05 -0.11128254E-04 -0.13201699E-04 -0.15081717E-04
 -0.16758516E-04 -0.18224420E-04 -0.19473857E-04 -0.20503335E-04 -0.21311400E-04
 -0.21898577E-04 -0.22267298E-04 -0.22421816E-04 -0.22368108E-04 -0.22113763E-04
 -0.21667867E-04 -0.21040869E-04 -0.20244453E-04 -0.19291390E-04 -0.18195398E-04
 -0.16970991E-04 -0.15633325E-04 -0.14198055E-04 -0.12681176E-04 -0.11098877E-04
 -0.94673986E-05 -0.78028862E-05 -0.61212578E-05 -0.44380721E-05 -0.27684063E-05
 -0.11267404E-05  0.47314848E-06  0.20182839E-05  0.34965771E-05  0.48969044E-05
  0.62091735E-05  0.74243796E-05  0.85346503E-05  0.95332792E-05  0.10414749E-04
  0.11174743E-04  0.11810148E-04  0.12319043E-04  0.12700683E-04  0.12955469E-04
  0.13084910E-04  0.13091581E-04  0.12979064E-04  0.12751890E-04  0.12415474E-04
  0.11976038E-04  0.11440536E-04  0.10816572E-04  0.10112315E-04  0.93364084E-05
  0.84978868E-05  0.76060808E-05  0.66705291E-05  0.57008887E-05  0.47068470E-05
  0.36980360E-05  0.26839493E-05  0.16738627E-05  0.67675845E-06 -0.29874504E-06
 -0.12444595E-05 -0.21526867E-05 -0.30162733E-05 -0.38286585E-05 -0.45839162E-05
 -0.52767900E-05 -0.59027216E-05 -0.64578724E-05 -0.69391382E-05 -0.73441571E-05
 -0.76713107E-05 -0.79197189E-05 -0.80892286E-05 -0.81803953E-05 -0.81944606E-05
 -0.81333228E-05 -0.79995036E-05 -0.77961093E-05 -0.75267886E-05 -0.71956861E-05
 -0.68073933E-05 -0.63668963E-05 -0.58795215E-05 -0.53508801E-05 -0.47868109E-05
 -0.41933227E-05 -0.35765369E-05 -0.29426301E-05 -0.22977781E-05 -0.16481007E-05
 -0.99960906E-06 -0.35815451E-06  0.27061936E-06  0.88132194E-06  0.14688574E-05
  0.20284631E-05  0.25557436E-05  0.30467012E-05  0.34977621E-05  0.39057981E-05
  0.42681435E-05  0.45826083E-05  0.48474864E-05  0.50615588E-05  0.52240940E-05
  0.53348421E-05  0.53940263E-05  0.54023296E-05  0.53608779E-05  0.52712199E-05
  0.51353032E-05  0.49554478E-05  0.47343163E-05  0.44748829E-05  0.41803990E-05
  0.38543579E-05  0.35004581E-05  0.31225653E-05  0.27246740E-05  0.23108687E-05
  0.18852853E-05  0.14520727E-05  0.10153552E-05  0.57919619E-06  0.14756291E-06
 -0.27570718E-06 -0.68693793E-06 -0.10826440E-05 -0.14595582E-05 -0.18146557E-05
 -0.21451763E-05 -0.24486434E-05 -0.27228802E-05 -0.29660225E-05 -0.31765292E-05
 -0.33531888E-05 -0.34951233E-05 -0.36017893E-05 -0.36729753E-05 -0.37087965E-05
 -0.37096873E-05 -0.36763900E-05 -0.36099420E-05 -0.35116600E-05 -0.33831222E-05
 -0.32261487E-05 -0.30427796E-05 -0.28352524E-05 -0.26059777E-05 -0.23575131E-05
 -0.20925378E-05 -0.18138254E-05 -0.15242171E-05 -0.12265943E-05 -0.92385187E-06
 -0.61887178E-06 -0.31449700E-06 -0.13506672E-07  0.28140778E-06  0.56766528E-06
  0.84281625E-06  0.11045622E-05  0.13507735E-05  0.15795052E-05  0.17890114E-05
  0.19777564E-05  0.21444252E-05  0.22879305E-05  0.24074183E-05  0.25022710E-05
  0.25721084E-05  0.26167864E-05  0.26363935E-05  0.26312458E-05  0.26018795E-05
  0.25490417E-05  0.24736794E-05  0.23769274E-05  0.22600936E-05  0.21246448E-05
  0.19721892E-05  0.18044599E-05  0.16232961E-05  0.14306247E-05  0.12284410E-05
  0.10187892E-05  0.80374261E-06  0.58538464E-06  0.36578930E-06  0.14700260E-06
 -0.68975656E-07 -0.28020916E-06 -0.48484161E-06 -0.68111216E-06 -0.86736967E-06
 -0.10420857E-05 -0.12038664E-05 -0.13514624E-05 -0.14837777E-05 -0.15998769E-05
 -0.16989908E-05 -0.17805202E-05 -0.18440385E-05 -0.18892921E-05 -0.19162001E-05
 -0.19248512E-05 -0.19155003E-05 -0.18885632E-05 -0.18446094E-05 -0.17843547E-05
 -0.17086514E-05 -0.16184787E-05 -0.15149311E-05 -0.13992061E-05 -0.12725920E-05
 -0.11364540E-05 -0.99222040E-06 -0.84136857E-06 -0.68541048E-06 -0.52587816E-06
 -0.36430942E-06 -0.20223356E-06 -0.41157596E-07  0.11744724E-06  0.27215831E-06
  0.42161379E-06  0.56452407E-06  0.69968236E-06  0.82597429E-06  0.94238657E-06
  0.10480145E-05  0.11420684E-05  0.12238788E-05  0.12929009E-05  0.13487169E-05
  0.13910378E-05  0.14197043E-05  0.14346854E-05  0.14360770E-05  0.14240987E-05
  0.13990894E-05  0.13615028E-05  0.13119007E-05  0.12509463E-05  0.11793963E-05
  0.10980925E-05  0.10079526E-05  0.90996024E-06  0.80515535E-06  0.69462316E-06
  0.57948374E-06  0.46088106E-06  0.33997203E-06  0.21791570E-06  0.95862513E-07
 -0.25056126E-07 -0.14373794E-06 -0.25911947E-06 -0.37018521E-06 -0.47597620E-06
 -0.57559789E-06 -0.66822740E-06 -0.75311986E-06 -0.82961407E-06 -0.89713719E-06
 -0.95520863E-06 -0.10034429E-05 -0.10415519E-05 -0.10693456E-05 -0.10867324E-05
 -0.10937188E-05 -0.10904070E-05 -0.10769930E-05 -0.10537631E-05 -0.10210900E-05
 -0.97942773E-06 -0.92930629E-06 -0.87132562E-06 -0.80614889E-06 -0.73449542E-06
 -0.65713314E-06 -0.57487073E-06 -0.48854957E-06 -0.39903539E-06 -0.30720997E-06
 -0.21396268E-06 -0.12018220E-06 -0.26748302E-07  0.65476124E-07  0.15565279E-06
  0.24297538E-06  0.32667647E-06  0.40603408E-06  0.48037757E-06  0.54909314E-06
  0.61162853E-06  0.66749729E-06  0.71628217E-06  0.75763802E-06  0.79129380E-06
  0.81705402E-06  0.83479937E-06  0.84448670E-06  0.84614823E-06  0.83989015E-06
  0.82589052E-06  0.80439653E-06  0.77572117E-06  0.74023939E-06  0.69838365E-06
  0.65063910E-06  0.59753829E-06  0.53965553E-06  0.47760099E-06  0.41201447E-06
  0.34355906E-06  0.27291468E-06  0.20077148E-06  0.12782337E-06  0.54761493E-07
 -0.17732142E-07 -0.88990810E-07 -0.15836904E-06 -0.22524830E-06 -0.28904229E-06
 -0.34920194E-06 -0.40521998E-06 -0.45663495E-06 -0.50303491E-06 -0.54406047E-06
 -0.57940740E-06 -0.60882866E-06 -0.63213581E-06 -0.64920000E-06 -0.65995223E-06
 -0.66438320E-06 -0.66254248E-06 -0.65453726E-06 -0.64053049E-06 -0.62073863E-06
 -0.59542883E-06 -0.56491574E-06 -0.52955795E-06 -0.48975402E-06 -0.44593820E-06
 -0.39857593E-06 -0.34815906E-06 -0.29520092E-06 -0.24023125E-06 -0.18379107E-06
 -0.12642746E-06 -0.68688463E-07 -0.11117910E-07  0.45749520E-07  0.10139316E-06
  0.15531098E-06  0.20702400E-06  0.25608043E-06  0.30205945E-06  0.34457475E-06
  0.38327759E-06  0.41785954E-06  0.44805479E-06  0.47364205E-06  0.49444597E-06
  0.51033816E-06  0.52123772E-06  0.52711137E-06  0.52797307E-06  0.52388331E-06
  0.51494784E-06  0.50131614E-06  0.48317938E-06  0.46076813E-06  0.43434965E-06
  0.40422491E-06  0.37072538E-06  0.33420946E-06  0.29505886E-06  0.25367470E-06
  0.21047354E-06  0.16588327E-06  0.12033901E-06  0.74278928E-07  0.28140182E-07
 -0.17645186E-07 -0.62654178E-07 -0.10647666E-06 -0.14871899E-06 -0.18900751E-06
 -0.22699169E-06 -0.26234715E-06 -0.29477829E-06 -0.32402068E-06 -0.34984311E-06
 -0.37204929E-06 -0.39047926E-06 -0.40501035E-06 -0.41555788E-06 -0.42207543E-06
 -0.42455476E-06 -0.42302545E-06 -0.41755404E-06 -0.40824301E-06 -0.39522933E-06
 -0.37868274E-06 -0.35880374E-06 -0.33582133E-06 -0.30999052E-06 -0.28158961E-06
 -0.25091729E-06 -0.21828961E-06 -0.18403683E-06 -0.14850012E-06 -0.11202827E-06
 -0.74974337E-07 -0.37692301E-07 -0.53375697E-09  0.36155333E-07  0.72037790E-07
  0.10678825E-06  0.14009605E-06  0.17166794E-06  0.20123056E-06  0.22853281E-06
  0.25334784E-06  0.27547489E-06  0.29474083E-06  0.31100143E-06  0.32414234E-06
  0.33407979E-06  0.34076096E-06  0.34416412E-06  0.34429843E-06  0.34120347E-06
  0.33494849E-06  0.32563142E-06  0.31337754E-06  0.29833805E-06  0.28068829E-06
  0.26062581E-06  0.23836827E-06  0.21415114E-06  0.18822532E-06  0.16085457E-06
  0.13231290E-06  0.10288190E-06  0.72848039E-07  0.42499872E-07  0.12125379E-07
 -0.17990740E-07 -0.47569679E-07 -0.76341054E-07 -0.10404533E-06 -0.13043609E-06
 -0.15528221E-06 -0.17836980E-06 -0.19950401E-06 -0.21851062E-06 -0.23523739E-06
 -0.24955525E-06 -0.26135921E-06 -0.27056905E-06 -0.27712977E-06 -0.28101180E-06
 -0.28221098E-06 -0.28074829E-06 -0.27666935E-06 -0.27004369E-06 -0.26096385E-06
 -0.24954419E-06 -0.23591962E-06 -0.22024403E-06 -0.20268870E-06 -0.18344044E-06
 -0.16269967E-06 -0.14067841E-06 -0.11759814E-06 -0.93687620E-07 -0.69180696E-07
 -0.44314019E-07 -0.19324819E-07  0.55513190E-08  0.30082636E-07  0.54043321E-07
  0.77215552E-07  0.99391435E-07  0.12037483E-06  0.13998304E-06  0.15804840E-06
  0.17441958E-06  0.18896293E-06  0.20156341E-06  0.21212553E-06  0.22057396E-06
  0.22685404E-06  0.23093203E-06  0.23279519E-06  0.23245167E-06  0.22993015E-06
  0.22527939E-06  0.21856751E-06  0.20988115E-06  0.19932442E-06  0.18701774E-06
  0.17309656E-06  0.15770987E-06  0.14101868E-06  0.12319437E-06  0.10441699E-06
  0.84873451E-07  0.64755700E-07  0.44258891E-07  0.23579509E-07  0.29135155E-08
 -0.17545470E-07 -0.37607958E-07 -0.57090316E-07 -0.75816415E-07 -0.93619197E-07
 -0.11034213E-06 -0.12584056E-06 -0.13998293E-06 -0.15265184E-06 -0.16374504E-06
 -0.17317615E-06 -0.18087535E-06 -0.18678981E-06 -0.19088401E-06 -0.19313987E-06
 -0.19355673E-06 -0.19215119E-06 -0.18895669E-06 -0.18402310E-06 -0.17741600E-06
 -0.16921594E-06 -0.15951747E-06 -0.14842818E-06 -0.13606745E-06 -0.12256528E-06
 -0.10806094E-06 -0.92701530E-07 -0.76640554E-07 -0.60036403E-07 -0.43050813E-07
 -0.25847322E-07 -0.85897160E-08  0.85595063E-08  0.25440639E-07  0.41898235E-07
  0.57782512E-07  0.72950696E-07  0.87268277E-07  0.10061018E-06  0.11286184E-06
  0.12392015E-06  0.13369430E-06  0.14210651E-06  0.14909259E-06  0.15460244E-06
  0.15860031E-06  0.16106502E-06  0.16198997E-06  0.16138310E-06  0.15926659E-06
  0.15567653E-06  0.15066246E-06  0.14428671E-06  0.13662372E-06  0.12775919E-06
  0.11778917E-06  0.10681904E-06  0.94962444E-07  0.82340104E-07  0.69078642E-07
  0.55309323E-07  0.41166774E-07  0.26787691E-07  0.12309535E-07 -0.21307623E-08
 -0.16398074E-07 -0.30360327E-07 -0.43889705E-07 -0.56863799E-07 -0.69166698E-07
 -0.80690008E-07 -0.91333784E-07 -0.10100738E-06 -0.10963019E-06 -0.11713233E-06
 -0.12345512E-06 -0.12855159E-06 -0.13238674E-06 -0.13493776E-06 -0.13619412E-06
 -0.13615756E-06 -0.13484188E-06 -0.13227278E-06 -0.12848741E-06 -0.12353396E-06
 -0.11747106E-06 -0.11036713E-06 -0.10229965E-06 -0.93354349E-07 -0.83624270E-07
 -0.73208872E-07 -0.62213008E-07 -0.50745895E-07 -0.38920043E-07 -0.26850164E-07
 -0.14652085E-07 -0.24416384E-08  0.96664127E-08  0.21559444E-07  0.33128003E-07
  0.44266799E-07  0.54875651E-07  0.64860370E-07  0.74133584E-07  0.82615486E-07
  0.90234504E-07  0.96927886E-07  0.10264220E-06  0.10733375E-06  0.11096887E-06
  0.11352413E-06  0.11498650E-06  0.11535330E-06  0.11463218E-06  0.11284090E-06
  0.11000708E-06  0.10616787E-06  0.10136944E-06  0.95666501E-07  0.89121718E-07
  0.81805008E-07  0.73792831E-07  0.65167403E-07  0.56015870E-07  0.46429441E-07
  0.36502490E-07  0.26331646E-07  0.16014855E-07  0.56504587E-08 -0.46637376E-08
 -0.14831374E-07 -0.24758426E-07 -0.34354062E-07 -0.43531461E-07 -0.52208592E-07
 -0.60308928E-07 -0.67762118E-07 -0.74504575E-07 -0.80480013E-07 -0.85639900E-07
 -0.89943834E-07 -0.93359845E-07 -0.95864608E-07 -0.97443581E-07 -0.98091049E-07
 -0.97810095E-07 -0.96612484E-07 -0.94518464E-07 -0.91556497E-07 -0.87762910E-07
 -0.83181477E-07 -0.77862934E-07 -0.71864438E-07 -0.65248969E-07 -0.58084679E-07
 -0.50444203E-07 -0.42403939E-07 -0.34043290E-07 -0.25443892E-07 -0.16688827E-07
 -0.78618317E-08  0.95349791E-09  0.96744849E-08  0.18220139E-07  0.26511902E-07
  0.34474354E-07  0.42035898E-07  0.49129389E-07  0.55692724E-07  0.61669369E-07
  0.67008846E-07  0.71667135E-07  0.75607037E-07  0.78798449E-07  0.81218578E-07
  0.82852091E-07  0.83691180E-07  0.83735568E-07  0.82992435E-07  0.81476285E-07
  0.79208735E-07  0.76218247E-07  0.72539795E-07  0.68214474E-07  0.63289060E-07
  0.57815513E-07  0.51850445E-07  0.45454541E-07  0.38691952E-07  0.31629665E-07
  0.24336843E-07  0.16884157E-07  0.93431126E-08  0.17853670E-08 -0.57179411E-08
 -0.13096855E-07 -0.20283243E-07 -0.27211424E-07 -0.33818756E-07 -0.40046196E-07
 -0.45838821E-07 -0.51146304E-07 -0.55923343E-07 -0.60130036E-07 -0.63732210E-07
 -0.66701681E-07 -0.69016469E-07 -0.70660941E-07 -0.71625903E-07 -0.71908621E-07
 -0.71512791E-07 -0.70448443E-07 -0.68731786E-07 -0.66385001E-07 -0.63435977E-07
   16.2516435017787      T
 Non local Part
           0           2   1.24080360885718     
   13.9088076706990        15.1828324785864        15.1828324785864     
   16.5749971685762     
 Reciprocal Space Part
 -0.19595324E+03 -0.19435743E+03 -0.18959584E+03 -0.18174557E+03 -0.17093345E+03
 -0.15733378E+03 -0.14116497E+03 -0.12268554E+03 -0.10218933E+03 -0.80000057E+02
 -0.56465391E+02 -0.31950633E+02 -0.68321130E+01  0.18509530E+02  0.43696077E+02
  0.68358312E+02  0.92142342E+02  0.11471553E+03  0.13577194E+03  0.15503714E+03
  0.17227237E+03  0.18727793E+03  0.19989573E+03  0.21001107E+03  0.21755344E+03
  0.22249657E+03  0.22485758E+03  0.22469535E+03  0.22210809E+03  0.21723031E+03
  0.21022909E+03  0.20129993E+03  0.19066212E+03  0.17855388E+03  0.16522717E+03
  0.15094262E+03  0.13596430E+03  0.12055470E+03  0.10496996E+03  0.89455419E+02
  0.74241492E+02  0.59540127E+02  0.45541723E+02  0.32412652E+02  0.20293366E+02
  0.92971378E+01 -0.49059435E+00 -0.90122695E+01 -0.16237672E+02 -0.22162861E+02
 -0.26808605E+02 -0.30218389E+02 -0.32456049E+02 -0.33603113E+02 -0.33755915E+02
 -0.33022565E+02 -0.31519844E+02 -0.29370108E+02 -0.26698254E+02 -0.23628830E+02
 -0.20283345E+02 -0.16777812E+02 -0.13220597E+02 -0.97105736E+01 -0.63356405E+01
 -0.31715850E+01 -0.28132029E+00  0.22855198E+01  0.44926382E+01  0.63168057E+01
  0.77472924E+01  0.87850354E+01  0.94415785E+01  0.97378276E+01  0.97026646E+01
  0.93714658E+01  0.87845676E+01  0.79857253E+01  0.70206029E+01  0.59353338E+01
  0.47751837E+01  0.35833447E+01  0.23998843E+01  0.12608646E+01  0.19764605E+00
 -0.76362069E+00 -0.16023135E+01 -0.23034728E+01 -0.28577616E+01 -0.32612643E+01
 -0.35151424E+01 -0.36251681E+01 -0.36011574E+01 -0.34563263E+01 -0.32065968E+01
 -0.28698735E+01 -0.24653181E+01 -0.20126405E+01 -0.15314291E+01 -0.10405359E+01
 Real Space Part
  0.60043486E+03  0.60019362E+03  0.59946990E+03  0.59826380E+03  0.59657546E+03
  0.59440510E+03  0.59175302E+03  0.58861960E+03  0.58500533E+03  0.58091081E+03
  0.57633678E+03  0.57128416E+03  0.56575403E+03  0.55974770E+03  0.55326672E+03
  0.54631290E+03  0.53888839E+03  0.53099567E+03  0.52263761E+03  0.51381751E+03
  0.50453918E+03  0.49480692E+03  0.48462564E+03  0.47400087E+03  0.46293885E+03
  0.45144656E+03  0.43953180E+03  0.42720326E+03  0.41447056E+03  0.40134436E+03
  0.38783639E+03  0.37395954E+03  0.35972794E+03  0.34515704E+03  0.33026363E+03
  0.31506601E+03  0.29958397E+03  0.28383890E+03  0.26785389E+03  0.25165373E+03
  0.23526502E+03  0.21871621E+03  0.20203765E+03  0.18526161E+03  0.16842233E+03
  0.15155606E+03  0.13470098E+03  0.11789727E+03  0.10118705E+03  0.84614292E+02
  0.68224787E+02  0.52066014E+02  0.36187010E+02  0.20638206E+02  0.54712195E+01
 -0.92613786E+01 -0.23506347E+02 -0.37210095E+02 -0.50319046E+02 -0.62780044E+02
 -0.74540810E+02 -0.85550440E+02 -0.95759938E+02 -0.10512281E+03 -0.11359565E+03
 -0.12113882E+03 -0.12771711E+03 -0.13330039E+03 -0.13786432E+03 -0.14139105E+03
 -0.14386982E+03 -0.14529762E+03 -0.14567973E+03 -0.14503024E+03 -0.14337242E+03
 -0.14073906E+03 -0.13717263E+03 -0.13272532E+03 -0.12745896E+03 -0.12144473E+03
 -0.11476278E+03 -0.10750163E+03 -0.99757361E+02 -0.91632808E+02 -0.83236410E+02
 -0.74681108E+02 -0.66082982E+02 -0.57559939E+02 -0.49230230E+02 -0.41211021E+02
 -0.33616920E+02 -0.26558553E+02 -0.20141199E+02 -0.14463523E+02 -0.96163731E+01
 -0.56819619E+01 -0.27328103E+01 -0.82541580E+00 -0.45272292E-01  0.00000000E+00
 Reciprocal Space Part
  0.18660718E+03  0.18512770E+03  0.18071316E+03  0.17343478E+03  0.16340975E+03
  0.15079910E+03  0.13580466E+03  0.11866531E+03  0.99652566E+02  0.79065602E+02
  0.57225744E+02  0.34470645E+02  0.11148195E+02 -0.12389683E+02 -0.35793246E+02
 -0.58721002E+02 -0.80845556E+02 -0.10185908E+03 -0.12147833E+03 -0.13944913E+03
 -0.15555017E+03 -0.16959616E+03 -0.18144020E+03 -0.19097541E+03 -0.19813570E+03
 -0.20289583E+03 -0.20527059E+03 -0.20531334E+03 -0.20311379E+03 -0.19879516E+03
 -0.19251083E+03 -0.18444041E+03 -0.17478559E+03 -0.16376557E+03 -0.15161233E+03
 -0.13856593E+03 -0.12486969E+03 -0.11076560E+03 -0.96489876E+02 -0.82268824E+02
 -0.68315120E+02 -0.54824472E+02 -0.41972796E+02 -0.29913918E+02 -0.18777824E+02
 -0.86694861E+01  0.33174316E+00  0.81721850E+01  0.14823351E+02  0.20280963E+02
  0.24563524E+02  0.27710482E+02  0.29780064E+02  0.30846828E+02  0.30999008E+02
  0.30335730E+02  0.28964153E+02  0.26996616E+02  0.24547851E+02  0.21732316E+02
  0.18661714E+02  0.15442736E+02  0.12175071E+02  0.89497092E+01  0.58475662E+01
  0.29384393E+01  0.28029803E+00 -0.20810928E+01 -0.41122299E+01 -0.57916279E+01
 -0.71093005E+01 -0.80659969E+01 -0.86722299E+01 -0.89471324E+01 -0.89171849E+01
 -0.86148526E+01 -0.80771758E+01 -0.73443520E+01 -0.64583468E+01 -0.54615695E+01
 -0.43956425E+01 -0.33002913E+01 -0.22123761E+01 -0.11650811E+01 -0.18727215E+00
  0.69697185E+00  0.14686534E+01  0.21139814E+01  0.26243350E+01  0.29960802E+01
  0.32302540E+01  0.33321364E+01  0.33107294E+01  0.31781658E+01  0.29490707E+01
  0.26398970E+01  0.22682576E+01  0.18522737E+01  0.14099583E+01  0.95865070E+00
 Real Space Part
 -0.54738786E+03 -0.54716717E+03 -0.54650509E+03 -0.54540171E+03 -0.54385716E+03
 -0.54187165E+03 -0.53944542E+03 -0.53657884E+03 -0.53327233E+03 -0.52952644E+03
 -0.52534185E+03 -0.52071938E+03 -0.51566002E+03 -0.51016494E+03 -0.50423556E+03
 -0.49787354E+03 -0.49108081E+03 -0.48385964E+03 -0.47621266E+03 -0.46814287E+03
 -0.45965373E+03 -0.45074920E+03 -0.44143375E+03 -0.43171243E+03 -0.42159096E+03
 -0.41107571E+03 -0.40017383E+03 -0.38889326E+03 -0.37724283E+03 -0.36523228E+03
 -0.35287236E+03 -0.34017489E+03 -0.32715281E+03 -0.31382026E+03 -0.30019267E+03
 -0.28628678E+03 -0.27212075E+03 -0.25771420E+03 -0.24308827E+03 -0.22826572E+03
 -0.21327095E+03 -0.19813003E+03 -0.18287081E+03 -0.16752289E+03 -0.15211768E+03
 -0.13668841E+03 -0.12127014E+03 -0.10589971E+03 -0.90615761E+02 -0.75458633E+02
 -0.60470332E+02 -0.45694416E+02 -0.31175867E+02 -0.16960950E+02 -0.30970139E+01
  0.10367719E+02  0.23384414E+02  0.35903918E+02  0.47877093E+02  0.59255194E+02
  0.69990283E+02  0.80035687E+02  0.89346494E+02  0.97880083E+02  0.10559669E+03
  0.11246001E+03  0.11843779E+03  0.12350248E+03  0.12763181E+03  0.13080951E+03
  0.13302580E+03  0.13427803E+03  0.13457117E+03  0.13391827E+03  0.13234082E+03
  0.12986904E+03  0.12654205E+03  0.12240789E+03  0.11752346E+03  0.11195422E+03
  0.10577387E+03  0.99063799E+02  0.91912325E+02  0.84413959E+02  0.76668348E+02
  0.68779263E+02  0.60853348E+02  0.52998909E+02  0.45324558E+02  0.37937895E+02
  0.30944160E+02  0.24444921E+02  0.18536824E+02  0.13310427E+02  0.88490996E+01
  0.52282671E+01  0.25144456E+01  0.75941794E+00  0.41646290E-01  0.00000000E+00
 Non local Part
           1           2   1.24080360885718     
   4.88372397502017        6.96365605283036        6.96365605283036     
   9.93508266952608     
 Reciprocal Space Part
  0.00000000E+00  0.67470641E+01  0.13316955E+02  0.19536242E+02  0.25238891E+02
  0.30269766E+02  0.34487886E+02  0.37769370E+02  0.40010018E+02  0.41127454E+02
  0.41062805E+02  0.39781861E+02  0.37275715E+02  0.33560860E+02  0.28678737E+02
  0.22694772E+02  0.15696900E+02  0.77936343E+01 -0.88829018E+00 -0.10206628E+02
 -0.20006636E+02 -0.30124317E+02 -0.40389818E+02 -0.50630908E+02 -0.60676463E+02
 -0.70359873E+02 -0.79522308E+02 -0.88015768E+02 -0.95705858E+02 -0.10247423E+03
 -0.10822063E+03 -0.11286459E+03 -0.11634655E+03 -0.11862867E+03 -0.11969507E+03
 -0.11955166E+03 -0.11822545E+03 -0.11576356E+03 -0.11223172E+03 -0.10771249E+03
 -0.10230316E+03 -0.96113388E+02 -0.89262725E+02 -0.81877903E+02 -0.74090147E+02
 -0.66032447E+02 -0.57836898E+02 -0.49632153E+02 -0.41541043E+02 -0.33678410E+02
 -0.26149195E+02 -0.19046818E+02 -0.12451860E+02 -0.64310857E+01 -0.10368009E+01
  0.36934545E+01  0.77368757E+01  0.11085048E+02  0.13743307E+02  0.15729829E+02
  0.17074486E+02  0.17817510E+02  0.18007991E+02  0.17702265E+02  0.16962231E+02
  0.15853638E+02  0.14444380E+02  0.12802858E+02  0.10996409E+02  0.90898780E+01
  0.71443229E+01  0.52158987E+01  0.33549286E+01  0.16051758E+01  0.33226456E-02
 -0.14213436E+01 -0.26470414E+01 -0.36594127E+01 -0.44512614E+01 -0.50221307E+01
 -0.53777391E+01 -0.55293003E+01 -0.54927504E+01 -0.52879099E+01 -0.49376059E+01
 -0.44667803E+01 -0.39016095E+01 -0.32686579E+01 -0.25940853E+01 -0.19029269E+01
 -0.12184610E+01 -0.56167400E+00  0.49166991E-01  0.59883057E+00  0.10753252E+01
  0.14699930E+01  0.17774979E+01  0.19957169E+01  0.21255431E+01  0.21706134E+01
 Real Space Part
  0.00000000E+00 -0.13227699E+02 -0.26421929E+02 -0.39549280E+02 -0.52576463E+02
 -0.65470373E+02 -0.78198145E+02 -0.90727217E+02 -0.10302540E+03 -0.11506091E+03
 -0.12680248E+03 -0.13821938E+03 -0.14928149E+03 -0.15995939E+03 -0.17022439E+03
 -0.18004860E+03 -0.18940504E+03 -0.19826764E+03 -0.20661137E+03 -0.21441227E+03
 -0.22164754E+03 -0.22829560E+03 -0.23433619E+03 -0.23975042E+03 -0.24452084E+03
 -0.24863154E+03 -0.25206822E+03 -0.25481828E+03 -0.25687089E+03 -0.25821707E+03
 -0.25884979E+03 -0.25876404E+03 -0.25795692E+03 -0.25642775E+03 -0.25417811E+03
 -0.25121197E+03 -0.24753577E+03 -0.24315845E+03 -0.23809163E+03 -0.23234958E+03
 -0.22594940E+03 -0.21891099E+03 -0.21125719E+03 -0.20301382E+03 -0.19420968E+03
 -0.18487663E+03 -0.17504963E+03 -0.16476666E+03 -0.15406882E+03 -0.14300021E+03
 -0.13160792E+03 -0.11994192E+03 -0.10805498E+03 -0.96002494E+02 -0.83842333E+02
 -0.71634597E+02 -0.59441375E+02 -0.47326433E+02 -0.35354861E+02 -0.23592682E+02
 -0.12106393E+02 -0.96246805E+00  0.97731924E+01  0.20035863E+02  0.29762639E+02
  0.38893120E+02  0.47370139E+02  0.55140505E+02  0.62155776E+02  0.68373033E+02
  0.73755647E+02  0.78274028E+02  0.81906334E+02  0.84639119E+02  0.86467912E+02
  0.87397722E+02  0.87443387E+02  0.86629831E+02  0.84992191E+02  0.82575724E+02
  0.79435618E+02  0.75636600E+02  0.71252335E+02  0.66364745E+02  0.61063035E+02
  0.55442711E+02  0.49604319E+02  0.43652206E+02  0.37693083E+02  0.31834607E+02
  0.26183892E+02  0.20846039E+02  0.15922700E+02  0.11510703E+02  0.77007530E+01
  0.45763653E+01  0.22127540E+01  0.67300569E+00  0.27259340E-01  0.00000000E+00
 Reciprocal Space Part
  0.00000000E+00 -0.43316328E+01 -0.85437385E+01 -0.12519338E+02 -0.16146494E+02
 -0.19320687E+02 -0.21947042E+02 -0.23942325E+02 -0.25236703E+02 -0.25775196E+02
 -0.25518817E+02 -0.24445356E+02 -0.22549807E+02 -0.19844425E+02 -0.16358409E+02
 -0.12137236E+02 -0.72416409E+01 -0.17462919E+01  0.42618264E+01  0.10685273E+02
  0.17418213E+02  0.24348640E+02  0.31360696E+02  0.38337055E+02  0.45161296E+02
  0.51720235E+02  0.57906148E+02  0.63618849E+02  0.68767579E+02  0.73272661E+02
  0.77066902E+02  0.80096697E+02  0.82322839E+02  0.83721006E+02  0.84281931E+02
  0.84011255E+02  0.82929066E+02  0.81069163E+02  0.78478040E+02  0.75213642E+02
  0.71343911E+02  0.66945174E+02  0.62100393E+02  0.56897342E+02  0.51426737E+02
  0.45780365E+02  0.40049259E+02  0.34321952E+02  0.28682847E+02  0.23210734E+02
  0.17977490E+02  0.13046967E+02  0.84741055E+01  0.43042723E+01  0.57282836E+00
 -0.26950652E+01 -0.54844154E+01 -0.77901465E+01 -0.96166477E+01 -0.10977136E+02
 -0.11892860E+02 -0.12392167E+02 -0.12509465E+02 -0.12284105E+02 -0.11759216E+02
 -0.10980523E+02 -0.99951730E+01 -0.88505980E+01 -0.75934430E+01 -0.62685757E+01
 -0.49182011E+01 -0.35810948E+01 -0.22919667E+01 -0.10809646E+01  0.26680405E-01
  0.10108645E+01  0.18566821E+01  0.25543640E+01  0.30990913E+01  0.34906991E+01
  0.37332831E+01  0.38347261E+01  0.38061620E+01  0.36613941E+01  0.34162873E+01
  0.30881516E+01  0.26951329E+01  0.22556288E+01  0.17877412E+01  0.13087803E+01
  0.83482862E+00  0.38037327E+00 -0.41987793E-01 -0.42176247E+00 -0.75070367E+00
 -0.10228721E+01 -0.12346267E+01 -0.13845469E+01 -0.14732959E+01 -0.15034306E+01
 Real Space Part
  0.00000000E+00  0.93057597E+01  0.18588107E+02  0.27823673E+02  0.36989171E+02
  0.46061443E+02  0.55017500E+02  0.63834564E+02  0.72490113E+02  0.80961921E+02
  0.89228107E+02  0.97267172E+02  0.10505805E+03  0.11258015E+03  0.11981339E+03
  0.12673827E+03  0.13333589E+03  0.13958802E+03  0.14547713E+03  0.15098644E+03
  0.15610001E+03  0.16080270E+03  0.16508033E+03  0.16891966E+03  0.17230846E+03
  0.17523557E+03  0.17769095E+03  0.17966575E+03  0.18115236E+03  0.18214444E+03
  0.18263704E+03  0.18262658E+03  0.18211099E+03  0.18108972E+03  0.17956381E+03
  0.17753595E+03  0.17501055E+03  0.17199381E+03  0.16849372E+03  0.16452018E+03
  0.16008503E+03  0.15520208E+03  0.14988717E+03  0.14415823E+03  0.13803526E+03
  0.13154041E+03  0.12469796E+03  0.11753433E+03  0.11007808E+03  0.10235991E+03
  0.94412554E+02  0.86270798E+02  0.77971362E+02  0.69552810E+02  0.61055426E+02
  0.52521068E+02  0.43992980E+02  0.35515585E+02  0.27134245E+02  0.18894977E+02
  0.10844147E+02  0.30281179E+01 -0.45071296E+01 -0.11716416E+02 -0.18555810E+02
 -0.24983105E+02 -0.30958325E+02 -0.36444242E+02 -0.41406910E+02 -0.45816207E+02
 -0.49646371E+02 -0.52876515E+02 -0.55491126E+02 -0.57480517E+02 -0.58841229E+02
 -0.59576387E+02 -0.59695943E+02 -0.59216858E+02 -0.58163193E+02 -0.56566051E+02
 -0.54463442E+02 -0.51900022E+02 -0.48926671E+02 -0.45600031E+02 -0.41981824E+02
 -0.38138182E+02 -0.34138761E+02 -0.30055898E+02 -0.25963599E+02 -0.21936565E+02
 -0.18049156E+02 -0.14374366E+02 -0.10982833E+02 -0.79418748E+01 -0.53145894E+01
 -0.31591129E+01 -0.15278432E+01 -0.46479475E+00 -0.18813291E-01  0.00000000E+00
 Non local Part
           2           1   1.24080360885718     
   14.0781321971840     
 Reciprocal Space Part
  0.00000000E+00  0.24001314E-01  0.95581607E-01  0.21347801E+00  0.37561253E+00
  0.57913161E+00  0.82046039E+00  0.10953705E+01  0.13990598E+01  0.17262432E+01
  0.20712508E+01  0.24281344E+01  0.27907766E+01  0.31530030E+01  0.35086947E+01
  0.38518971E+01  0.41769254E+01  0.44784633E+01  0.47516528E+01  0.49921741E+01
  0.51963142E+01  0.53610226E+01  0.54839531E+01  0.55634916E+01  0.55987692E+01
  0.55896612E+01  0.55367715E+01  0.54414036E+01  0.53055188E+01  0.51316835E+01
  0.49230055E+01  0.46830623E+01  0.44158223E+01  0.41255612E+01  0.38167744E+01
  0.34940889E+01  0.31621753E+01  0.28256617E+01  0.24890525E+01  0.21566513E+01
  0.18324924E+01  0.15202789E+01  0.12233305E+01  0.94454101E+00  0.68634612E+00
  0.45070175E+00  0.23907288E+00  0.52432750E-01 -0.10872798E+00 -0.24438281E+00
 -0.35494258E+00 -0.44122104E+00 -0.50439412E+00 -0.54595400E+00 -0.56765915E+00
 -0.57148181E+00 -0.55955404E+00 -0.53411366E+00 -0.49745135E+00 -0.45185991E+00
 -0.39958674E+00 -0.34279043E+00 -0.28350229E+00 -0.22359316E+00 -0.16474628E+00
 -0.10843616E+00 -0.55913805E-01 -0.81980797E-02  0.33926879E-01  0.69908580E-01
  0.99417855E-01  0.12233586E+00  0.13873701E+00  0.14886859E+00  0.15312772E+00
  0.15203646E+00  0.14621580E+00  0.13635936E+00  0.12320730E+00  0.10752131E+00
  0.90061127E-01  0.71563074E-01  0.52721138E-01  0.34170792E-01  0.16475851E-01
  0.11846862E-03 -0.14507683E-01 -0.27101118E-01 -0.37453248E-01 -0.45446319E-01
 -0.51048850E-01 -0.54308884E-01 -0.55345433E-01 -0.54338490E-01 -0.51518021E-01
 -0.47152340E-01 -0.41536255E-01 -0.34979369E-01 -0.27794864E-01 -0.20289084E-01
 Real Space Part
  0.00000000E+00  0.31999297E-02  0.12795210E-01  0.28772305E-01  0.51108607E-01
  0.79772382E-01  0.11472268E+00  0.15590920E+00  0.20327221E+00  0.25674232E+00
  0.31624033E+00  0.38167703E+00  0.45295295E+00  0.52995812E+00  0.61257181E+00
  0.70066222E+00  0.79408620E+00  0.89268888E+00  0.99630339E+00  0.11047505E+01
  0.12178381E+01  0.13353611E+01  0.14571010E+01  0.15828253E+01  0.17122871E+01
  0.18452252E+01  0.19813632E+01  0.21204093E+01  0.22620562E+01  0.24059804E+01
  0.25518423E+01  0.26992855E+01  0.28479369E+01  0.29974067E+01  0.31472878E+01
  0.32971563E+01  0.34465710E+01  0.35950742E+01  0.37421913E+01  0.38874319E+01
  0.40302895E+01  0.41702428E+01  0.43067563E+01  0.44392814E+01  0.45672576E+01
  0.46901140E+01  0.48072708E+01  0.49181418E+01  0.50221361E+01  0.51186613E+01
  0.52071258E+01  0.52869426E+01  0.53575326E+01  0.54183289E+01  0.54687810E+01
  0.55083596E+01  0.55365619E+01  0.55529171E+01  0.55569922E+01  0.55483983E+01
  0.55267970E+01  0.54919071E+01  0.54435116E+01  0.53814643E+01  0.53056968E+01
  0.52162252E+01  0.51131561E+01  0.49966932E+01  0.48671420E+01  0.47249146E+01
  0.45705331E+01  0.44046323E+01  0.42279607E+01  0.40413801E+01  0.38458636E+01
  0.36424923E+01  0.34324495E+01  0.32170133E+01  0.29975478E+01  0.27754913E+01
  0.25523442E+01  0.23296543E+01  0.21090008E+01  0.18919781E+01  0.16801770E+01
  0.14751677E+01  0.12784804E+01  0.10915879E+01  0.91588791E+00  0.75268653E+00
  0.60318341E+00  0.46845837E+00  0.34945951E+00  0.24699459E+00  0.16172302E+00
  0.94154106E-01  0.44642520E-01  0.13308835E-01  0.66086983E-03  0.00000000E+00
 PAW radial sets
         363   1.18970919762334     
(5E20.12)                                
 augmentation charges (non sperical)
 -0.423729469246E+00 -0.460470248013E+00 -0.190179679832E+00 -0.276423992760E+00 -0.779667855447E-01
 -0.460470248013E+00 -0.500414205845E+00 -0.206972853445E+00 -0.300806278204E+00 -0.847828589728E-01
 -0.190179679832E+00 -0.206972853445E+00 -0.880092362743E-01 -0.127710669747E+00 -0.225134153779E-01
 -0.276423992760E+00 -0.300806278204E+00 -0.127710669747E+00 -0.185346466136E+00 -0.339167487341E-01
 -0.779667855447E-01 -0.847828589728E-01 -0.225134153779E-01 -0.339167487341E-01  0.833718723899E-01
 uccopancies in atom
  0.200000000340E+01  0.000000000000E+00  0.000000000000E+00  0.000000000000E+00  0.000000000000E+00
  0.000000000000E+00  0.000000000000E+00  0.000000000000E+00  0.000000000000E+00  0.000000000000E+00
  0.000000000000E+00  0.000000000000E+00  0.133333333663E+01  0.000000000000E+00  0.000000000000E+00
  0.000000000000E+00  0.000000000000E+00  0.000000000000E+00  0.000000000000E+00  0.000000000000E+00
  0.000000000000E+00  0.000000000000E+00  0.000000000000E+00  0.000000000000E+00  0.000000000000E+00
 grid
  0.585112745769E-04  0.604139152584E-04  0.623784250683E-04  0.644068158364E-04  0.665011648120E-04
  0.686636167916E-04  0.708963863149E-04  0.732017599330E-04  0.755820985500E-04  0.780398398405E-04
  0.805775007466E-04  0.831976800546E-04  0.859030610571E-04  0.886964143008E-04  0.915806004233E-04
  0.945585730835E-04  0.976333819853E-04  0.100808176002E-03  0.104086206400E-03  0.107470830169E-03
  0.110965513459E-03  0.114573835131E-03  0.118299490423E-03  0.122146294731E-03  0.126118187518E-03
  0.130219236349E-03  0.134453641058E-03  0.138825738044E-03  0.143340004718E-03  0.148001064082E-03
  0.152813689468E-03  0.157782809426E-03  0.162913512769E-03  0.168211053784E-03  0.173680857618E-03
  0.179328525827E-03  0.185159842117E-03  0.191180778265E-03  0.197397500237E-03  0.203816374498E-03
  0.210443974537E-03  0.217287087596E-03  0.224352721619E-03  0.231648112435E-03  0.239180731160E-03
  0.246958291854E-03  0.254988759419E-03  0.263280357757E-03  0.271841578187E-03  0.280681188148E-03
  0.289808240172E-03  0.299232081159E-03  0.308962361946E-03  0.319009047190E-03  0.329382425574E-03
  0.340093120345E-03  0.351152100190E-03  0.362570690471E-03  0.374360584822E-03  0.386533857125E-03
  0.399102973874E-03  0.412080806945E-03  0.425480646771E-03  0.439316215959E-03  0.453601683342E-03
  0.468351678487E-03  0.483581306677E-03  0.499306164382E-03  0.515542355231E-03  0.532306506502E-03
  0.549615786152E-03  0.567487920394E-03  0.585941211856E-03  0.604994558321E-03  0.624667472080E-03
  0.644980099918E-03  0.665953243738E-03  0.687608381875E-03  0.709967691080E-03  0.733054069241E-03
  0.756891158827E-03  0.781503371099E-03  0.806915911115E-03  0.833154803535E-03  0.860246919279E-03
  0.888220003041E-03  0.917102701702E-03  0.946924593670E-03  0.977716219168E-03  0.100950911151E-02
  0.104233582940E-02  0.107622999026E-02  0.111122630468E-02  0.114736061194E-02  0.118466991672E-02
  0.122319242703E-02  0.126296759326E-02  0.130403614868E-02  0.134644015106E-02  0.139022302581E-02
  0.143542961043E-02  0.148210620040E-02  0.153030059664E-02  0.158006215441E-02  0.163144183389E-02
  0.168449225238E-02  0.173926773814E-02  0.179582438604E-02  0.185422011504E-02  0.191451472747E-02
  0.197676997027E-02  0.204104959827E-02  0.210741943941E-02  0.217594746221E-02  0.224670384536E-02
  0.231976104957E-02  0.239519389180E-02  0.247307962188E-02  0.255349800161E-02  0.263653138642E-02
  0.272226480977E-02  0.281078607016E-02  0.290218582111E-02  0.299655766394E-02  0.309399824368E-02
  0.319460734798E-02  0.329848800937E-02  0.340574661071E-02  0.351649299419E-02  0.363084057379E-02
  0.374890645141E-02  0.387081153683E-02  0.399668067151E-02  0.412664275645E-02  0.426083088418E-02
  0.439938247506E-02  0.454243941803E-02  0.469014821590E-02  0.484266013540E-02  0.500013136204E-02
  0.516272316013E-02  0.533060203788E-02  0.550393991793E-02  0.568291431341E-02  0.586770850974E-02
  0.605851175233E-02  0.625551944038E-02  0.645893332697E-02  0.666896172570E-02  0.688581972399E-02
  0.710972940340E-02  0.734092006699E-02  0.757962847421E-02  0.782609908333E-02  0.808058430179E-02
  0.834334474470E-02  0.861464950169E-02  0.889477641257E-02  0.918401235175E-02  0.948265352212E-02
  0.979100575833E-02  0.101093848400E-01  0.104381168152E-01  0.107775383341E-01  0.111279969941E-01
  0.114898516953E-01  0.118634730088E-01  0.122492435553E-01  0.126475583976E-01  0.130588254449E-01
  0.134834658706E-01  0.139219145436E-01  0.143746204736E-01  0.148420472711E-01  0.153246736220E-01
  0.158229937778E-01  0.163375180619E-01  0.168687733921E-01  0.174173038204E-01  0.179836710898E-01
  0.185684552098E-01  0.191722550506E-01  0.197956889560E-01  0.204393953766E-01  0.211040335242E-01
  0.217902840463E-01  0.224988497233E-01  0.232304561886E-01  0.239858526709E-01  0.247658127624E-01
  0.255711352103E-01  0.264026447352E-01  0.272611928754E-01  0.281476588594E-01  0.290629505056E-01
  0.300080051529E-01  0.309837906196E-01  0.319913061955E-01  0.330315836644E-01  0.341056883615E-01
  0.352147202637E-01  0.363598151167E-01  0.375421455976E-01  0.387629225163E-01  0.400233960548E-01
  0.413248570484E-01  0.426686383067E-01  0.440561159792E-01  0.454887109643E-01  0.469678903644E-01
  0.484951689885E-01  0.500721109033E-01  0.517003310353E-01  0.533814968240E-01  0.551173299301E-01
  0.569096079985E-01  0.587601664785E-01  0.606709005037E-01  0.626437668327E-01  0.646807858531E-01
  0.667840436502E-01  0.689556941439E-01  0.711979612940E-01  0.735131413781E-01  0.759036053429E-01
  0.783718012323E-01  0.809202566946E-01  0.835515815710E-01  0.862684705680E-01  0.890737060173E-01
  0.919701607253E-01  0.949608009146E-01  0.980486892621E-01  0.101236988035E+00  0.104528962331E+00
  0.107927983418E+00  0.111437532191E+00  0.115061202736E+00  0.118802706006E+00  0.122665873629E+00
  0.126654661825E+00  0.130773155463E+00  0.135025572240E+00  0.139416267001E+00  0.143949736203E+00
  0.148630622514E+00  0.153463719570E+00  0.158453976885E+00  0.163606504919E+00  0.168926580311E+00
  0.174419651282E+00  0.180091343218E+00  0.185947464426E+00  0.191994012087E+00  0.198237178394E+00
  0.204683356894E+00  0.211339149038E+00  0.218211370938E+00  0.225307060350E+00  0.232633483880E+00
  0.240198144426E+00  0.248008788862E+00  0.256073415970E+00  0.264400284632E+00  0.272997922290E+00
  0.281875133676E+00  0.291041009831E+00  0.300504937412E+00  0.310276608309E+00  0.320366029566E+00
  0.330783533632E+00  0.341539788941E+00  0.352645810840E+00  0.364112972865E+00  0.375953018392E+00
  0.388178072662E+00  0.400800655199E+00  0.413833692631E+00  0.427290531926E+00  0.441184954065E+00
  0.455531188149E+00  0.470343925976E+00  0.485638337085E+00  0.501430084287E+00  0.517735339713E+00
  0.534570801369E+00  0.551953710238E+00  0.569901867939E+00  0.588433654953E+00  0.607568049450E+00
  0.627324646721E+00  0.647723679249E+00  0.668786037425E+00  0.690533290945E+00  0.712987710897E+00
  0.736172292568E+00  0.760110778997E+00  0.784827685286E+00  0.810348323706E+00  0.836698829621E+00
  0.863906188252E+00  0.891998262312E+00  0.921003820538E+00  0.950952567159E+00  0.981875172306E+00
  0.101380330343E+01  0.104676965773E+01  0.108080799563E+01  0.111595317536E+01  0.115224118866E+01
  0.118970919762E+01  0.122839557277E+01  0.126833993232E+01  0.130958318280E+01  0.135216756090E+01
  0.139613667673E+01  0.144153555852E+01  0.148841069869E+01  0.153681010148E+01  0.158678333211E+01
  0.163838156753E+01  0.169165764885E+01  0.174666613542E+01  0.180346336074E+01  0.186210749014E+01
  0.192265858033E+01  0.198517864092E+01  0.204973169791E+01  0.211638385927E+01  0.218520338264E+01
  0.225626074523E+01  0.232962871598E+01  0.240538243011E+01  0.248359946604E+01  0.256435992485E+01
  0.264774651231E+01  0.273384462358E+01  0.282274243063E+01  0.291453097259E+01  0.300930424895E+01
  0.310715931583E+01  0.320819638537E+01  0.331251892835E+01  0.342023378018E+01  0.353145125027E+01
  0.364628523503E+01  0.376485333451E+01  0.388727697278E+01  0.401368152237E+01  0.414419643257E+01
  0.427895536205E+01  0.441809631573E+01  0.456176178612E+01  0.471009889920E+01  0.486325956514E+01
  0.502140063385E+01  0.518468405560E+01  0.535327704688E+01  0.552735226166E+01  0.570708796815E+01
  0.589266823143E+01  0.608428310191E+01  0.628212880995E+01
 aepotential
  0.967852925134E+04  0.980231930720E+04  0.991731431994E+04  0.100227063780E+05  0.101177200256E+05
  0.102016191472E+05  0.102737168616E+05  0.103333845424E+05  0.103800614346E+05  0.104132626678E+05
  0.104325873000E+05  0.104377250922E+05  0.104284621382E+05  0.104046852385E+05  0.103663850659E+05
  0.103136574293E+05  0.102467032668E+05  0.101658269845E+05  0.100714331155E+05  0.996402141731E+04
  0.984418107515E+04  0.971258189686E+04  0.956996770718E+04  0.941714437854E+04  0.925497131637E+04
  0.908434920004E+04  0.890620991555E+04  0.872150437560E+04  0.853119239678E+04  0.833623126779E+04
  0.813756619415E+04  0.793612073551E+04  0.773278842043E+04  0.752842527285E+04  0.732384335903E+04
  0.711980544902E+04  0.691702081325E+04  0.671614209365E+04  0.651776317548E+04  0.632241812895E+04
  0.613058102063E+04  0.594266658650E+04  0.575903159115E+04  0.557997685374E+04  0.540574978331E+04
  0.523654732735E+04  0.507251925057E+04  0.491377163480E+04  0.476037052084E+04  0.461234561443E+04
  0.446969398680E+04  0.433238371304E+04  0.420035739883E+04  0.407353555652E+04  0.395181979986E+04
  0.383509583521E+04  0.372323623367E+04  0.361610297625E+04  0.351354976762E+04  0.341542412186E+04
  0.332156922348E+04  0.323182557630E+04  0.314603243962E+04  0.306402908731E+04  0.298565587236E+04
  0.291075513727E+04  0.283917197694E+04  0.277075485292E+04  0.270535610495E+04  0.264283233864E+04
  0.258304472645E+04  0.252585923013E+04  0.247114673122E+04  0.241878312900E+04  0.236864935764E+04
  0.232063138006E+04  0.227462012721E+04  0.223051142475E+04  0.218820587732E+04  0.214760874988E+04
  0.210862981877E+04  0.207118322332E+04  0.203518730302E+04  0.200056443321E+04  0.196724085164E+04
  0.193514649438E+04  0.190421482266E+04  0.187438265698E+04  0.184559001394E+04  0.181777994499E+04
  0.179089838268E+04  0.176489399013E+04  0.173971801584E+04  0.171532415633E+04  0.169166842259E+04
  0.166870901240E+04  0.164640619202E+04  0.162472217839E+04  0.160362103172E+04  0.158306855180E+04
  0.156303217983E+04  0.154348090602E+04  0.152438518227E+04  0.150571684037E+04  0.148744901285E+04
  0.146955606164E+04  0.145201350923E+04  0.143479797286E+04  0.141788710625E+04  0.140125954036E+04
  0.138489483299E+04  0.136877341770E+04  0.135287655770E+04  0.133718630286E+04  0.132168544990E+04
  0.130635750467E+04  0.129118664779E+04  0.127615770248E+04  0.126125610529E+04  0.124646787916E+04
  0.123177960802E+04  0.121717841499E+04  0.120265194112E+04  0.118818832774E+04  0.117377619947E+04
  0.115940465006E+04  0.114506322985E+04  0.113074193480E+04  0.111643119788E+04  0.110212188203E+04
  0.108780527461E+04  0.107347308444E+04  0.105911743969E+04  0.104473088836E+04  0.103030640034E+04
  0.101583737122E+04  0.100131762838E+04  0.986741438899E+03  0.972103519620E+03  0.957399049504E+03
  0.942623684264E+03  0.927773573437E+03  0.912845380240E+03  0.897836304003E+03  0.882744105822E+03
  0.867567137177E+03  0.852304372099E+03  0.836955442862E+03  0.821520679408E+03  0.806001152808E+03
  0.790398722659E+03  0.774716088562E+03  0.758956845553E+03  0.743125543096E+03  0.727227747135E+03
  0.711270104277E+03  0.695260406710E+03  0.679207655855E+03  0.663122122150E+03  0.647015397289E+03
  0.630900434407E+03  0.614791570451E+03  0.598704523925E+03  0.582656360045E+03  0.566665414755E+03
  0.550751168912E+03  0.534934065200E+03  0.519235263302E+03  0.503676334667E+03  0.488278907781E+03
  0.473064289312E+03  0.458053106690E+03  0.443265043702E+03  0.428718770961E+03  0.414432203085E+03
  0.400423234934E+03  0.386711104890E+03  0.373318481934E+03  0.360274250208E+03  0.347616750470E+03
  0.335396937665E+03  0.323680580405E+03  0.312548383557E+03  0.302092895380E+03  0.292411600049E+03
  0.283596291430E+03  0.275720261352E+03  0.268825647590E+03  0.262913741504E+03  0.257940446741E+03
  0.253817780552E+03  0.250420874716E+03  0.247598947288E+03  0.245188337995E+03  0.243025677825E+03
  0.240959355251E+03  0.238857750743E+03  0.236613455863E+03  0.234143747738E+03  0.231388442699E+03
  0.228306497720E+03  0.224872416414E+03  0.221073011317E+03  0.216904689560E+03  0.212371252540E+03
  0.207482162941E+03  0.202251239104E+03  0.196695740577E+03  0.190835798230E+03  0.184694129839E+03
  0.178295971486E+03  0.171669151533E+03  0.164844232115E+03  0.157854643729E+03  0.150736739448E+03
  0.143529702510E+03  0.136275262388E+03  0.129017223842E+03  0.121800904027E+03  0.114672710770E+03
  0.107680257435E+03  0.100873520337E+03  0.943074492585E+02  0.880459297294E+02  0.821659337622E+02
  0.767592823539E+02  0.719284545465E+02  0.677734631946E+02  0.643696144920E+02  0.617404357230E+02
  0.598347543068E+02  0.585207053267E+02  0.576074779552E+02  0.568916912711E+02  0.562048590500E+02
  0.554350990138E+02  0.545181777034E+02  0.534152090319E+02  0.520955359077E+02  0.505309993259E+02
  0.486978612475E+02  0.465804240064E+02  0.441728229738E+02  0.414784533468E+02  0.385080477250E+02
  0.352775750296E+02  0.318066573249E+02  0.281177221217E+02  0.242358321405E+02  0.201890332336E+02
  0.160090330649E+02  0.117319811130E+02  0.739902138043E+01  0.305612257664E+01 -0.124748129613E+01
 -0.546291016246E+01 -0.954747927750E+01 -0.134713892174E+02 -0.172208770397E+02 -0.207894463746E+02
 -0.241476069423E+02 -0.271923802285E+02 -0.297088428704E+02 -0.314096795286E+02 -0.320997936350E+02
 -0.318929996257E+02 -0.312404968161E+02 -0.306296559352E+02 -0.302796163059E+02 -0.301663213165E+02
 -0.302021898546E+02 -0.303348069584E+02 -0.305566978987E+02 -0.308848949830E+02 -0.313403696746E+02
 -0.319360647041E+02 -0.326736252095E+02 -0.335453795974E+02 -0.345379208149E+02 -0.356351693983E+02
 -0.368202835283E+02 -0.380765749988E+02 -0.393877898121E+02 -0.407380681002E+02 -0.421117903282E+02
 -0.434934263002E+02 -0.448674644321E+02 -0.462184455931E+02 -0.475311352669E+02 -0.487908200455E+02
 -0.499836835350E+02 -0.510971977559E+02 -0.521203759774E+02 -0.530437728637E+02 -0.538591374180E+02
 -0.545587932649E+02 -0.551350692407E+02 -0.555803214305E+02 -0.558880499067E+02 -0.560550795730E+02
 -0.560838873781E+02 -0.559836140397E+02 -0.557688364572E+02 -0.554565384458E+02 -0.550628957916E+02
 -0.546012064981E+02 -0.540813919790E+02 -0.535105559688E+02 -0.528938971310E+02 -0.522355175992E+02
 -0.515389675712E+02 -0.508075617048E+02 -0.500445409977E+02 -0.492531499516E+02 -0.484366679430E+02
 -0.475984097277E+02 -0.467417115713E+02 -0.458698779748E+02 -0.449861290549E+02 -0.440935111782E+02
 -0.431947989632E+02 -0.422923922940E+02 -0.413882199453E+02 -0.404836774957E+02 -0.395796168257E+02
 -0.386764085822E+02 -0.377740789655E+02 -0.368725116442E+02 -0.359716711011E+02 -0.350718265655E+02
 -0.341737195508E+02 -0.332786612653E+02 -0.323885471353E+02 -0.315057941122E+02 -0.306332144326E+02
 -0.297738426919E+02 -0.289307334733E+02 -0.281067472533E+02 -0.273043443402E+02 -0.265254093624E+02
 -0.257711294412E+02 -0.250419446041E+02 -0.243375781110E+02 -0.236571395512E+02 -0.229992797453E+02
 -0.223623685725E+02 -0.217446670070E+02 -0.211444715819E+02 -0.205602196391E+02 -0.199905534109E+02
 -0.194343478912E+02 -0.188907109816E+02 -0.183589651041E+02 -0.178386183949E+02 -0.173293317259E+02
 -0.168308858269E+02 -0.163431510869E+02 -0.158660613263E+02 -0.153995919584E+02 -0.149437424178E+02
 -0.144985224443E+02 -0.140639416877E+02 -0.136400020814E+02
 core charge-density
  0.181648061585E-01  0.192656720366E-01  0.204329975892E-01  0.216707708671E-01  0.229832169372E-01
  0.243748117519E-01  0.258502968088E-01  0.274146946457E-01  0.290733252140E-01  0.308318231804E-01
  0.326961562044E-01  0.346726442464E-01  0.367679799594E-01  0.389892502229E-01  0.413439588785E-01
  0.438400507306E-01  0.464859368780E-01  0.492905214453E-01  0.522632297860E-01  0.554140382322E-01
  0.587535054692E-01  0.622928056177E-01  0.660437631062E-01  0.700188894249E-01  0.742314218508E-01
  0.786953642403E-01  0.834255299891E-01  0.884375872601E-01  0.937481065876E-01  0.993746109664E-01
  0.105335628540E+00  0.111650748002E+00  0.118340676839E+00  0.125427302524E+00  0.132933756805E+00
  0.140884483205E+00  0.149305307870E+00  0.158223513901E+00  0.167667919313E+00  0.177668958741E+00
  0.188258769059E+00  0.199471279034E+00  0.211342303163E+00  0.223909639837E+00  0.237213173966E+00
  0.251294984210E+00  0.266199454940E+00  0.281973393076E+00  0.298666149908E+00  0.316329748037E+00
  0.335019013535E+00  0.354791713426E+00  0.375708698579E+00  0.397834052092E+00  0.421235243209E+00
  0.445983286834E+00  0.472152908635E+00  0.499822715747E+00  0.529075373039E+00  0.559997784865E+00
  0.592681282215E+00  0.627221815105E+00  0.663720150038E+00  0.702282072280E+00  0.743018592674E+00
  0.786046158630E+00  0.831486868865E+00  0.879468691415E+00  0.930125684318E+00  0.983598218313E+00
  0.104003320078E+01  0.109958430008E+01  0.116241216921E+01  0.122868466780E+01  0.129857708107E+01
  0.137227233437E+01  0.144996120183E+01  0.153184250720E+01  0.161812331516E+01  0.170901911085E+01
  0.180475396523E+01  0.190556068396E+01  0.201168093664E+01  0.212336536370E+01  0.224087365731E+01
  0.236447461296E+01  0.249444614760E+01  0.263107528024E+01  0.277465807042E+01  0.292549950965E+01
  0.308391336067E+01  0.325022193885E+01  0.342475582992E+01  0.360785353755E+01  0.379986105432E+01
  0.400113134881E+01  0.421202376170E+01  0.443290330281E+01  0.466413984139E+01  0.490610718096E+01
  0.515918201029E+01  0.542374272152E+01  0.570016808651E+01  0.598883578207E+01  0.629012075500E+01
  0.660439341769E+01  0.693201766517E+01  0.727334870493E+01  0.762873069098E+01  0.799849415421E+01
  0.838295322202E+01  0.878240262063E+01  0.919711445514E+01  0.962733476322E+01  0.100732798403E+02
  0.105351323355E+02  0.110130371212E+02  0.115070969383E+02  0.120173678272E+02  0.125438543527E+02
  0.130865046381E+02  0.136452052264E+02  0.142197757915E+02  0.148099637276E+02  0.154154386492E+02
  0.160357868419E+02  0.166705057098E+02  0.173189982714E+02  0.179805677643E+02  0.186544124267E+02
  0.193396205316E+02  0.200351657562E+02  0.207399029819E+02  0.214525646232E+02  0.221717575973E+02
  0.228959610520E+02  0.236235249773E+02  0.243526698357E+02  0.250814873498E+02  0.258079425940E+02
  0.265298775395E+02  0.272450162045E+02  0.279509715626E+02  0.286452543594E+02  0.293252839825E+02
  0.299884015221E+02  0.306318851469E+02  0.312529679053E+02  0.318488580382E+02  0.324167618673E+02
  0.329539092892E+02  0.334575818704E+02  0.339251434942E+02  0.343540734617E+02  0.347420018954E+02
  0.350867472297E+02  0.353863555086E+02  0.356391411356E+02  0.358437286448E+02  0.359990949810E+02
  0.361046116909E+02  0.361600863449E+02  0.361658024216E+02  0.361225568082E+02  0.360316939890E+02
  0.358951359300E+02  0.357154066059E+02  0.354956500730E+02  0.352396409662E+02  0.349517862924E+02
  0.346371174132E+02  0.343012711583E+02  0.339504590934E+02  0.335914240805E+02  0.332313834227E+02
  0.328779580796E+02  0.325390876725E+02  0.322229312692E+02  0.319377542557E+02  0.316918019447E+02
  0.314931609566E+02  0.313496098157E+02  0.312684606375E+02  0.312563942221E+02  0.313192913700E+02
  0.314620635987E+02  0.316884869942E+02  0.320010432577E+02  0.324007723932E+02  0.328871417477E+02
  0.334579362864E+02  0.341091750355E+02  0.348350585315E+02  0.356279518730E+02  0.364784075570E+02
  0.373752316840E+02  0.383055963467E+02  0.392552000662E+02  0.402084770298E+02  0.411488546253E+02
  0.420590573554E+02  0.429214536871E+02  0.437184407558E+02  0.444328601552E+02  0.450484363575E+02
  0.455502276697E+02  0.459250781221E+02  0.461620573565E+02  0.462528745182E+02  0.461922514211E+02
  0.459782399331E+02  0.456124686875E+02  0.451003049219E+02  0.444509185533E+02  0.436772375279E+02
  0.427957860793E+02  0.418264007573E+02  0.407918229249E+02  0.397171707718E+02  0.386292986364E+02
  0.375560564026E+02  0.365254667173E+02  0.355648425289E+02  0.346998717027E+02  0.339536989871E+02
  0.333460381929E+02  0.328923489875E+02  0.326031131657E+02  0.324832446051E+02  0.325316653949E+02
  0.327410773288E+02  0.330979534208E+02  0.335827661975E+02  0.341704589733E+02  0.348311525266E+02
  0.355310664421E+02  0.362336247422E+02  0.369007090688E+02  0.374940169916E+02  0.379764765335E+02
  0.383136616527E+02  0.384751491916E+02  0.384357571001E+02  0.381766069081E+02  0.376859600076E+02
  0.369597865708E+02  0.360020371776E+02  0.348245998785E+02  0.334469389519E+02  0.318954255037E+02
  0.302023837762E+02  0.284048900337E+02  0.265433726845E+02  0.246600723663E+02  0.227974286044E+02
  0.209964648296E+02  0.192952454552E+02  0.177274767266E+02  0.163213164639E+02  0.150984459867E+02
  0.140734398655E+02  0.132534464369E+02  0.126381679887E+02  0.122201131955E+02  0.119850993977E+02
  0.119130125519E+02  0.119788598640E+02  0.121541046808E+02  0.124081463870E+02  0.127097542160E+02
  0.130283587827E+02  0.133351959785E+02  0.136043022942E+02  0.138133383567E+02  0.139442094426E+02
  0.139834578024E+02  0.139224156020E+02  0.137571249157E+02  0.134880480913E+02  0.131196045890E+02
  0.126595779682E+02  0.121184393290E+02  0.115086323215E+02  0.108438606977E+02  0.101384132715E+02
  0.940655390750E+01  0.866199634465E+01  0.791747619463E+01  0.718442536639E+01  0.647274818705E+01
  0.579069349710E+01  0.514481311448E+01  0.453999434423E+01  0.397955244703E+01  0.346536822410E+01
  0.299805611788E+01  0.257714938915E+01  0.220129097453E+01  0.186842118571E+01  0.157595596791E+01
  0.132095134445E+01  0.110025063345E+01  0.910611402011E+00  0.748809812801E+00  0.611721375824E+00
  0.496379353584E+00  0.400013622490E+00  0.320073757938E+00  0.254240020182E+00  0.200425361845E+00
  0.156770901622E+00  0.121636726743E+00  0.935894453694E-01  0.713875862082E-01  0.539657004485E-01
  0.404178355548E-01  0.299809051185E-01  0.220183639940E-01  0.160045058308E-01  0.115096245234E-01
  0.818621744465E-02  0.575635315633E-02  0.400027729330E-02  0.274628673328E-02  0.186186368210E-02
  0.124602838679E-02  0.822842279236E-03  0.535972868541E-03  0.344217695750E-03  0.217876823718E-03
  0.135861022795E-03  0.834251407203E-04  0.504221576308E-04  0.299821496076E-04  0.175308970101E-04
  0.100743290420E-04  0.568664140929E-05  0.315113064397E-05  0.171307756421E-05  0.913068712148E-06
  0.476813945833E-06  0.243784106641E-06  0.121942369105E-06  0.596306700054E-07  0.284849696915E-07
  0.132816146164E-07  0.603985046624E-08  0.267661505285E-08  0.115496002330E-08  0.484839755984E-09
  0.197833529739E-09  0.783939393057E-10  0.301401837878E-10  0.112325531106E-10  0.405374220406E-11
  0.141527670496E-11  0.477510029960E-12  0.155529531843E-12  0.488483628986E-13  0.147772973250E-13
  0.430062665686E-14  0.120261393422E-14  0.322720080892E-15
 kinetic energy-density
  0.126644644886E+06  0.126607756267E+06  0.126587351534E+06  0.126583871684E+06  0.126597769739E+06
  0.126629511661E+06  0.126679576702E+06  0.126748458823E+06  0.126836667337E+06  0.126944728053E+06
  0.127073184506E+06  0.127222599076E+06  0.127393554267E+06  0.127586654069E+06  0.127802525483E+06
  0.128041819575E+06  0.128305213571E+06  0.128593411903E+06  0.128907148143E+06  0.129247186720E+06
  0.129614323587E+06  0.130009389836E+06  0.130433251805E+06  0.130886813151E+06  0.131371016968E+06
  0.131886847494E+06  0.132435331186E+06  0.133017540112E+06  0.133634591925E+06  0.134287652961E+06
  0.134977939736E+06  0.135706720809E+06  0.136475318993E+06  0.137285113273E+06  0.138137540742E+06
  0.139034099157E+06  0.139976348945E+06  0.140965915769E+06  0.142004492702E+06  0.143093843110E+06
  0.144235803248E+06  0.145432285130E+06  0.146685279414E+06  0.147996858662E+06  0.149369180494E+06
  0.150804491080E+06  0.152305128693E+06  0.153873527451E+06  0.155512221235E+06  0.157223847754E+06
  0.159011152784E+06  0.160876994579E+06  0.162824348446E+06  0.164856311485E+06  0.166976107499E+06
  0.169187092063E+06  0.171492757750E+06  0.173896739525E+06  0.176402820268E+06  0.179014936468E+06
  0.181737183982E+06  0.184573824107E+06  0.187529289487E+06  0.190608190338E+06  0.193815320757E+06
  0.197155664904E+06  0.200634403554E+06  0.204256920370E+06  0.208028808426E+06  0.211955876574E+06
  0.216044155720E+06  0.220299905332E+06  0.224729619325E+06  0.229340032244E+06  0.234138124944E+06
  0.239131130230E+06  0.244326537866E+06  0.249732099662E+06  0.255355833509E+06  0.261206027480E+06
  0.267291242945E+06  0.273620316991E+06  0.280202364213E+06  0.287046777484E+06  0.294163227583E+06
  0.301561661854E+06  0.309252301418E+06  0.317245636949E+06  0.325552422932E+06  0.334183669932E+06
  0.343150635109E+06  0.352464810410E+06  0.362137908481E+06  0.372181845810E+06  0.382608723375E+06
  0.393430803714E+06  0.404660485130E+06  0.416310272014E+06  0.428392741288E+06  0.440920504731E+06
  0.453906166788E+06  0.467362277506E+06  0.481301280356E+06  0.495735454701E+06  0.510676852388E+06
  0.526137227867E+06  0.542127962919E+06  0.558659982911E+06  0.575743668032E+06  0.593388755017E+06
  0.611604232980E+06  0.630398230090E+06  0.649777893015E+06  0.669749257206E+06  0.690317109396E+06
  0.711484841222E+06  0.733254294439E+06  0.755625597561E+06  0.778596994156E+06  0.802164663392E+06
  0.826322532356E+06  0.851062081697E+06  0.876372144361E+06  0.902238698694E+06  0.928644656815E+06
  0.955569649148E+06  0.982989806837E+06  0.101087754340E+07  0.103920133728E+07  0.106792551777E+07
  0.109701005613E+07  0.112641036479E+07  0.115607710725E+07  0.118595602198E+07  0.121598776353E+07
  0.124610776466E+07  0.127624612326E+07  0.130632751847E+07  0.133627116006E+07  0.136599077614E+07
  0.139539464357E+07  0.142438566627E+07  0.145286150616E+07  0.148071477203E+07  0.150783327098E+07
  0.153410032731E+07  0.155939517342E+07  0.158359341671E+07  0.160656758640E+07  0.162818776304E+07
  0.164832229327E+07  0.166683859105E+07  0.168360402581E+07  0.169848689669E+07  0.171135749045E+07
  0.172208921959E+07  0.173055983490E+07  0.173665270549E+07  0.174025815685E+07  0.174127485585E+07
  0.173961122927E+07  0.173518690028E+07  0.172793412541E+07  0.171779921199E+07  0.170474389468E+07
  0.168874664730E+07  0.166980390510E+07  0.164793117122E+07  0.162316398026E+07  0.159555869172E+07
  0.156519308620E+07  0.153216673837E+07  0.149660114210E+07  0.145863956574E+07  0.141844661858E+07
  0.137620751312E+07  0.133212701233E+07  0.128642805579E+07  0.123935006353E+07  0.119114692181E+07
  0.114208466034E+07  0.109243883600E+07  0.104249164643E+07  0.992528796989E+06  0.942836172675E+06
  0.893696356152E+06  0.845385053138E+06  0.798167503167E+06  0.752294948108E+06  0.708001235920E+06
  0.665499631483E+06  0.624979898822E+06  0.586605711221E+06  0.550512439032E+06  0.516805359599E+06
  0.485558329063E+06  0.456812950920E+06  0.430578270320E+06  0.406831015670E+06  0.385516399820E+06
  0.366549481943E+06  0.349817078759E+06  0.335180200462E+06  0.322476973350E+06  0.311525998326E+06
  0.302130082642E+06  0.294080271927E+06  0.287160100869E+06  0.281149974112E+06  0.275831584069E+06
  0.270992269320E+06  0.266429216335E+06  0.261953408117E+06  0.257393226321E+06  0.252597618376E+06
  0.247438748207E+06  0.241814058639E+06  0.235647685490E+06  0.228891178139E+06  0.221523498794E+06
  0.213550292919E+06  0.205002445152E+06  0.195933957590E+06  0.186419208529E+06  0.176549668057E+06
  0.166430162815E+06  0.156174797705E+06  0.145902661869E+06  0.135733470046E+06  0.125783313798E+06
  0.116160712118E+06  0.106963121688E+06  0.982740693326E+05  0.901609597080E+05  0.826736017904E+05
  0.758434317015E+05  0.696834133747E+05  0.641886026280E+05  0.593373504347E+05  0.550930932616E+05
  0.514066449562E+05  0.482188758535E+05  0.454636441143E+05  0.430708330821E+05  0.409693477212E+05
  0.390899327154E+05  0.373676931438E+05  0.357442228180E+05  0.341692733071E+05  0.326019250686E+05
  0.310112496576E+05  0.293764762836E+05  0.276866964937E+05  0.259401566676E+05  0.241432000359E+05
  0.223089293022E+05  0.204556694695E+05  0.186053199437E+05  0.167816948169E+05  0.150089552576E+05
  0.133102295886E+05  0.117064754426E+05  0.102155706474E+05  0.885156801234E+04  0.762407816610E+04
  0.653788649210E+04  0.559300336850E+04  0.478522174756E+04  0.410694046700E+04  0.354793774995E+04
  0.309602863597E+04  0.273770279817E+04  0.245877388890E+04  0.224500779295E+04  0.208268907124E+04
  0.195909804021E+04  0.186288175590E+04  0.178430940848E+04  0.171540985905E+04  0.164999739989E+04
  0.158359962053E+04  0.151330699509E+04  0.143756681917E+04  0.135594430006E+04  0.126887184790E+04
  0.117740425206E+04  0.108299337639E+04  0.987291752880E+03  0.891990399630E+03  0.798692758851E+03
  0.708823910438E+03  0.623572269915E+03  0.543859626338E+03  0.470334718903E+03  0.403385225449E+03
  0.343163000481E+03  0.289617630239E+03  0.242533853483E+03  0.201569202045E+03  0.166289351433E+03
  0.136199925157E+03  0.110774451748E+03  0.894784855381E+02  0.717896363283E+02  0.572130817424E+02
  0.452922213344E+02  0.356147671067E+02  0.278150448778E+02  0.215735219606E+02  0.166145108645E+02
  0.127027937606E+02  0.963969778814E+01  0.725898021557E+01  0.542276067819E+01  0.401765269330E+01
  0.295118633700E+01  0.214857097819E+01  0.154981617337E+01  0.110720816440E+01  0.783125465060E+00
  0.548169031351E+00  0.379578172866E+00  0.259901774727E+00  0.175894568806E+00  0.117609406481E+00
  0.776583365207E-01  0.506174641513E-01  0.325529051436E-01  0.206475441029E-01  0.129107011642E-01
  0.795514214442E-02  0.482809172286E-02  0.288497466599E-02  0.169648901571E-02  0.981290780547E-03
  0.558040598289E-03  0.311835364150E-03  0.171131844852E-03  0.921763741957E-04  0.486980628810E-04
  0.252179562342E-04  0.127909017995E-04  0.634977503832E-05  0.308277783244E-05  0.146252658031E-05
  0.677463423810E-06  0.306143231980E-06  0.134849832266E-06  0.578478870362E-07  0.241464999368E-07
  0.979855105343E-08  0.386201588385E-08  0.147708453667E-08  0.547671555025E-09  0.196667087955E-09
  0.683282911440E-10  0.229442578232E-10  0.743849007232E-11  0.232568141165E-11  0.700440757085E-12
  0.202970252722E-12  0.565196433265E-13  0.151049810806E-13
 mkinetic energy-density pseudized
  0.335903198528E-05  0.358103846475E-05  0.381771788473E-05  0.407004001500E-05  0.433903871978E-05
  0.462581619383E-05  0.493154747861E-05  0.525748527687E-05  0.560496508549E-05  0.597541066753E-05
  0.637033988595E-05  0.679137092292E-05  0.724022891011E-05  0.771875299730E-05  0.822890388803E-05
  0.877277187345E-05  0.935258539704E-05  0.997072018541E-05  0.106297089826E-04  0.113322519279E-04
  0.120812276190E-04  0.128797049070E-04  0.137309554710E-04  0.146384672227E-04  0.156059585986E-04
  0.166373937952E-04  0.177369990124E-04  0.189092797695E-04  0.201590393664E-04  0.214913985646E-04
  0.229118165685E-04  0.244261133947E-04  0.260404937181E-04  0.277615722956E-04  0.295964010686E-04
  0.315524980584E-04  0.336378781697E-04  0.358610860314E-04  0.382312310069E-04  0.407580245189E-04
  0.434518198407E-04  0.463236545178E-04  0.493852955930E-04  0.526492878203E-04  0.561290050658E-04
  0.598387051056E-04  0.637935880453E-04  0.680098586007E-04  0.725047924947E-04  0.772968072428E-04
  0.824055376163E-04  0.878519160936E-04  0.936582586286E-04  0.998483560875E-04  0.106447571729E-03
  0.113482945126E-03  0.120983302960E-03  0.128979377130E-03  0.137503930677E-03  0.146591892023E-03
  0.156280498087E-03  0.166609446860E-03  0.177621060056E-03  0.189360456527E-03  0.201875737125E-03
  0.215218181792E-03  0.229442459669E-03  0.244606853098E-03  0.260773496420E-03  0.278008630566E-03
  0.296382874463E-03  0.315971514389E-03  0.336854812441E-03  0.359118335396E-03  0.382853305307E-03
  0.408156973267E-03  0.435133017877E-03  0.463891970048E-03  0.494551665880E-03  0.527237729471E-03
  0.562084087632E-03  0.599233518624E-03  0.638838237158E-03  0.681060518058E-03  0.726073361141E-03
  0.774061200040E-03  0.825220657867E-03  0.879761352824E-03  0.937906757051E-03  0.999895112234E-03
  0.106598040572E-02  0.113643341116E-02  0.121154279787E-02  0.129161631361E-02  0.137698204540E-02
  0.146798976377E-02  0.156501235574E-02  0.166844735264E-02  0.177871855872E-02  0.189627778756E-02
  0.202160671308E-02  0.215521884296E-02  0.229766162245E-02  0.244951867717E-02  0.261141220417E-02
  0.278400552095E-02  0.296800578292E-02  0.316416688044E-02  0.337329252732E-02  0.359623955328E-02
  0.383392141413E-02  0.408731193373E-02  0.435744929330E-02  0.464544028424E-02  0.495246484198E-02
  0.527978087933E-02  0.562872943924E-02  0.600074018788E-02  0.639733727069E-02  0.682014555524E-02
  0.727089728657E-02  0.775143918205E-02  0.826373999503E-02  0.880989857797E-02  0.939215247826E-02
  0.100128871017E-01  0.106746454811E-01  0.113801386904E-01  0.121322569459E-01  0.129340814411E-01
  0.137888969627E-01  0.147002053401E-01  0.156717397817E-01  0.167074801591E-01  0.178116692995E-01
  0.189888303535E-01  0.202437853092E-01  0.215816747286E-01  0.230079787861E-01  0.245285396949E-01
  0.261495856137E-01  0.278777561300E-01  0.297201294243E-01  0.316842512258E-01  0.337781656782E-01
  0.360104482392E-01  0.383902407501E-01  0.409272888164E-01  0.436319816510E-01  0.465153945438E-01
  0.495893341281E-01  0.528663866276E-01  0.563599692814E-01  0.600843851530E-01  0.640548815463E-01
  0.682877122650E-01  0.728002039666E-01  0.776108268786E-01  0.827392701627E-01  0.882065222307E-01
  0.940349563344E-01  0.100248421774E+00  0.106872341093E+00  0.113933813643E+00  0.121461725944E+00
  0.129486869267E+00  0.138042064924E+00  0.147162297748E+00  0.156884858305E+00  0.167249494402E+00
  0.178298572481E+00  0.190077249546E+00  0.202633656298E+00  0.216019092194E+00  0.230288233197E+00
  0.245499353025E+00  0.261714558770E+00  0.279000041781E+00  0.297426344808E+00  0.317068646405E+00
  0.338007063701E+00  0.360326974698E+00  0.384119361291E+00  0.409481174338E+00  0.436515722131E+00
  0.465333083709E+00  0.496050548574E+00  0.528793084386E+00  0.563693834380E+00  0.600894646280E+00
  0.640546634616E+00  0.682810778443E+00  0.727858556550E+00  0.775872622379E+00  0.827047520952E+00
  0.881590450254E+00  0.939722069581E+00  0.100167735753E+01  0.106770652240E+01  0.113807596782E+01
  0.121306931674E+01  0.129298849668E+01  0.137815488963E+01  0.146891054981E+01  0.156561949264E+01
  0.166866905850E+01  0.177847135468E+01  0.189546477921E+01  0.202011563003E+01  0.215291980322E+01
  0.229440458376E+01  0.244513053225E+01  0.260569347110E+01  0.277672657316E+01  0.295890255590E+01
  0.315293598365E+01  0.335958568015E+01  0.357965725313E+01  0.381400573205E+01  0.406353831926E+01
  0.432921725412E+01  0.461206278837E+01  0.491315626984E+01  0.523364332996E+01  0.557473716902E+01
  0.593772193059E+01  0.632395615451E+01  0.673487629473E+01  0.717200028517E+01  0.763693113303E+01
  0.813136051440E+01  0.865707234239E+01  0.921594627213E+01  0.980996110051E+01  0.104411980113E+02
  0.111118436079E+02  0.118241926666E+02  0.125806505318E+02  0.133837350654E+02  0.142360780438E+02
  0.151404258882E+02  0.160996395892E+02  0.171166936754E+02  0.181946740489E+02  0.193367744921E+02
  0.205462916226E+02  0.218266180459E+02  0.231812334268E+02  0.246136931653E+02  0.261276143300E+02
  0.277266584641E+02  0.294145108366E+02  0.311948556726E+02  0.330713468515E+02  0.350475735166E+02
  0.371270199950E+02  0.393130193838E+02  0.416087001145E+02  0.440169247712E+02  0.465402204054E+02
  0.491806995701E+02  0.519399712828E+02  0.548190411366E+02  0.578181998079E+02  0.609368992671E+02
  0.641736160904E+02  0.675257014133E+02  0.709892172553E+02  0.745587592071E+02  0.782272658108E+02
  0.819858153964E+02  0.858234116829E+02  0.897267601286E+02  0.936800378329E+02  0.976646607861E+02
  0.101659053435E+03  0.105638426914E+03  0.109574573890E+03  0.113435689787E+03  0.117186232211E+03
  0.120786832657E+03  0.124194277016E+03  0.127361573978E+03  0.130238133041E+03  0.132770076331E+03
  0.134900710748E+03  0.136571188634E+03  0.137721386158E+03  0.138291028236E+03  0.138221086820E+03
  0.137455474912E+03  0.135943051207E+03  0.133639938755E+03  0.130512144652E+03  0.126538445474E+03
  0.121713473861E+03  0.116050904519E+03  0.109586592139E+03  0.102381459166E+03  0.945238684047E+02
  0.861311456837E+02  0.773498443445E+02  0.683542712777E+02  0.593427314925E+02  0.505309059571E+02
  0.421417708088E+02  0.343915145167E+02  0.274710371794E+02  0.215228507714E+02  0.166135712424E+02
  0.127027937606E+02  0.963969778814E+01  0.725898021557E+01  0.542276067819E+01  0.401765269330E+01
  0.295118633700E+01  0.214857097819E+01  0.154981617337E+01  0.110720816440E+01  0.783125465060E+00
  0.548169031351E+00  0.379578172866E+00  0.259901774727E+00  0.175894568806E+00  0.117609406481E+00
  0.776583365207E-01  0.506174641513E-01  0.325529051436E-01  0.206475441029E-01  0.129107011642E-01
  0.795514214442E-02  0.482809172286E-02  0.288497466599E-02  0.169648901571E-02  0.981290780547E-03
  0.558040598289E-03  0.311835364150E-03  0.171131844852E-03  0.921763741957E-04  0.486980628810E-04
  0.252179562342E-04  0.127909017995E-04  0.634977503832E-05  0.308277783244E-05  0.146252658031E-05
  0.677463423810E-06  0.306143231980E-06  0.134849832266E-06  0.578478870362E-07  0.241464999368E-07
  0.979855105343E-08  0.386201588385E-08  0.147708453667E-08  0.547671555025E-09  0.196667087955E-09
  0.683282911440E-10  0.229442578232E-10  0.743849007232E-11  0.232568141165E-11  0.700440757085E-12
  0.202970252722E-12  0.565196433265E-13  0.151049810806E-13
 local pseudopotential core
 -0.182931178359E+03 -0.182931999765E+03 -0.182932795301E+03 -0.182933565781E+03 -0.182934311996E+03
 -0.182935034707E+03 -0.182935734657E+03 -0.182936412561E+03 -0.182937069114E+03 -0.182937704988E+03
 -0.182938320835E+03 -0.182938917284E+03 -0.182939494947E+03 -0.182940054414E+03 -0.182940596260E+03
 -0.182941121039E+03 -0.182941629287E+03 -0.182942121526E+03 -0.182942598259E+03 -0.182943059975E+03
 -0.182943507147E+03 -0.182943940231E+03 -0.182944359672E+03 -0.182944765899E+03 -0.182945159327E+03
 -0.182945540360E+03 -0.182945909387E+03 -0.182946266787E+03 -0.182946612925E+03 -0.182946948155E+03
 -0.182947272821E+03 -0.182947587254E+03 -0.182947891777E+03 -0.182948186701E+03 -0.182948472327E+03
 -0.182948748949E+03 -0.182949016848E+03 -0.182949276300E+03 -0.182949527568E+03 -0.182949770911E+03
 -0.182950006577E+03 -0.182950234807E+03 -0.182950455834E+03 -0.182950669883E+03 -0.182950877175E+03
 -0.182951077920E+03 -0.182951272323E+03 -0.182951460583E+03 -0.182951642891E+03 -0.182951819435E+03
 -0.182951990393E+03 -0.182952155940E+03 -0.182952316245E+03 -0.182952471471E+03 -0.182952621775E+03
 -0.182952767312E+03 -0.182952908227E+03 -0.182953044665E+03 -0.182953176765E+03 -0.182953304658E+03
 -0.182953428477E+03 -0.182953548344E+03 -0.182953664383E+03 -0.182953776708E+03 -0.182953885435E+03
 -0.182953990671E+03 -0.182954092522E+03 -0.182954191091E+03 -0.182954286476E+03 -0.182954378772E+03
 -0.182954468070E+03 -0.182954554459E+03 -0.182954638024E+03 -0.182954718847E+03 -0.182954797007E+03
 -0.182954872581E+03 -0.182954945641E+03 -0.182955016258E+03 -0.182955084500E+03 -0.182955150431E+03
 -0.182955214113E+03 -0.182955275606E+03 -0.182955334966E+03 -0.182955392249E+03 -0.182955447504E+03
 -0.182955500783E+03 -0.182955552130E+03 -0.182955601591E+03 -0.182955649206E+03 -0.182955695016E+03
 -0.182955739056E+03 -0.182955781360E+03 -0.182955821961E+03 -0.182955860888E+03 -0.182955898166E+03
 -0.182955933821E+03 -0.182955967873E+03 -0.182956000341E+03 -0.182956031241E+03 -0.182956060587E+03
 -0.182956088389E+03 -0.182956114655E+03 -0.182956139389E+03 -0.182956162594E+03 -0.182956184267E+03
 -0.182956204405E+03 -0.182956222998E+03 -0.182956240036E+03 -0.182956255504E+03 -0.182956269382E+03
 -0.182956281647E+03 -0.182956292274E+03 -0.182956301230E+03 -0.182956308481E+03 -0.182956313985E+03
 -0.182956317697E+03 -0.182956319567E+03 -0.182956319539E+03 -0.182956317550E+03 -0.182956313534E+03
 -0.182956307415E+03 -0.182956299113E+03 -0.182956288540E+03 -0.182956275599E+03 -0.182956260186E+03
 -0.182956242190E+03 -0.182956221488E+03 -0.182956197950E+03 -0.182956171434E+03 -0.182956141788E+03
 -0.182956108849E+03 -0.182956072441E+03 -0.182956032375E+03 -0.182955988450E+03 -0.182955940448E+03
 -0.182955888136E+03 -0.182955831266E+03 -0.182955769571E+03 -0.182955702766E+03 -0.182955630545E+03
 -0.182955552581E+03 -0.182955468527E+03 -0.182955378008E+03 -0.182955280625E+03 -0.182955175954E+03
 -0.182955063539E+03 -0.182954942893E+03 -0.182954813499E+03 -0.182954674802E+03 -0.182954526210E+03
 -0.182954367093E+03 -0.182954196776E+03 -0.182954014541E+03 -0.182953819621E+03 -0.182953611197E+03
 -0.182953388395E+03 -0.182953150284E+03 -0.182952895869E+03 -0.182952624091E+03 -0.182952333819E+03
 -0.182952023845E+03 -0.182951692884E+03 -0.182951339562E+03 -0.182950962417E+03 -0.182950559886E+03
 -0.182950130306E+03 -0.182949671901E+03 -0.182949182776E+03 -0.182948660914E+03 -0.182948104160E+03
 -0.182947510218E+03 -0.182946876639E+03 -0.182946200813E+03 -0.182945479953E+03 -0.182944711091E+03
 -0.182943891059E+03 -0.182943016480E+03 -0.182942083753E+03 -0.182941089038E+03 -0.182940028239E+03
 -0.182938896989E+03 -0.182937690630E+03 -0.182936404195E+03 -0.182935032388E+03 -0.182933569558E+03
 -0.182932009682E+03 -0.182930346334E+03 -0.182928572662E+03 -0.182926681356E+03 -0.182924664622E+03
 -0.182922514146E+03 -0.182920221059E+03 -0.182917775901E+03 -0.182915168583E+03 -0.182912388342E+03
 -0.182909423696E+03 -0.182906262395E+03 -0.182902891372E+03 -0.182899296685E+03 -0.182895463460E+03
 -0.182891375824E+03 -0.182887016842E+03 -0.182882368441E+03 -0.182877411334E+03 -0.182872124938E+03
 -0.182866487284E+03 -0.182860474921E+03 -0.182854062817E+03 -0.182847224248E+03 -0.182839930680E+03
 -0.182832151650E+03 -0.182823854621E+03 -0.182815004848E+03 -0.182805565219E+03 -0.182795496089E+03
 -0.182784755101E+03 -0.182773296999E+03 -0.182761073417E+03 -0.182748032659E+03 -0.182734119463E+03
 -0.182719274744E+03 -0.182703435315E+03 -0.182686533596E+03 -0.182668497286E+03 -0.182649249021E+03
 -0.182628706003E+03 -0.182606779590E+03 -0.182583374868E+03 -0.182558390172E+03 -0.182531716582E+03
 -0.182503237367E+03 -0.182472827385E+03 -0.182440352437E+03 -0.182405668558E+03 -0.182368621250E+03
 -0.182329044653E+03 -0.182286760633E+03 -0.182241577796E+03 -0.182193290413E+03 -0.182141677239E+03
 -0.182086500236E+03 -0.182027503168E+03 -0.181964410066E+03 -0.181896923549E+03 -0.181824722982E+03
 -0.181747462459E+03 -0.181664768585E+03 -0.181576238045E+03 -0.181481434919E+03 -0.181379887745E+03
 -0.181271086270E+03 -0.181154477877E+03 -0.181029463639E+03 -0.180895393971E+03 -0.180751563826E+03
 -0.180597207381E+03 -0.180431492171E+03 -0.180253512599E+03 -0.180062282751E+03 -0.179856728446E+03
 -0.179635678440E+03 -0.179397854675E+03 -0.179141861494E+03 -0.178866173694E+03 -0.178569123301E+03
 -0.178248884939E+03 -0.177903459648E+03 -0.177530656997E+03 -0.177128075346E+03 -0.176693080079E+03
 -0.176222779633E+03 -0.175713999183E+03 -0.175163251789E+03 -0.174566706886E+03 -0.173920155995E+03
 -0.173218975589E+03 -0.172458087137E+03 -0.171631914434E+03 -0.170734338493E+03 -0.169758650499E+03
 -0.168697503617E+03 -0.167542864858E+03 -0.166285968782E+03 -0.164917275554E+03 -0.163426436909E+03
 -0.161802274901E+03 -0.160032780074E+03 -0.158105138024E+03 -0.156005796214E+03 -0.153720586684E+03
 -0.151234924863E+03 -0.148534110243E+03 -0.145603761019E+03 -0.142430421605E+03 -0.139002388404E+03
 -0.135310803742E+03 -0.131351067868E+03 -0.127124610130E+03 -0.122641036879E+03 -0.117920627318E+03
 -0.112997070492E+03 -0.107920219508E+03 -0.102758482067E+03 -0.976002834439E+02 -0.925538679020E+02
 -0.877446175122E+02 -0.833091612726E+02 -0.793859191110E+02 -0.761024162638E+02 -0.735606434111E+02
 -0.718236939002E+02 -0.704138130311E+02 -0.681752108234E+02 -0.660141349152E+02 -0.639248052458E+02
 -0.619040627955E+02 -0.599490480223E+02 -0.580571520603E+02 -0.562259756435E+02 -0.544532961954E+02
 -0.527370384880E+02 -0.510752544834E+02 -0.494661025032E+02 -0.479078347236E+02 -0.463987834723E+02
 -0.449373533004E+02 -0.435220125928E+02 -0.421512879867E+02 -0.408237595424E+02 -0.395380569281E+02
 -0.382928563283E+02 -0.370868778855E+02 -0.359188835895E+02 -0.347876754236E+02 -0.336920937892E+02
 -0.326310160381E+02 -0.316033551769E+02 -0.306080586350E+02 -0.296441071159E+02 -0.287105134911E+02
 -0.278063217492E+02 -0.269306059992E+02 -0.260824695017E+02 -0.252610437418E+02 -0.244654875370E+02
 -0.236949861801E+02 -0.229487506062E+02 -0.222260165920E+02 -0.215260439769E+02 -0.208481159089E+02
 -0.201915381129E+02 -0.195556381813E+02 -0.189397648859E+02 -0.183432875110E+02 -0.177655952074E+02
 -0.172060963657E+02 -0.166642180106E+02 -0.161394052132E+02 -0.156311205222E+02 -0.151388434133E+02
 -0.146620697558E+02 -0.142003112960E+02 -0.137530951572E+02
 pspotential valence only
 -0.526329372116E+02 -0.526337586340E+02 -0.526345541876E+02 -0.526353246869E+02 -0.526360709212E+02
 -0.526367936542E+02 -0.526374936266E+02 -0.526381715554E+02 -0.526388281343E+02 -0.526394640359E+02
 -0.526400799118E+02 -0.526406763923E+02 -0.526412540884E+02 -0.526418135917E+02 -0.526423554755E+02
 -0.526428802945E+02 -0.526433885862E+02 -0.526438808712E+02 -0.526443576537E+02 -0.526448194219E+02
 -0.526452666490E+02 -0.526456997927E+02 -0.526461192970E+02 -0.526465255914E+02 -0.526469190919E+02
 -0.526473002018E+02 -0.526476693112E+02 -0.526480267983E+02 -0.526483730291E+02 -0.526487083586E+02
 -0.526490331302E+02 -0.526493476762E+02 -0.526496523192E+02 -0.526499473712E+02 -0.526502331344E+02
 -0.526505099016E+02 -0.526507779564E+02 -0.526510375735E+02 -0.526512890187E+02 -0.526515325499E+02
 -0.526517684164E+02 -0.526519968600E+02 -0.526522181149E+02 -0.526524324079E+02 -0.526526399585E+02
 -0.526528409797E+02 -0.526530356774E+02 -0.526532242513E+02 -0.526534068948E+02 -0.526535837952E+02
 -0.526537551340E+02 -0.526539210870E+02 -0.526540818244E+02 -0.526542375113E+02 -0.526543883074E+02
 -0.526545343676E+02 -0.526546758419E+02 -0.526548128758E+02 -0.526549456099E+02 -0.526550741808E+02
 -0.526551987207E+02 -0.526553193579E+02 -0.526554362163E+02 -0.526555494166E+02 -0.526556590751E+02
 -0.526557653053E+02 -0.526558682165E+02 -0.526559679151E+02 -0.526560645042E+02 -0.526561580836E+02
 -0.526562487504E+02 -0.526563365985E+02 -0.526564217191E+02 -0.526565042006E+02 -0.526565841291E+02
 -0.526566615878E+02 -0.526567366575E+02 -0.526568094171E+02 -0.526568799426E+02 -0.526569483083E+02
 -0.526570145863E+02 -0.526570788465E+02 -0.526571411573E+02 -0.526572015848E+02 -0.526572601936E+02
 -0.526573170466E+02 -0.526573722050E+02 -0.526574257285E+02 -0.526574776754E+02 -0.526575281025E+02
 -0.526575770653E+02 -0.526576246182E+02 -0.526576708143E+02 -0.526577157057E+02 -0.526577593432E+02
 -0.526578017771E+02 -0.526578430564E+02 -0.526578832297E+02 -0.526579223444E+02 -0.526579604476E+02
 -0.526579975858E+02 -0.526580338049E+02 -0.526580691502E+02 -0.526581036671E+02 -0.526581374005E+02
 -0.526581703950E+02 -0.526582026953E+02 -0.526582343460E+02 -0.526582653920E+02 -0.526582958782E+02
 -0.526583258498E+02 -0.526583553525E+02 -0.526583844324E+02 -0.526584131364E+02 -0.526584415119E+02
 -0.526584696073E+02 -0.526584974720E+02 -0.526585251566E+02 -0.526585527127E+02 -0.526585801935E+02
 -0.526586076538E+02 -0.526586351501E+02 -0.526586627407E+02 -0.526586904863E+02 -0.526587184494E+02
 -0.526587466956E+02 -0.526587752926E+02 -0.526588043115E+02 -0.526588338264E+02 -0.526588639148E+02
 -0.526588946579E+02 -0.526589261412E+02 -0.526589584541E+02 -0.526589916908E+02 -0.526590259507E+02
 -0.526590613382E+02 -0.526590979637E+02 -0.526591359436E+02 -0.526591754011E+02 -0.526592164661E+02
 -0.526592592766E+02 -0.526593039783E+02 -0.526593507257E+02 -0.526593996826E+02 -0.526594510228E+02
 -0.526595049304E+02 -0.526595616012E+02 -0.526596212429E+02 -0.526596840762E+02 -0.526597503355E+02
 -0.526598202700E+02 -0.526598941449E+02 -0.526599722417E+02 -0.526600548602E+02 -0.526601423192E+02
 -0.526602349580E+02 -0.526603331376E+02 -0.526604372423E+02 -0.526605476812E+02 -0.526606648899E+02
 -0.526607893319E+02 -0.526609215013E+02 -0.526610619238E+02 -0.526612111597E+02 -0.526613698055E+02
 -0.526615384967E+02 -0.526617179104E+02 -0.526619087677E+02 -0.526621118371E+02 -0.526623279371E+02
 -0.526625579400E+02 -0.526628027752E+02 -0.526630634329E+02 -0.526633409682E+02 -0.526636365054E+02
 -0.526639512427E+02 -0.526642864566E+02 -0.526646435076E+02 -0.526650238452E+02 -0.526654290143E+02
 -0.526658606610E+02 -0.526663205393E+02 -0.526668105185E+02 -0.526673325904E+02 -0.526678888773E+02
 -0.526684816409E+02 -0.526691132910E+02 -0.526697863953E+02 -0.526705036899E+02 -0.526712680899E+02
 -0.526720827012E+02 -0.526729508330E+02 -0.526738760109E+02 -0.526748619909E+02 -0.526759127742E+02
 -0.526770326233E+02 -0.526782260786E+02 -0.526794979766E+02 -0.526808534684E+02 -0.526822980405E+02
 -0.526838375357E+02 -0.526854781764E+02 -0.526872265882E+02 -0.526890898260E+02 -0.526910754010E+02
 -0.526931913093E+02 -0.526954460631E+02 -0.526978487222E+02 -0.527004089290E+02 -0.527031369442E+02
 -0.527060436857E+02 -0.527091407687E+02 -0.527124405486E+02 -0.527159561666E+02 -0.527197015970E+02
 -0.527236916977E+02 -0.527279422631E+02 -0.527324700799E+02 -0.527372929858E+02 -0.527424299309E+02
 -0.527479010423E+02 -0.527537276917E+02 -0.527599325662E+02 -0.527665397419E+02 -0.527735747611E+02
 -0.527810647122E+02 -0.527890383128E+02 -0.527975259956E+02 -0.528065599974E+02 -0.528161744505E+02
 -0.528264054763E+02 -0.528372912809E+02 -0.528488722531E+02 -0.528611910621E+02 -0.528742927567E+02
 -0.528882248644E+02 -0.529030374879E+02 -0.529187834015E+02 -0.529355181416E+02 -0.529533000947E+02
 -0.529721905768E+02 -0.529922539048E+02 -0.530135574577E+02 -0.530361717228E+02 -0.530601703262E+02
 -0.530856300425E+02 -0.531126307812E+02 -0.531412555430E+02 -0.531715903434E+02 -0.532037240961E+02
 -0.532377484497E+02 -0.532737575708E+02 -0.533118478654E+02 -0.533521176285E+02 -0.533946666116E+02
 -0.534395954978E+02 -0.534870052701E+02 -0.535369964604E+02 -0.535896682632E+02 -0.536451174972E+02
 -0.537034373976E+02 -0.537647162188E+02 -0.538290356277E+02 -0.538964688649E+02 -0.539670786521E+02
 -0.540409148208E+02 -0.541180116393E+02 -0.541983848142E+02 -0.542820281429E+02 -0.543689097956E+02
 -0.544589682090E+02 -0.545521075754E+02 -0.546481929190E+02 -0.547470447572E+02 -0.548484333541E+02
 -0.549520725875E+02 -0.550576134633E+02 -0.551646373328E+02 -0.552726488905E+02 -0.553810690545E+02
 -0.554892278681E+02 -0.555963575919E+02 -0.557015862018E+02 -0.558039315480E+02 -0.559022964820E+02
 -0.559954653055E+02 -0.560821019437E+02 -0.561607502876E+02 -0.562298371834E+02 -0.562876785579E+02
 -0.563324891559E+02 -0.563623963054E+02 -0.563754580059E+02 -0.563696854324E+02 -0.563430696236E+02
 -0.562936116560E+02 -0.562193549395E+02 -0.561184173718E+02 -0.559890199267E+02 -0.558295068087E+02
 -0.556383506664E+02 -0.554141346925E+02 -0.551555021581E+02 -0.548610636841E+02 -0.545292542256E+02
 -0.541581360893E+02 -0.537451512894E+02 -0.532868345652E+02 -0.527785051247E+02 -0.522139725982E+02
 -0.515863384417E+02 -0.508098256401E+02 -0.500445409976E+02 -0.492531499516E+02 -0.484366679430E+02
 -0.475984097277E+02 -0.467417115713E+02 -0.458698779748E+02 -0.449861290549E+02 -0.440935111782E+02
 -0.431947989632E+02 -0.422923922939E+02 -0.413882199453E+02 -0.404836774957E+02 -0.395796168257E+02
 -0.386764085822E+02 -0.377740789655E+02 -0.368725116441E+02 -0.359716711011E+02 -0.350718265654E+02
 -0.341737195508E+02 -0.332786612653E+02 -0.323885471353E+02 -0.315057941122E+02 -0.306332144326E+02
 -0.297738426918E+02 -0.289307334733E+02 -0.281067472533E+02 -0.273043443402E+02 -0.265254093624E+02
 -0.257711294412E+02 -0.250419446041E+02 -0.243375781110E+02 -0.236571395512E+02 -0.229992797453E+02
 -0.223623685725E+02 -0.217446670070E+02 -0.211444715819E+02 -0.205602196390E+02 -0.199905534109E+02
 -0.194343478912E+02 -0.188907109816E+02 -0.183589651041E+02 -0.178386183949E+02 -0.173293317259E+02
 -0.168308858269E+02 -0.163431510869E+02 -0.158660613263E+02 -0.153995919584E+02 -0.149437424178E+02
 -0.144985224443E+02 -0.140639416877E+02 -0.136400020814E+02
 core charge-density (pseudized)
  0.337208014235E-07  0.359494900585E-07  0.383254780688E-07  0.408585008232E-07  0.435589371241E-07
  0.464378517340E-07  0.495070407119E-07  0.527790797466E-07  0.562673756843E-07  0.599862214617E-07
  0.639508546698E-07  0.681775199885E-07  0.726835357474E-07  0.774873648859E-07  0.826086906032E-07
  0.880684970081E-07  0.938891550993E-07  0.100094514428E-06  0.106710000820E-06  0.113762720553E-06
  0.121281571425E-06  0.129297361157E-06  0.137842933626E-06  0.146953303440E-06  0.156665799404E-06
  0.167020217475E-06  0.178058983817E-06  0.189827328642E-06  0.202373471532E-06  0.215748819017E-06
  0.230008175208E-06  0.245209966346E-06  0.261416480203E-06  0.278694121298E-06  0.297113682980E-06
  0.316750637497E-06  0.337685445239E-06  0.360003884411E-06  0.383797402500E-06  0.409163490974E-06
  0.436206084742E-06  0.465035988014E-06  0.495771328310E-06  0.528538040472E-06  0.563470382671E-06
  0.600711486515E-06  0.640413943510E-06  0.682740430290E-06  0.727864375164E-06  0.775970668717E-06
  0.827256421382E-06  0.881931771070E-06  0.940220744190E-06  0.100236217356E-05  0.106861067702E-05
  0.113923770067E-05  0.121453263108E-05  0.129480398106E-05  0.138038065369E-05  0.147161329003E-05
  0.156887570573E-05  0.167256642279E-05  0.178311030237E-05  0.190096028566E-05  0.202659924968E-05
  0.216054198585E-05  0.230333730925E-05  0.245557030731E-05  0.261786473711E-05  0.279088558114E-05
  0.297534177193E-05  0.317198909682E-05  0.338163329465E-05  0.360513335712E-05  0.384340504840E-05
  0.409742465725E-05  0.436823299721E-05  0.465693967114E-05  0.496472761754E-05  0.529285795747E-05
  0.564267516166E-05  0.601561255921E-05  0.641319821030E-05  0.683706116709E-05  0.728893814830E-05
  0.777068065503E-05  0.828426255672E-05  0.883178817859E-05  0.941550092345E-05  0.100377924634E-04
  0.107012125389E-04  0.114084794055E-04  0.121624909710E-04  0.129663366686E-04  0.138233101143E-04
  0.147369226019E-04  0.157109174884E-04  0.167492855309E-04  0.178562812373E-04  0.190364402964E-04
  0.202945981612E-04  0.216359098590E-04  0.230658711118E-04  0.245903408512E-04  0.262155652219E-04
  0.279482031711E-04  0.297953537290E-04  0.317645850914E-04  0.338639656248E-04  0.361020969198E-04
  0.384881490283E-04  0.410318980296E-04  0.437437660779E-04  0.466348640963E-04  0.497170372918E-04
  0.530029136769E-04  0.565059557970E-04  0.602405158757E-04  0.642218946031E-04  0.684664038072E-04
  0.729914332661E-04  0.778155219338E-04  0.829584338701E-04  0.884412391870E-04  0.942864003406E-04
  0.100517864124E-03  0.107161159733E-03  0.114243503315E-03  0.121793909411E-03  0.129843309768E-03
  0.138424679993E-03  0.147573174564E-03  0.157326270765E-03  0.167723922116E-03  0.178808721934E-03
  0.190626077692E-03  0.203224396885E-03  0.216655285160E-03  0.230973757528E-03  0.246238463507E-03
  0.262511927120E-03  0.279860802728E-03  0.298356147740E-03  0.318073713302E-03  0.339094254165E-03
  0.361503858976E-03  0.385394302350E-03  0.410863420141E-03  0.438015509454E-03  0.466961754999E-03
  0.497820683549E-03  0.530718648316E-03  0.565790345221E-03  0.603179363163E-03  0.643038770486E-03
  0.685531740043E-03  0.730832215365E-03  0.779125620644E-03  0.830609617368E-03  0.885494910681E-03
  0.944006108705E-03  0.100638263828E-02  0.107287972078E-02  0.114376941198E-02  0.121934171003E-02
  0.129990573610E-02  0.138579099228E-02  0.147734870184E-02  0.157495323715E-02  0.167900364088E-02
  0.178992524659E-02  0.190817140508E-02  0.203422532324E-02  0.216860202276E-02  0.231185042623E-02
  0.246455557887E-02  0.262734101463E-02  0.280087127555E-02  0.298585459454E-02  0.318304575150E-02
  0.339324911408E-02  0.361732187443E-02  0.385617749442E-02  0.411078937220E-02  0.438219474407E-02
  0.467149883599E-02  0.497987928032E-02  0.530859081404E-02  0.565897027551E-02  0.603244191801E-02
  0.643052305913E-02  0.685483008604E-02  0.730708483795E-02  0.778912138782E-02  0.830289324675E-02
  0.885048101557E-02  0.943410050909E-02  0.100561113799E-01  0.107190262698E-01  0.114255205173E-01
  0.121784424525E-01  0.129808243101E-01  0.138358937924E-01  0.147470863169E-01  0.157180579824E-01
  0.167526992885E-01  0.178551496443E-01  0.190298127036E-01  0.202813725622E-01  0.216148108546E-01
  0.230354247857E-01  0.245488461348E-01  0.261610612647E-01  0.278784321700E-01  0.297077185953E-01
  0.316561012503E-01  0.337312061460E-01  0.359411300720E-01  0.382944672266E-01  0.408003370057E-01
  0.434684129491E-01  0.463089528278E-01  0.493328298494E-01  0.525515649374E-01  0.559773600286E-01
  0.596231323079E-01  0.635025492781E-01  0.676300645345E-01  0.720209540812E-01  0.766913529895E-01
  0.816582921564E-01  0.869397348716E-01  0.925546128468E-01  0.985228612961E-01  0.104865452585E+00
  0.111604427882E+00  0.118762926155E+00  0.126365209752E+00  0.134436685674E+00  0.143003921544E+00
  0.152094655088E+00  0.161737795815E+00  0.171963417370E+00  0.182802738848E+00  0.194288093122E+00
  0.206452879976E+00  0.219331501594E+00  0.232959277610E+00  0.247372336645E+00  0.262607480870E+00
  0.278702019780E+00  0.295693568951E+00  0.313619809142E+00  0.332518200646E+00  0.352425647368E+00
  0.373378104623E+00  0.395410124224E+00  0.418554329962E+00  0.442840816235E+00  0.468296462197E+00
  0.494944153563E+00  0.522801904106E+00  0.551881868856E+00  0.582189241297E+00  0.613721027370E+00
  0.646464689924E+00  0.680396658588E+00  0.715480701825E+00  0.751666160422E+00  0.788886044897E+00
  0.827055003481E+00  0.866067172572E+00  0.905793928086E+00  0.946081564102E+00  0.986748934795E+00
  0.102758510714E+01  0.106834708531E+01  0.110875768341E+01  0.114850364097E+01  0.118723409605E+01
  0.122455955285E+01  0.126005150534E+01  0.129324290393E+01  0.132362967839E+01  0.135067355616E+01
  0.137380643828E+01  0.139243661423E+01  0.140595710787E+01  0.141375644633E+01  0.141523212697E+01
  0.140980701762E+01  0.139694885658E+01  0.137619291130E+01  0.134716769950E+01  0.130962346431E+01
  0.126346281362E+01  0.120877257565E+01  0.114585547880E+01  0.107525973119E+01  0.997803957367E+00
  0.914594259031E+00  0.827029432428E+00  0.736789643721E+00  0.645803210017E+00  0.556185663179E+00
  0.470145131146E+00  0.389848445320E+00  0.317243506052E+00  0.253835586164E+00  0.200418727773E+00
  0.156770901622E+00  0.121636726743E+00  0.935894453694E-01  0.713875862082E-01  0.539657004485E-01
  0.404178355548E-01  0.299809051185E-01  0.220183639940E-01  0.160045058308E-01  0.115096245234E-01
  0.818621744465E-02  0.575635315633E-02  0.400027729330E-02  0.274628673328E-02  0.186186368210E-02
  0.124602838679E-02  0.822842279236E-03  0.535972868541E-03  0.344217695750E-03  0.217876823718E-03
  0.135861022795E-03  0.834251407203E-04  0.504221576308E-04  0.299821496076E-04  0.175308970101E-04
  0.100743290420E-04  0.568664140929E-05  0.315113064397E-05  0.171307756421E-05  0.913068712148E-06
  0.476813945833E-06  0.243784106641E-06  0.121942369105E-06  0.596306700054E-07  0.284849696915E-07
  0.132816146164E-07  0.603985046624E-08  0.267661505285E-08  0.115496002330E-08  0.484839755984E-09
  0.197833529739E-09  0.783939393057E-10  0.301401837878E-10  0.112325531106E-10  0.405374220406E-11
  0.141527670496E-11  0.477510029960E-12  0.155529531843E-12  0.488483628986E-13  0.147772973250E-13
  0.430062665686E-14  0.120261393422E-14  0.322720080892E-15
 pseudo wavefunction
  0.148511989937E-03  0.153341229327E-03  0.158327503530E-03  0.163475918928E-03  0.168791747948E-03
  0.174280434461E-03  0.179947599362E-03  0.185799046323E-03  0.191840767737E-03  0.198078950852E-03
  0.204519984112E-03  0.211170463699E-03  0.218037200282E-03  0.225127226000E-03  0.232447801657E-03
  0.240006424160E-03  0.247810834199E-03  0.255869024169E-03  0.264189246359E-03  0.272780021403E-03
  0.281650147002E-03  0.290808706937E-03  0.300265080372E-03  0.310028951457E-03  0.320110319246E-03
  0.330519507936E-03  0.341267177443E-03  0.352364334316E-03  0.363822343008E-03  0.375652937516E-03
  0.387868233397E-03  0.400480740176E-03  0.413503374154E-03  0.426949471640E-03  0.440832802605E-03
  0.455167584782E-03  0.469968498232E-03  0.485250700373E-03  0.501029841504E-03  0.517322080829E-03
  0.534144103012E-03  0.551513135257E-03  0.569446964953E-03  0.587963957890E-03  0.607083077064E-03
  0.626823902102E-03  0.647206649307E-03  0.668252192365E-03  0.689982083719E-03  0.712418576643E-03
  0.735584648028E-03  0.759504021914E-03  0.784201193783E-03  0.809701455647E-03  0.836030921946E-03
  0.863216556293E-03  0.891286199086E-03  0.920268596017E-03  0.950193427511E-03  0.981091339121E-03
  0.101299397291E-02  0.104593399985E-02  0.107994515329E-02  0.111506226348E-02  0.115132129328E-02
  0.118875937494E-02  0.122741484814E-02  0.126732729928E-02  0.130853760198E-02  0.135108795895E-02
  0.139502194522E-02  0.144038455274E-02  0.148722223648E-02  0.153558296196E-02  0.158551625442E-02
  0.163707324949E-02  0.169030674558E-02  0.174527125793E-02  0.180202307444E-02  0.186062031332E-02
  0.192112298258E-02  0.198359304150E-02  0.204809446406E-02  0.211469330444E-02  0.218345776468E-02
  0.225445826451E-02  0.232776751342E-02  0.240346058518E-02  0.248161499463E-02  0.256231077713E-02
  0.264563057042E-02  0.273165969930E-02  0.282048626299E-02  0.291220122528E-02  0.300689850770E-02
  0.310467508569E-02  0.320563108786E-02  0.330986989851E-02  0.341749826347E-02  0.352862639939E-02
  0.364336810657E-02  0.376184088546E-02  0.388416605693E-02  0.401046888648E-02  0.414087871245E-02
  0.427552907842E-02  0.441455786992E-02  0.455810745551E-02  0.470632483256E-02  0.485936177763E-02
  0.501737500185E-02  0.518052631128E-02  0.534898277249E-02  0.552291688349E-02  0.570250675029E-02
  0.588793626909E-02  0.607939531443E-02  0.627707993346E-02  0.648119254648E-02  0.669194215397E-02
  0.690954455041E-02  0.713422254495E-02  0.736620618927E-02  0.760573301283E-02  0.785304826572E-02
  0.810840516939E-02  0.837206517552E-02  0.864429823323E-02  0.892538306497E-02  0.921560745135E-02
  0.951526852511E-02  0.982467307470E-02  0.101441378576E-01  0.104739899238E-01  0.108145669497E-01
  0.111662175829E-01  0.115293017977E-01  0.119041912628E-01  0.122912697202E-01  0.126909333767E-01
  0.131035913076E-01  0.135296658740E-01  0.139695931526E-01  0.144238233806E-01  0.148928214136E-01
  0.153770671988E-01  0.158770562636E-01  0.163933002192E-01  0.169263272809E-01  0.174766828045E-01
  0.180449298403E-01  0.186316497045E-01  0.192374425688E-01  0.198629280687E-01  0.205087459311E-01
  0.211755566220E-01  0.218640420146E-01  0.225749060778E-01  0.233088755878E-01  0.240667008605E-01
  0.248491565080E-01  0.256570422182E-01  0.264911835592E-01  0.273524328077E-01  0.282416698043E-01
  0.291598028346E-01  0.301077695373E-01  0.310865378404E-01  0.320971069265E-01  0.331405082260E-01
  0.342178064419E-01  0.353301006050E-01  0.364785251598E-01  0.376642510843E-01  0.388884870416E-01
  0.401524805661E-01  0.414575192838E-01  0.428049321687E-01  0.441960908339E-01  0.456324108609E-01
  0.471153531653E-01  0.486464254009E-01  0.502271834021E-01  0.518592326657E-01  0.535442298727E-01
  0.552838844490E-01  0.570799601678E-01  0.589342767921E-01  0.608487117580E-01  0.628252018994E-01
  0.648657452131E-01  0.669724026647E-01  0.691473000357E-01  0.713926298089E-01  0.737106530945E-01
  0.761037015934E-01  0.785741795975E-01  0.811245660263E-01  0.837574164960E-01  0.864753654212E-01
  0.892811281448E-01  0.921775030945E-01  0.951673739611E-01  0.982537118964E-01  0.101439577724E+00
  0.104728124159E+00  0.108122598032E+00  0.111626342504E+00  0.115242799278E+00  0.118975510779E+00
  0.122828122317E+00  0.126804384192E+00  0.130908153762E+00  0.135143397434E+00  0.139514192570E+00
  0.144024729302E+00  0.148679312220E+00  0.153482361920E+00  0.158438416393E+00  0.163552132214E+00
  0.168828285524E+00  0.174271772745E+00  0.179887611021E+00  0.185680938322E+00  0.191657013184E+00
  0.197821214027E+00  0.204179038001E+00  0.210736099309E+00  0.217498126928E+00  0.224470961673E+00
  0.231660552521E+00  0.239072952105E+00  0.246714311299E+00  0.254590872779E+00  0.262708963460E+00
  0.271074985683E+00  0.279695407023E+00  0.288576748572E+00  0.297725571547E+00  0.307148462050E+00
  0.316852013801E+00  0.326842808634E+00  0.337127394563E+00  0.347712261166E+00  0.358603812051E+00
  0.369808334133E+00  0.381331963432E+00  0.393180647097E+00  0.405360101314E+00  0.417875764768E+00
  0.430732747276E+00  0.443935773219E+00  0.457489119360E+00  0.471396546619E+00  0.485661225381E+00
  0.500285653867E+00  0.515271569121E+00  0.530619850129E+00  0.546330412622E+00  0.562402095088E+00
  0.578832535563E+00  0.595618038769E+00  0.612753433249E+00  0.630231918160E+00  0.648044899489E+00
  0.666181815542E+00  0.684629951680E+00  0.703374244429E+00  0.722397075256E+00  0.741678054562E+00
  0.761193796660E+00  0.780917686866E+00  0.800819642149E+00  0.820865867252E+00  0.841018608652E+00
  0.861235909297E+00  0.881471367664E+00  0.901673905388E+00  0.921787548477E+00  0.941751227926E+00
  0.961498606464E+00  0.980957939053E+00  0.100005197574E+01  0.101869791634E+01  0.103680742736E+01
  0.105428673236E+01  0.107103678736E+01  0.108695355355E+01  0.110192837918E+01  0.111584850215E+01
  0.112859768342E+01  0.114005697941E+01  0.115010565825E+01  0.115862226035E+01  0.116548579747E+01
  0.117057707694E+01  0.117378012729E+01  0.117498368929E+01  0.117408272193E+01  0.117097985480E+01
  0.116558669914E+01  0.115782490764E+01  0.114762684963E+01  0.113493574516E+01  0.111970507906E+01
  0.110189709847E+01  0.108148018633E+01  0.105842490468E+01  0.103269851991E+01  0.100425786446E+01
  0.973040463670E+00  0.938951936762E+00  0.902058776822E+00  0.862765368793E+00  0.821523145341E+00
  0.778780363654E+00  0.734976457704E+00  0.690536809050E+00  0.645868009398E+00  0.601353660223E+00
  0.557350731228E+00  0.514186480637E+00  0.472155926362E+00  0.431519854863E+00  0.392503361166E+00
  0.355294929789E+00  0.320046084299E+00  0.286871645491E+00  0.255850636639E+00  0.227027852585E+00
  0.200416072713E+00  0.175998850794E+00  0.153733770182E+00  0.133556019771E+00  0.115382130141E+00
  0.991137116436E-01  0.846410536493E-01  0.718464725903E-01  0.606073304641E-01  0.507986808296E-01
  0.422955319263E-01  0.349747430607E-01  0.287165882710E-01  0.234060293326E-01  0.189337391377E-01
  0.151969089595E-01  0.120998628037E-01  0.955449259823E-02  0.748052187244E-02  0.580560374160E-02
  0.446526091809E-02  0.340267975035E-02  0.256837536045E-02  0.191974947388E-02  0.142056563876E-02
  0.104036783342E-02  0.753867969395E-03  0.540325782454E-03  0.382941468406E-03  0.268277602456E-03
  0.185722788088E-03  0.127005455179E-03  0.857625253647E-04
 ae wavefunction
  0.404846911485E-02  0.416930989184E-02  0.429372824662E-02  0.442182833693E-02  0.455371723900E-02
  0.468950502228E-02  0.482930482558E-02  0.497323293462E-02  0.512140886107E-02  0.527395542293E-02
  0.543099882636E-02  0.559266874879E-02  0.575909842347E-02  0.593042472521E-02  0.610678825743E-02
  0.628833344042E-02  0.647520860069E-02  0.666756606148E-02  0.686556223421E-02  0.706935771094E-02
  0.727911735763E-02  0.749501040818E-02  0.771721055908E-02  0.794589606470E-02  0.818124983282E-02
  0.842345952061E-02  0.867271763061E-02  0.892922160675E-02  0.919317393006E-02  0.946478221408E-02
  0.974425929957E-02  0.100318233484E-01  0.103276979365E-01  0.106321121450E-01  0.109453006504E-01
  0.112675038124E-01  0.115989677592E-01  0.119399444708E-01  0.122906918591E-01  0.126514738437E-01
  0.130225604256E-01  0.134042277546E-01  0.137967581929E-01  0.142004403737E-01  0.146155692521E-01
  0.150424461515E-01  0.154813788006E-01  0.159326813640E-01  0.163966744630E-01  0.168736851869E-01
  0.173640470938E-01  0.178681002004E-01  0.183861909582E-01  0.189186722171E-01  0.194659031737E-01
  0.200282493042E-01  0.206060822793E-01  0.211997798613E-01  0.218097257807E-01  0.224363095910E-01
  0.230799265010E-01  0.237409771812E-01  0.244198675440E-01  0.251170084949E-01  0.258328156531E-01
  0.265677090386E-01  0.273221127244E-01  0.280964544509E-01  0.288911651997E-01  0.297066787250E-01
  0.305434310382E-01  0.314018598445E-01  0.322824039273E-01  0.331855024766E-01  0.341115943593E-01
  0.350611173271E-01  0.360345071572E-01  0.370321967235E-01  0.380546149929E-01  0.391021859429E-01
  0.401753273949E-01  0.412744497603E-01  0.423999546922E-01  0.435522336393E-01  0.447316662954E-01
  0.459386189394E-01  0.471734426601E-01  0.484364714591E-01  0.497280202268E-01  0.510483825837E-01
  0.523978285808E-01  0.537766022533E-01  0.551849190192E-01  0.566229629164E-01  0.580908836710E-01
  0.595887935893E-01  0.611167642661E-01  0.626748231013E-01  0.642629496183E-01  0.658810715748E-01
  0.675290608604E-01  0.692067291720E-01  0.709138234599E-01  0.726500211383E-01  0.744149250518E-01
  0.762080581929E-01  0.780288581625E-01  0.798766713690E-01  0.817507469606E-01  0.836502304859E-01
  0.855741572796E-01  0.875214455706E-01  0.894908893107E-01  0.914811507244E-01  0.934907525795E-01
  0.955180701829E-01  0.975613231057E-01  0.996185666434E-01  0.101687683022E+00  0.103766372359E+00
  0.105852143398E+00  0.107942304030E+00  0.110033951622E+00  0.112123963187E+00  0.114208985408E+00
  0.116285424569E+00  0.118349436417E+00  0.120396915998E+00  0.122423487539E+00  0.124424494397E+00
  0.126394989172E+00  0.128329724032E+00  0.130223141339E+00  0.132069364657E+00  0.133862190247E+00
  0.135595079142E+00  0.137261149922E+00  0.138853172328E+00  0.140363561827E+00  0.141784375297E+00
  0.143107307996E+00  0.144323691961E+00  0.145424496067E+00  0.146400327903E+00  0.147241437714E+00
  0.147937724619E+00  0.148478745349E+00  0.148853725767E+00  0.149051575442E+00  0.149060905548E+00
  0.148870050396E+00  0.148467092907E+00  0.147839894334E+00  0.146976128575E+00  0.145863321403E+00
  0.144488894959E+00  0.142840217844E+00  0.140904661170E+00  0.138669660890E+00  0.136122786752E+00
  0.133251818194E+00  0.130044827477E+00  0.126490270338E+00  0.122577084411E+00  0.118294795618E+00
  0.113633632706E+00  0.108584650024E+00  0.103139858598E+00  0.972923654578E-01  0.910365211118E-01
  0.843680749406E-01  0.772843381846E-01  0.697843540667E-01  0.618690744498E-01  0.535415422718E-01
  0.448070788285E-01  0.356734747831E-01  0.261511835877E-01  0.162535157860E-01  0.599683246235E-02
 -0.459926410957E-02 -0.155117447607E-01 -0.267139749952E-01 -0.381755463485E-01 -0.498621202522E-01
 -0.617352873580E-01 -0.737524455819E-01 -0.858667005060E-01 -0.980267922154E-01 -0.110177053102E+00
 -0.122257401570E+00 -0.134203376882E+00 -0.145946220547E+00 -0.157413009649E+00 -0.168526847387E+00
 -0.179207115785E+00 -0.189369795173E+00 -0.198927854577E+00 -0.207791716695E+00 -0.215869800660E+00
 -0.223069145240E+00 -0.229296114445E+00 -0.234457186721E+00 -0.238459827941E+00 -0.241213447272E+00
 -0.242630433732E+00 -0.242627269827E+00 -0.241125717046E+00 -0.238054066280E+00 -0.233348444302E+00
 -0.226954165420E+00 -0.218827115259E+00 -0.208935151394E+00 -0.197259503235E+00 -0.183796151313E+00
 -0.168557163860E+00 -0.151571966462E+00 -0.132888518673E+00 -0.112574369784E+00 -0.907175646314E-01
 -0.674273694169E-01 -0.428347870798E-01 -0.170928321556E-01  0.962346358193E-02  0.371173405249E-01
  0.651709169703E-01  0.935461265671E-01  0.121985996913E+00  0.150216275117E+00  0.177947407181E+00
  0.204876884309E+00  0.230691977580E+00  0.255072884764E+00  0.277696299184E+00  0.298239378420E+00
  0.316384055081E+00  0.331821614172E+00  0.344257465781E+00  0.353416051752E+00  0.359045825663E+00
  0.360924235362E+00  0.358862624726E+00  0.352710963096E+00  0.342362308839E+00  0.327756915523E+00
  0.308885892390E+00  0.285794333290E+00  0.258583829830E+00  0.227414285659E+00  0.192504950513E+00
  0.154134596074E+00  0.112640761997E+00  0.684180110398E-01  0.219151480692E-01 -0.263686210310E-01
 -0.758885896199E-01 -0.126060484778E+00 -0.176267394065E+00 -0.225867635412E+00 -0.274203510310E+00
 -0.320610819969E+00 -0.364428837656E+00 -0.405010093215E+00 -0.441729054208E+00 -0.473989138053E+00
 -0.501228895018E+00 -0.522929850219E+00 -0.538627876707E+00 -0.547926301258E+00 -0.550506800912E+00
 -0.546136468553E+00 -0.534672082306E+00 -0.516062792686E+00 -0.490351608754E+00 -0.457675534566E+00
 -0.418264081946E+00 -0.372435987700E+00 -0.320594147927E+00 -0.263218942273E+00 -0.200860209677E+00
 -0.134128163075E+00 -0.636835184936E-01  0.977291111470E-02  0.855109345600E-01  0.162781815146E+00
  0.240829038084E+00  0.318898847250E+00  0.396250396046E+00  0.472165364685E+00  0.545956906042E+00
  0.616977796556E+00  0.684627689071E+00  0.748359391195E+00  0.807684111886E+00  0.862175621884E+00
  0.911473248704E+00  0.955283576899E+00  0.993380697079E+00  0.102560490969E+01  0.105186000955E+01
  0.107210962101E+01  0.108637334170E+01  0.109472344178E+01  0.109728247314E+01  0.109422157178E+01
  0.108575886133E+01  0.107215732413E+01  0.105372176661E+01  0.103079480115E+01  0.100375196886E+01
  0.972996216079E+00  0.938951936762E+00  0.902058776822E+00  0.862765368793E+00  0.821523145341E+00
  0.778780363654E+00  0.734976457704E+00  0.690536809050E+00  0.645868009398E+00  0.601353660223E+00
  0.557350731228E+00  0.514186480637E+00  0.472155926362E+00  0.431519854863E+00  0.392503361166E+00
  0.355294929789E+00  0.320046084299E+00  0.286871645491E+00  0.255850636639E+00  0.227027852585E+00
  0.200416072713E+00  0.175998850794E+00  0.153733770182E+00  0.133556019771E+00  0.115382130141E+00
  0.991137116436E-01  0.846410536493E-01  0.718464725903E-01  0.606073304641E-01  0.507986808296E-01
  0.422955319263E-01  0.349747430607E-01  0.287165882710E-01  0.234060293326E-01  0.189337391377E-01
  0.151969089595E-01  0.120998628037E-01  0.955449259823E-02  0.748052187244E-02  0.580560374160E-02
  0.446526091809E-02  0.340267975035E-02  0.256837536045E-02  0.191974947388E-02  0.142056563876E-02
  0.104036783342E-02  0.753867969395E-03  0.540325782454E-03  0.382941468406E-03  0.268277602456E-03
  0.185722788088E-03  0.127005455179E-03  0.857625253647E-04
 pseudo wavefunction
  0.160464492527E-03  0.165682397481E-03  0.171069975683E-03  0.176632744484E-03  0.182376400645E-03
  0.188306826171E-03  0.194430094335E-03  0.200752475900E-03  0.207280445534E-03  0.214020688448E-03
  0.220980107241E-03  0.228165828962E-03  0.235585212419E-03  0.243245855707E-03  0.251155603993E-03
  0.259322557550E-03  0.267755080048E-03  0.276461807128E-03  0.285451655236E-03  0.294733830760E-03
  0.304317839456E-03  0.314213496186E-03  0.324430934962E-03  0.334980619333E-03  0.345873353093E-03
  0.357120291349E-03  0.368732951947E-03  0.380723227260E-03  0.393103396372E-03  0.405886137654E-03
  0.419084541744E-03  0.432712124953E-03  0.446782843112E-03  0.461311105857E-03  0.476311791389E-03
  0.491800261712E-03  0.507792378362E-03  0.524304518652E-03  0.541353592444E-03  0.558957059466E-03
  0.577132947190E-03  0.595899869295E-03  0.615277044732E-03  0.635284317401E-03  0.655942176473E-03
  0.677271777377E-03  0.699294963459E-03  0.722034288357E-03  0.745513039092E-03  0.769755259920E-03
  0.794785776952E-03  0.820630223579E-03  0.847315066725E-03  0.874867633946E-03  0.903316141418E-03
  0.932689722833E-03  0.963018459232E-03  0.994333409813E-03  0.102666664373E-02  0.106005127295E-02
  0.109452148613E-02  0.113011258368E-02  0.116686101386E-02  0.120480441012E-02  0.124398162967E-02
  0.128443279323E-02  0.132619932613E-02  0.136932400075E-02  0.141385098028E-02  0.145982586401E-02
  0.150729573394E-02  0.155630920306E-02  0.160691646511E-02  0.165916934598E-02  0.171312135678E-02
  0.176882774862E-02  0.182634556923E-02  0.188573372133E-02  0.194705302298E-02  0.201036626984E-02
  0.207573829948E-02  0.214323605777E-02  0.221292866744E-02  0.228488749882E-02  0.235918624299E-02
  0.243590098718E-02  0.251511029268E-02  0.259689527533E-02  0.268133968853E-02  0.276853000900E-02
  0.285855552536E-02  0.295150842950E-02  0.304748391101E-02  0.314658025465E-02  0.324889894093E-02
  0.335454475006E-02  0.346362586919E-02  0.357625400320E-02  0.369254448904E-02  0.381261641383E-02
  0.393659273673E-02  0.406460041487E-02  0.419677053327E-02  0.433323843908E-02  0.447414388005E-02
  0.461963114765E-02  0.476984922471E-02  0.492495193795E-02  0.508509811540E-02  0.525045174895E-02
  0.542118216221E-02  0.559746418376E-02  0.577947832607E-02  0.596741097025E-02  0.616145455668E-02
  0.636180778201E-02  0.656867580238E-02  0.678227044330E-02  0.700281041641E-02  0.723052154314E-02
  0.746563698570E-02  0.770839748557E-02  0.795905160967E-02  0.821785600455E-02  0.848507565878E-02
  0.876098417392E-02  0.904586404412E-02  0.934000694494E-02  0.964371403141E-02  0.995729624574E-02
  0.102810746351E-01  0.106153806794E-01  0.109605566301E-01  0.113169558595E-01  0.116849432218E-01
  0.120648954251E-01  0.124572014163E-01  0.128622627779E-01  0.132804941374E-01  0.137123235903E-01
  0.141581931368E-01  0.146185591318E-01  0.150938927505E-01  0.155846804678E-01  0.160914245541E-01
  0.166146435863E-01  0.171548729753E-01  0.177126655108E-01  0.182885919233E-01  0.188832414635E-01
  0.194972225012E-01  0.201311631423E-01  0.207857118666E-01  0.214615381843E-01  0.221593333149E-01
  0.228798108864E-01  0.236237076577E-01  0.243917842626E-01  0.251848259782E-01  0.260036435172E-01
  0.268490738446E-01  0.277219810206E-01  0.286232570693E-01  0.295538228747E-01  0.305146291045E-01
  0.315066571620E-01  0.325309201681E-01  0.335884639727E-01  0.346803681974E-01  0.358077473097E-01
  0.369717517303E-01  0.381735689727E-01  0.394144248181E-01  0.406955845244E-01  0.420183540717E-01
  0.433840814438E-01  0.447941579476E-01  0.462500195705E-01  0.477531483768E-01  0.493050739435E-01
  0.509073748374E-01  0.525616801322E-01  0.542696709684E-01  0.560330821550E-01  0.578537038140E-01
  0.597333830689E-01  0.616740257763E-01  0.636775983021E-01  0.657461293417E-01  0.678817117847E-01
  0.700865046241E-01  0.723627349092E-01  0.747126997431E-01  0.771387683226E-01  0.796433840209E-01
  0.822290665123E-01  0.848984139364E-01  0.876541051011E-01  0.904989017229E-01  0.934356507006E-01
  0.964672864217E-01  0.995968330969E-01  0.102827407119E+00  0.106162219445E+00  0.109604577987E+00
  0.113157890023E+00  0.116825664604E+00  0.120611514959E+00  0.124519160888E+00  0.128552431136E+00
  0.132715265736E+00  0.137011718299E+00  0.141445958261E+00  0.146022273049E+00  0.150745070164E+00
  0.155618879152E+00  0.160648353455E+00  0.165838272106E+00  0.171193541254E+00  0.176719195480E+00
  0.182420398887E+00  0.188302445911E+00  0.194370761832E+00  0.200630902935E+00  0.207088556271E+00
  0.213749538978E+00  0.220619797093E+00  0.227705403798E+00  0.235012557042E+00  0.242547576441E+00
  0.250316899397E+00  0.258327076333E+00  0.266584764949E+00  0.275096723392E+00  0.283869802220E+00
  0.292910935035E+00  0.302227127639E+00  0.311825445571E+00  0.321712999849E+00  0.331896930741E+00
  0.342384389376E+00  0.353182516977E+00  0.364298421487E+00  0.375739151357E+00  0.387511666215E+00
  0.399622804146E+00  0.412079245275E+00  0.424887471326E+00  0.438053720829E+00  0.451583939588E+00
  0.465483726048E+00  0.479758271140E+00  0.494412292184E+00  0.509449960420E+00  0.524874821699E+00
  0.540689709869E+00  0.556896652394E+00  0.573496767712E+00  0.590490153881E+00  0.607875768039E+00
  0.625651296251E+00  0.643813013350E+00  0.662355632414E+00  0.681272143612E+00  0.700553642226E+00
  0.720189145773E+00  0.740165400297E+00  0.760466676082E+00  0.781074553239E+00  0.801967697879E+00
  0.823121629901E+00  0.844508483770E+00  0.866096764085E+00  0.887851098216E+00  0.909731988857E+00
  0.931695569951E+00  0.953693370173E+00  0.975672088924E+00  0.997573390662E+00  0.101933372433E+01
  0.104088417565E+01  0.106215036101E+01  0.108305237292E+01  0.110350478782E+01  0.112341674813E+01
  0.114269213132E+01  0.116122981929E+01  0.117892408179E+01  0.119566508736E+01  0.121133955469E+01
  0.122583155569E+01  0.123902347905E+01  0.125079715925E+01  0.126103517079E+01  0.126962227987E+01
  0.127644703683E+01  0.128140348026E+01  0.128439290928E+01  0.128532566252E+01  0.128412282159E+01
  0.128071773225E+01  0.127505721019E+01  0.126710226866E+01  0.125682817572E+01  0.124422361942E+01
  0.122928873412E+01  0.121203172269E+01  0.119246380397E+01  0.117059222697E+01  0.114641113259E+01
  0.111989011767E+01  0.109096226342E+01  0.105973063883E+01  0.102670740856E+01  0.992467204690E+00
  0.000000000000E+00  0.000000000000E+00  0.000000000000E+00  0.000000000000E+00  0.000000000000E+00
  0.000000000000E+00  0.000000000000E+00  0.000000000000E+00  0.000000000000E+00  0.000000000000E+00
  0.000000000000E+00  0.000000000000E+00  0.000000000000E+00  0.000000000000E+00  0.000000000000E+00
  0.000000000000E+00  0.000000000000E+00  0.000000000000E+00  0.000000000000E+00  0.000000000000E+00
  0.000000000000E+00  0.000000000000E+00  0.000000000000E+00  0.000000000000E+00  0.000000000000E+00
  0.000000000000E+00  0.000000000000E+00  0.000000000000E+00  0.000000000000E+00  0.000000000000E+00
  0.000000000000E+00  0.000000000000E+00  0.000000000000E+00  0.000000000000E+00  0.000000000000E+00
  0.000000000000E+00  0.000000000000E+00  0.000000000000E+00  0.000000000000E+00  0.000000000000E+00
  0.000000000000E+00  0.000000000000E+00  0.000000000000E+00  0.000000000000E+00  0.000000000000E+00
  0.000000000000E+00  0.000000000000E+00  0.000000000000E+00
 ae wavefunction
  0.440125385739E-02  0.453262473504E-02  0.466788494182E-02  0.480714771179E-02  0.495052945188E-02
  0.509814982304E-02  0.525013182301E-02  0.540660187073E-02  0.556768989216E-02  0.573352940772E-02
  0.590425762122E-02  0.608001551026E-02  0.626094791808E-02  0.644720364684E-02  0.663893555221E-02
  0.683630063933E-02  0.703946015997E-02  0.724857971087E-02  0.746382933325E-02  0.768538361324E-02
  0.791342178330E-02  0.814812782449E-02  0.838969056929E-02  0.863830380525E-02  0.889416637887E-02
  0.915748229987E-02  0.942846084558E-02  0.970731666531E-02  0.999426988443E-02  0.102895462081E-01
  0.105933770240E-01  0.109059995051E-01  0.112276567095E-01  0.115585976810E-01  0.118990775457E-01
  0.122493576086E-01  0.126097054456E-01  0.129803949946E-01  0.133617066419E-01  0.137539273057E-01
  0.141573505147E-01  0.145722764827E-01  0.149990121776E-01  0.154378713839E-01  0.158891747597E-01
  0.163532498858E-01  0.168304313070E-01  0.173210605644E-01  0.178254862185E-01  0.183440638616E-01
  0.188771561188E-01  0.194251326359E-01  0.199883700547E-01  0.205672519730E-01  0.211621688885E-01
  0.217735181252E-01  0.224017037420E-01  0.230471364201E-01  0.237102333287E-01  0.243914179678E-01
  0.250911199855E-01  0.258097749674E-01  0.265478241980E-01  0.273057143901E-01  0.280838973808E-01
  0.288828297916E-01  0.297029726504E-01  0.305447909720E-01  0.314087532950E-01  0.322953311721E-01
  0.332049986102E-01  0.341382314577E-01  0.350955067349E-01  0.360773019046E-01  0.370840940785E-01
  0.381163591557E-01  0.391745708890E-01  0.402591998753E-01  0.413707124639E-01  0.425095695800E-01
  0.436762254568E-01  0.448711262716E-01  0.460947086807E-01  0.473473982468E-01  0.486296077537E-01
  0.499417354013E-01  0.512841628764E-01  0.526572532897E-01  0.540613489757E-01  0.554967691456E-01
  0.569638073880E-01  0.584627290087E-01  0.599937682033E-01  0.615571250529E-01  0.631529623377E-01
  0.647814021576E-01  0.664425223538E-01  0.681363527225E-01  0.698628710113E-01  0.716219986927E-01
  0.734135965029E-01  0.752374597410E-01  0.770933133183E-01  0.789808065518E-01  0.808995076914E-01
  0.828488981778E-01  0.848283666199E-01  0.868372024890E-01  0.888745895220E-01  0.909395988298E-01
  0.930311817067E-01  0.951481621382E-01  0.972892290049E-01  0.994529279825E-01  0.101637653140E+00
  0.103841638238E+00  0.106062947732E+00  0.108299467488E+00  0.110548895227E+00  0.112808730691E+00
  0.115076265578E+00  0.117348573229E+00  0.119622498126E+00  0.121894645191E+00  0.124161368954E+00
  0.126418762599E+00  0.128662646943E+00  0.130888559394E+00  0.133091742939E+00  0.135267135229E+00
  0.137409357824E+00  0.139512705679E+00  0.141571136948E+00  0.143578263217E+00  0.145527340250E+00
  0.147411259375E+00  0.149222539637E+00  0.150953320844E+00  0.152595357667E+00  0.154140014950E+00
  0.155578264405E+00  0.156900682885E+00  0.158097452434E+00  0.159158362340E+00  0.160072813412E+00
  0.160829824738E+00  0.161418043192E+00  0.161825755952E+00  0.162040906343E+00  0.162051113297E+00
  0.161843694760E+00  0.161405695383E+00  0.160723918832E+00  0.159784965094E+00  0.158575273116E+00
  0.157081169177E+00  0.155288921346E+00  0.153184800408E+00  0.150755147626E+00  0.147986449700E+00
  0.144865421268E+00  0.141379095281E+00  0.137514921552E+00  0.133260873742E+00  0.128605565019E+00
  0.123538372568E+00  0.118049571057E+00  0.112130475124E+00  0.105773590838E+00  0.989727760106E-01
  0.917234091194E-01  0.840225664852E-01  0.758692072050E-01  0.672643651881E-01  0.582113474722E-01
  0.487159378085E-01  0.387866042979E-01  0.284347096471E-01  0.176747223832E-01  0.652442713878E-02
 -0.499486810785E-02 -0.168581301661E-01 -0.290364066749E-01 -0.414966427877E-01 -0.542015114516E-01
 -0.671092604942E-01 -0.801735800577E-01 -0.933434943385E-01 -0.106563282061E+00 -0.119772430614E+00
 -0.132905629210E+00 -0.145892806769E+00 -0.158659220384E+00 -0.171125600254E+00 -0.183208356797E+00
 -0.194819855341E+00 -0.205868763392E+00 -0.216260474970E+00 -0.225897616021E+00 -0.234680634368E+00
 -0.242508477088E+00 -0.249279357455E+00 -0.254891612731E+00 -0.259244653020E+00 -0.262240000197E+00
 -0.263782414527E+00 -0.263781105040E+00 -0.262151018002E+00 -0.258814195926E+00 -0.253701197496E+00
 -0.246752566567E+00 -0.237920336063E+00 -0.227169550158E+00 -0.214479785631E+00 -0.199846650793E+00
 -0.183283237982E+00 -0.164821503291E+00 -0.144513545156E+00 -0.122432751586E+00 -0.986747844066E-01
 -0.733583678625E-01 -0.466258485264E-01 -0.186434938123E-01  0.103985020663E-01  0.402863327534E-01
  0.707832381398E-01  0.101630523167E+00  0.132548947277E+00  0.163240490796E+00  0.193390505667E+00
  0.222670264725E+00  0.250739932804E+00  0.277251985456E+00  0.301855086053E+00  0.324198397090E+00
  0.343936262885E+00  0.360733181629E+00  0.374268989275E+00  0.384244188618E+00  0.390385357589E+00
  0.392450559910E+00  0.390234667552E+00  0.383574495541E+00  0.372353647505E+00  0.356506972579E+00
  0.336024537783E+00  0.310955022732E+00  0.281408445266E+00  0.247558127900E+00  0.209641816871E+00
  0.167961869308E+00  0.122884430919E+00  0.748375380928E-01  0.243080955543E-01 -0.281622961952E-01
 -0.819826623697E-01 -0.136519096905E+00 -0.191102281115E+00 -0.245036024332E+00 -0.297606761282E+00
 -0.348093875383E+00 -0.395780514714E+00 -0.439964200874E+00 -0.479966235468E+00 -0.515139288124E+00
 -0.544874077024E+00 -0.568607845901E+00 -0.585836675405E+00 -0.596129678489E+00 -0.599140795957E+00
 -0.594616427376E+00 -0.582400021086E+00 -0.562434943833E+00 -0.534766046096E+00 -0.499539762826E+00
 -0.457002452505E+00 -0.407496787975E+00 -0.351456212792E+00 -0.289397651058E+00 -0.221912755293E+00
 -0.149658005199E+00 -0.733439571615E-01  0.627608286735E-02  0.884177206493E-01  0.172277253071E+00
  0.257043370667E+00  0.341908603714E+00  0.426080343591E+00  0.508791279594E+00  0.589309102329E+00
  0.666945340631E+00  0.741063221348E+00  0.811084470619E+00  0.876494996390E+00  0.936849395473E+00
  0.991774201611E+00  0.104096973632E+01  0.108421039363E+01  0.112134325605E+01  0.115228517634E+01
  0.117701883808E+01  0.119558862334E+01  0.120809711714E+01  0.121470265732E+01  0.121561771860E+01
  0.121110750809E+01  0.120148809842E+01  0.118712370611E+01  0.116842304721E+01  0.114583492773E+01
  0.111984333003E+01  0.109096226342E+01  0.105973063883E+01  0.102670740856E+01  0.992467204690E+00
  0.000000000000E+00  0.000000000000E+00  0.000000000000E+00  0.000000000000E+00  0.000000000000E+00
  0.000000000000E+00  0.000000000000E+00  0.000000000000E+00  0.000000000000E+00  0.000000000000E+00
  0.000000000000E+00  0.000000000000E+00  0.000000000000E+00  0.000000000000E+00  0.000000000000E+00
  0.000000000000E+00  0.000000000000E+00  0.000000000000E+00  0.000000000000E+00  0.000000000000E+00
  0.000000000000E+00  0.000000000000E+00  0.000000000000E+00  0.000000000000E+00  0.000000000000E+00
  0.000000000000E+00  0.000000000000E+00  0.000000000000E+00  0.000000000000E+00  0.000000000000E+00
  0.000000000000E+00  0.000000000000E+00  0.000000000000E+00  0.000000000000E+00  0.000000000000E+00
  0.000000000000E+00  0.000000000000E+00  0.000000000000E+00  0.000000000000E+00  0.000000000000E+00
  0.000000000000E+00  0.000000000000E+00  0.000000000000E+00  0.000000000000E+00  0.000000000000E+00
  0.000000000000E+00  0.000000000000E+00  0.000000000000E+00
 pseudo wavefunction
  0.835100362373E-08  0.890294148304E-08  0.949135823912E-08  0.101186648697E-07  0.107874316999E-07
  0.115003989337E-07  0.122604878817E-07  0.130708129309E-07  0.139346943057E-07  0.148556716722E-07
  0.158375186410E-07  0.168842582304E-07  0.180001793489E-07  0.191898543697E-07  0.204581578650E-07
  0.218102865790E-07  0.232517807214E-07  0.247885466673E-07  0.264268811585E-07  0.281734971034E-07
  0.300355510829E-07  0.320206726729E-07  0.341369957067E-07  0.363931916018E-07  0.387985048906E-07
  0.413627910985E-07  0.440965571264E-07  0.470110043012E-07  0.501180742723E-07  0.534304979411E-07
  0.569618476248E-07  0.607265926674E-07  0.647401587263E-07  0.690189909773E-07  0.735806214972E-07
  0.784437410994E-07  0.836282759177E-07  0.891554690514E-07  0.950479676069E-07  0.101329915492E-06
  0.108027052341E-06  0.115166818984E-06  0.122778469880E-06  0.130893192984E-06  0.139544237536E-06
  0.148767050299E-06  0.158599420795E-06  0.169081636145E-06  0.180256646141E-06  0.192170239228E-06
  0.204871230116E-06  0.218411659795E-06  0.232847008768E-06  0.248236424370E-06  0.264642963126E-06
  0.282133849112E-06  0.300780749400E-06  0.320660067706E-06  0.341853257446E-06  0.364447155480E-06
  0.388534337916E-06  0.414213499433E-06  0.441589857668E-06  0.470775584330E-06  0.501890264817E-06
  0.535061388196E-06  0.570424869578E-06  0.608125607009E-06  0.648318075178E-06  0.691166958348E-06
  0.736847825137E-06  0.785547847882E-06  0.837466569555E-06  0.892816721362E-06  0.951825094380E-06
  0.101473346880E-05  0.108179960459E-05  0.115329829763E-05  0.122952250564E-05  0.131078454853E-05
  0.139741738810E-05  0.148977599226E-05  0.158823878951E-05  0.169320921942E-05  0.180511738572E-05
  0.192442181852E-05  0.205161135309E-05  0.218720713276E-05  0.233176474421E-05  0.248587649385E-05
  0.265017383472E-05  0.282532995369E-05  0.301206252974E-05  0.321113667446E-05  0.342336806691E-05
  0.364962629569E-05  0.389083842184E-05  0.414799277727E-05  0.442214301412E-05  0.471441242183E-05
  0.502599852952E-05  0.535817801244E-05  0.571231192277E-05  0.608985126607E-05  0.649234294624E-05
  0.692143610343E-05  0.737888887072E-05  0.786657557739E-05  0.838649442815E-05  0.894077568993E-05
  0.953169041961E-05  0.101616597686E-04  0.108332649022E-04  0.115492575746E-04  0.123125714025E-04
  0.131263338838E-04  0.139938792108E-04  0.149187619294E-04  0.159047715016E-04  0.169559478297E-04
  0.180765978069E-04  0.192713129610E-04  0.205449882639E-04  0.219028421846E-04  0.233504380659E-04
  0.248937069152E-04  0.265389716993E-04  0.282929732458E-04  0.301628978549E-04  0.321564067356E-04
  0.342816673866E-04  0.365473870504E-04  0.389628483772E-04  0.415379474448E-04  0.442832342897E-04
  0.472099561160E-04  0.503301033574E-04  0.536564587823E-04  0.572026498415E-04  0.609832044737E-04
  0.650136105952E-04  0.693103795192E-04  0.738911135621E-04  0.787745781135E-04  0.839807784653E-04
  0.895310417116E-04  0.954481040565E-04  0.101756203884E-03  0.108481180971E-03  0.115650582246E-03
  0.123293774535E-03  0.131442064733E-03  0.140128827915E-03  0.149389643897E-03  0.159262442796E-03
  0.169787660205E-03  0.181008402585E-03  0.192970623570E-03  0.205723311897E-03  0.219318691712E-03
  0.233812436087E-03  0.249263894599E-03  0.265736335899E-03  0.283297206259E-03  0.302018405144E-03
  0.321976578914E-03  0.343253433866E-03  0.365936069863E-03  0.390117335903E-03  0.415896209075E-03
  0.443378198415E-03  0.472675775288E-03  0.503908832055E-03  0.537205170822E-03  0.572701024286E-03
  0.610541610719E-03  0.650881725342E-03  0.693886370439E-03  0.739731426728E-03  0.788604368667E-03
  0.840705026526E-03  0.896246398263E-03  0.955455514411E-03  0.101857435938E-02  0.108586085284E-02
  0.115758989497E-02  0.123405447976E-02  0.131556688062E-02  0.140245991302E-02  0.149508827890E-02
  0.159382999821E-02  0.169908793301E-02  0.181129140994E-02  0.193089794731E-02  0.205839509337E-02
  0.219430238257E-02  0.233917341733E-02  0.249359808302E-02  0.265820490422E-02  0.283366355118E-02
  0.302068750535E-02  0.322003689393E-02  0.343252150328E-02  0.365900398218E-02  0.390040324598E-02
  0.415769809369E-02  0.443193105015E-02  0.472421244661E-02  0.503572475304E-02  0.536772717665E-02
  0.572156054133E-02  0.609865246349E-02  0.650052284049E-02  0.692878966815E-02  0.738517520471E-02
  0.787151249892E-02  0.838975230061E-02  0.894197037231E-02  0.953037522102E-02  0.101573162695E-01
  0.108252924863E-01  0.115369614947E-01  0.122951491786E-01  0.131028598058E-01  0.139632866862E-01
  0.148798233829E-01  0.158560754920E-01  0.168958730072E-01  0.180032832805E-01  0.191826245909E-01
  0.204384803279E-01  0.217757137925E-01  0.231994836171E-01  0.247152597958E-01  0.263288403141E-01
  0.280463683571E-01  0.298743500679E-01  0.318196728167E-01  0.338896239302E-01  0.360919098155E-01
  0.384346753996E-01  0.409265237844E-01  0.435765359976E-01  0.463942906981E-01  0.493898836641E-01
  0.525739468639E-01  0.559576668753E-01  0.595528023802E-01  0.633717004166E-01  0.674273110246E-01
  0.717331998675E-01  0.763035583486E-01  0.811532106813E-01  0.862976172947E-01  0.917528738803E-01
  0.975357052978E-01  0.103663453465E+00  0.110154058261E+00  0.117026030349E+00  0.124298414751E+00
  0.131990743830E+00  0.140122978274E+00  0.148715434511E+00  0.157788696887E+00  0.167363512796E+00
  0.177460668870E+00  0.188100846203E+00  0.199304452544E+00  0.211091429306E+00  0.223481031243E+00
  0.236491576680E+00  0.250140166255E+00  0.264442368328E+00  0.279411869437E+00  0.295060088591E+00
  0.311395754655E+00  0.328424446782E+00  0.346148098655E+00  0.364564468356E+00  0.383666576981E+00
  0.403442120585E+00  0.423872861885E+00  0.444934010187E+00  0.466593600310E+00  0.488811883910E+00
  0.511540749313E+00  0.534723188933E+00  0.558292836181E+00  0.582173596560E+00  0.606279399942E+00
  0.630514102619E+00  0.654771568283E+00  0.678935955922E+00  0.702882239383E+00  0.726476977076E+00
  0.749579340425E+00  0.772042395128E+00  0.793714609327E+00  0.814441536504E+00  0.834067587651E+00
  0.852437766707E+00  0.869399195632E+00  0.884802201888E+00  0.898500683867E+00  0.910351412888E+00
  0.920211879967E+00  0.927936260366E+00  0.933369060985E+00  0.936336050270E+00  0.936632166338E+00
  0.934006278355E+00  0.928139957137E+00  0.918838625607E+00  0.906231421489E+00  0.890512683812E+00
  0.871895841655E+00  0.850610737073E+00  0.826900907710E+00  0.801020858906E+00  0.773233359588E+00
  0.743806758003E+00  0.713012297791E+00  0.681121408045E+00  0.648402926026E+00  0.615120235818E+00
  0.581528328713E+00  0.547870850895E+00  0.514377207758E+00  0.481259969933E+00  0.448712623393E+00
  0.416907913900E+00  0.385996857973E+00  0.356108472681E+00  0.327350198566E+00  0.299808924934E+00
  0.273552477174E+00  0.248631396136E+00  0.225080830746E+00  0.202922376498E+00  0.182165722426E+00
  0.162810014784E+00  0.144844901491E+00  0.128251278886E+00  0.113001811335E+00  0.990613252593E-01
  0.863871873096E-01  0.749297625166E-01  0.646330185903E-01  0.554353060153E-01  0.472703086626E-01
  0.400681322468E-01  0.337564807465E-01  0.282618637788E-01  0.235107790513E-01  0.194308208866E-01
  0.159516759668E-01  0.130059788431E-01  0.105300109594E-01  0.846423701276E-02  0.675368094628E-02
  0.534815053614E-02  0.420232443908E-02  0.327571882933E-02
 ae wavefunction
 -0.102472886723E-04 -0.108350209532E-04 -0.114549459026E-04 -0.121089170593E-04 -0.127988910540E-04
 -0.135269336239E-04 -0.142952259713E-04 -0.151060714855E-04 -0.159619028504E-04 -0.168652895609E-04
 -0.178189458725E-04 -0.188257392101E-04 -0.198886990636E-04 -0.210110263989E-04 -0.221961036166E-04
 -0.234475050893E-04 -0.247690083146E-04 -0.261646057173E-04 -0.276385171441E-04 -0.291952030881E-04
 -0.308393786894E-04 -0.325760285572E-04 -0.344104224641E-04 -0.363481319608E-04 -0.383950479726E-04
 -0.405573994297E-04 -0.428417729977E-04 -0.452551339723E-04 -0.478048484075E-04 -0.504987065511E-04
 -0.533449476663E-04 -0.563522863198E-04 -0.595299402264E-04 -0.628876597410E-04 -0.664357590960E-04
 -0.701851494890E-04 -0.741473741292E-04 -0.783346453601E-04 -0.827598839801E-04 -0.874367608932E-04
 -0.923797412250E-04 -0.976041310528E-04 -0.103126126901E-03 -0.108962868167E-03 -0.115132492649E-03
 -0.121654195358E-03 -0.128548290806E-03 -0.135836278977E-03 -0.143540915188E-03 -0.151686284078E-03
 -0.160297877953E-03 -0.169402679745E-03 -0.179029250857E-03 -0.189207824160E-03 -0.199970402454E-03
 -0.211350862693E-03 -0.223385066313E-03 -0.236110975993E-03 -0.249568779234E-03 -0.263801019118E-03
 -0.278852732661E-03 -0.294771597181E-03 -0.311608085123E-03 -0.329415627796E-03 -0.348250788537E-03
 -0.368173445777E-03 -0.389246986581E-03 -0.411538511189E-03 -0.435119049171E-03 -0.460063787791E-03
 -0.486452313225E-03 -0.514368865300E-03 -0.543902606446E-03 -0.575147905590E-03 -0.608204637730E-03
 -0.643178499981E-03 -0.680181344908E-03 -0.719331531958E-03 -0.760754297891E-03 -0.804582147077E-03
 -0.850955262603E-03 -0.900021939122E-03 -0.951939038433E-03 -0.100687246878E-02 -0.106499768890E-02
 -0.112650023783E-02 -0.119157629163E-02 -0.126043324790E-02 -0.133329033941E-02 -0.141037927773E-02
 -0.149194492809E-02 -0.157824601642E-02 -0.166955586977E-02 -0.176616319108E-02 -0.186837286933E-02
 -0.197650682606E-02 -0.209090489923E-02 -0.221192576524E-02 -0.233994789987E-02 -0.247537057899E-02
 -0.261861491952E-02 -0.277012496106E-02 -0.293036878868E-02 -0.309983969690E-02 -0.327905739481E-02
 -0.346856925211E-02 -0.366895158552E-02 -0.388081098472E-02 -0.410478567670E-02 -0.434154692697E-02
 -0.459180047573E-02 -0.485628800666E-02 -0.513578864523E-02 -0.543112048335E-02 -0.574314212596E-02
 -0.607275425503E-02 -0.642090120514E-02 -0.678857254446E-02 -0.717680465363E-02 -0.758668229421E-02
 -0.801934015737E-02 -0.847596438196E-02 -0.895779403005E-02 -0.946612250666E-02 -0.100022989085E-01
 -0.105677292853E-01 -0.111638777952E-01 -0.117922677341E-01 -0.124544824157E-01 -0.131521658795E-01
 -0.138870233970E-01 -0.146608217494E-01 -0.154753892422E-01 -0.163326154240E-01 -0.172344504687E-01
 -0.181829041828E-01 -0.191800445911E-01 -0.202279960544E-01 -0.213289368665E-01 -0.224850962763E-01
 -0.236987508755E-01 -0.249722202889E-01 -0.263078621013E-01 -0.277080659487E-01 -0.291752467007E-01
 -0.307118366543E-01 -0.323202766560E-01 -0.340030060684E-01 -0.357624514884E-01 -0.376010141264E-01
 -0.395210557502E-01 -0.415248830954E-01 -0.436147306433E-01 -0.457927416646E-01 -0.480609474300E-01
 -0.504212444856E-01 -0.528753698970E-01 -0.554248743667E-01 -0.580710931358E-01 -0.608151145859E-01
 -0.636577464684E-01 -0.665994796964E-01 -0.696404496494E-01 -0.727803949560E-01 -0.760186137408E-01
 -0.793539173401E-01 -0.827845815214E-01 -0.863082952697E-01 -0.899221072365E-01 -0.936223699892E-01
 -0.974046822397E-01 -0.101263829283E+00 -0.105193721927E+00 -0.109187334256E+00 -0.113236640634E+00
 -0.117332552418E+00 -0.121464854931E+00 -0.125622145284E+00 -0.129791771748E+00 -0.133959775394E+00
 -0.138110834806E+00 -0.142228214714E+00 -0.146293719470E+00 -0.150287652370E+00 -0.154188781947E+00
 -0.157974316528E+00 -0.161619888579E+00 -0.165099550588E+00 -0.168385784499E+00 -0.171449526902E+00
 -0.174260212283E+00 -0.176785836685E+00 -0.178993044042E+00 -0.180847237286E+00 -0.182312716172E+00
 -0.183352843493E+00 -0.183930241165E+00 -0.184007017445E+00 -0.183545026410E+00 -0.182506160667E+00
 -0.180852678076E+00 -0.178547563033E+00 -0.175554922516E+00 -0.171840416678E+00 -0.167371723299E+00
 -0.162119034818E+00 -0.156055586058E+00 -0.149158210050E+00 -0.141407918538E+00 -0.132790502950E+00
 -0.123297150645E+00 -0.112925070295E+00 -0.101678119241E+00 -0.895674246198E-01 -0.766119890172E-01
 -0.628392704123E-01 -0.482857252075E-01 -0.329973022911E-01 -0.170298753255E-01 -0.449599867697E-03
  0.166668184694E-01  0.342319587042E-01  0.521476355857E-01  0.703049796907E-01  0.885846572880E-01
  0.106857238048E+00  0.124983715583E+00  0.142816183454E+00  0.160198669250E+00  0.176968132936E+00
  0.192955642526E+00  0.207987747176E+00  0.221888068867E+00  0.234479122186E+00  0.245584347937E+00
  0.255030323436E+00  0.262649105313E+00  0.268280669471E+00  0.271775423489E+00  0.272996768401E+00
  0.271823680045E+00  0.268153271706E+00  0.261903294668E+00  0.253014532437E+00  0.241453045800E+00
  0.227212227544E+00  0.210314626202E+00  0.190813497593E+00  0.168794041569E+00  0.144374279964E+00
  0.117705531011E+00  0.889724362548E-01  0.583924991795E-01  0.262151011312E-01 -0.728003019667E-02
 -0.417849123946E-01 -0.769659613172E-01 -0.112467199938E+00 -0.147914017768E+00 -0.182917473942E+00
 -0.217079101936E+00 -0.249996050157E+00 -0.281266155683E+00 -0.310492338788E+00 -0.337285915116E+00
 -0.361269394536E+00 -0.382080559367E+00 -0.399379300150E+00 -0.412856108162E+00 -0.422239455031E+00
 -0.427300826194E+00 -0.427858101823E+00 -0.423778169764E+00 -0.414979071622E+00 -0.401431580818E+00
 -0.383159989451E+00 -0.360241927524E+00 -0.332807157145E+00 -0.301035398200E+00 -0.265153310607E+00
 -0.225430782964E+00 -0.182176673381E+00 -0.135734133820E+00 -0.864756317171E-01 -0.347977671704E-01
  0.188840279451E-01  0.741408309009E-01  0.130535535278E+00  0.187628052496E+00  0.244980336902E+00
  0.302161166895E+00  0.358750621188E+00  0.414344200365E+00  0.468556552144E+00  0.521024757177E+00
  0.571411110866E+00  0.619405293616E+00  0.664725784916E+00  0.707120394952E+00  0.746365921372E+00
  0.782267188752E+00  0.814655980806E+00  0.843390443866E+00  0.868355317124E+00  0.889462932195E+00
  0.906654594178E+00  0.919901848210E+00  0.929207271663E+00  0.934604632130E+00  0.936158407424E+00
  0.933962745793E+00  0.928139957137E+00  0.918838625607E+00  0.906231421489E+00  0.890512683812E+00
  0.871895841655E+00  0.850610737073E+00  0.826900907710E+00  0.801020858906E+00  0.773233359588E+00
  0.743806758003E+00  0.713012297791E+00  0.681121408045E+00  0.648402926026E+00  0.615120235818E+00
  0.581528328713E+00  0.547870850895E+00  0.514377207758E+00  0.481259969933E+00  0.448712623393E+00
  0.416907913900E+00  0.385996857973E+00  0.356108472681E+00  0.327350198566E+00  0.299808924934E+00
  0.273552477174E+00  0.248631396136E+00  0.225080830746E+00  0.202922376498E+00  0.182165722426E+00
  0.162810014784E+00  0.144844901491E+00  0.128251278886E+00  0.113001811335E+00  0.990613252593E-01
  0.863871873096E-01  0.749297625166E-01  0.646330185903E-01  0.554353060153E-01  0.472703086626E-01
  0.400681322468E-01  0.337564807465E-01  0.282618637788E-01  0.235107790513E-01  0.194308208866E-01
  0.159516759668E-01  0.130059788431E-01  0.105300109594E-01  0.846423701276E-02  0.675368094628E-02
  0.534815053614E-02  0.420232443908E-02  0.327571882933E-02
 pseudo wavefunction
  0.123826107077E-07  0.132010071489E-07  0.140734933735E-07  0.150036443051E-07  0.159952711424E-07
  0.170524369753E-07  0.181794734333E-07  0.193809984334E-07  0.206619351019E-07  0.220275319463E-07
  0.234833843606E-07  0.250354575518E-07  0.266901109815E-07  0.284541244236E-07  0.303347257434E-07
  0.323396205131E-07  0.344770235846E-07  0.367556927490E-07  0.391849646208E-07  0.417747928938E-07
  0.445357891251E-07  0.474792662149E-07  0.506172847603E-07  0.539627024719E-07  0.575292268571E-07
  0.613314713853E-07  0.653850153650E-07  0.697064677783E-07  0.743135353348E-07  0.792250950226E-07
  0.844612714550E-07  0.900435193291E-07  0.959947113340E-07  0.102339231869E-06  0.109103076958E-06
  0.116313960761E-06  0.124001429136E-06  0.132196980695E-06  0.140934195870E-06  0.150248874500E-06
  0.160179182524E-06  0.170765808358E-06  0.182052129609E-06  0.194084390817E-06  0.206911892930E-06
  0.220587195313E-06  0.235166331104E-06  0.250709036803E-06  0.267278997038E-06  0.284944105500E-06
  0.303776743138E-06  0.323854074726E-06  0.345258365038E-06  0.368077315922E-06  0.392404425645E-06
  0.418339371993E-06  0.445988420688E-06  0.475464860803E-06  0.506889468948E-06  0.540391004138E-06
  0.576106735370E-06  0.614183004064E-06  0.654775823684E-06  0.698051518978E-06  0.744187407478E-06
  0.793372526038E-06  0.845808405383E-06  0.901709895861E-06  0.961306047765E-06  0.102484104983E-05
  0.109257522979E-05  0.116478612097E-05  0.124176959955E-05  0.132384109677E-05  0.141133689142E-05
  0.150461548769E-05  0.160405908409E-05  0.171007513943E-05  0.182309804235E-05  0.194359089116E-05
  0.207204739127E-05  0.220899387813E-05  0.235499147376E-05  0.251063838586E-05  0.267657235888E-05
  0.285347328705E-05  0.304206600013E-05  0.324312323326E-05  0.345746879308E-05  0.368598093314E-05
  0.392959595234E-05  0.418931203123E-05  0.446619332184E-05  0.476137430776E-05  0.507606445247E-05
  0.541155315479E-05  0.576921503188E-05  0.615051555136E-05  0.655701703563E-05  0.699038506310E-05
  0.745239529235E-05  0.794494073737E-05  0.847003952351E-05  0.902984315612E-05  0.962664533557E-05
  0.102628913548E-04  0.109411881179E-04  0.116643148209E-04  0.124352343385E-04  0.132571053626E-04
  0.141332953442E-04  0.150673942891E-04  0.160632294667E-04  0.171248810898E-04  0.182566990310E-04
  0.194633206434E-04  0.207496897594E-04  0.221210769443E-04  0.235831010891E-04  0.251417524290E-04
  0.268034170842E-04  0.285749032209E-04  0.304634689417E-04  0.324768520191E-04  0.346233015926E-04
  0.369116119609E-04  0.393511586064E-04  0.419519365998E-04  0.447246015421E-04  0.476805132112E-04
  0.508317820923E-04  0.541913189819E-04  0.577728878686E-04  0.615911623069E-04  0.656617855157E-04
  0.700014344449E-04  0.746278880751E-04  0.795601002274E-04  0.848182771816E-04  0.904239604217E-04
  0.964001148443E-04  0.102771222792E-03  0.109563384297E-03  0.116804423941E-03  0.124524004773E-03
  0.132753749745E-03  0.141527371166E-03  0.150880808697E-03  0.160852376462E-03  0.171482919856E-03
  0.182815982709E-03  0.194897985478E-03  0.207778415191E-03  0.221510027929E-03  0.236149064651E-03
  0.251755481265E-03  0.268393193863E-03  0.286130340121E-03  0.305039557940E-03  0.325198282439E-03
  0.346689062531E-03  0.369599898342E-03  0.394024600865E-03  0.420063175294E-03  0.447822229594E-03
  0.477415409965E-03  0.508963864960E-03  0.542596740130E-03  0.578451705202E-03  0.616675515911E-03
  0.657424612752E-03  0.700865759063E-03  0.747176721017E-03  0.796546992230E-03  0.849178565919E-03
  0.905286757687E-03  0.965101082235E-03  0.102886618750E-02  0.109684284992E-02  0.116930903489E-02
  0.124656102639E-02  0.132891463061E-02  0.141670645796E-02  0.151029528881E-02  0.161006352819E-02
  0.171641875519E-02  0.182979537311E-02  0.195065636688E-02  0.207949517442E-02  0.221683767940E-02
  0.236324433282E-02  0.251931241189E-02  0.268567842456E-02  0.286302066899E-02  0.305206195768E-02
  0.325357251643E-02  0.346837306907E-02  0.369733811939E-02  0.394139944240E-02  0.420154979775E-02
  0.447884687881E-02  0.477441751169E-02  0.508946211912E-02  0.542525946510E-02  0.578317169689E-02
  0.616464970177E-02  0.657123879690E-02  0.700458477143E-02  0.746644030095E-02  0.795867175526E-02
  0.848326642120E-02  0.904234016341E-02  0.963814554655E-02  0.102730804434E-01  0.109496971542E-01
  0.116707120631E-01  0.124390158587E-01  0.132576843451E-01  0.141299898729E-01  0.150594134161E-01
  0.160496573248E-01  0.171046587811E-01  0.182286039858E-01  0.194259431047E-01  0.207014059977E-01
  0.220600187592E-01  0.235071210902E-01  0.250483845229E-01  0.266898315165E-01  0.284378554367E-01
  0.302992414264E-01  0.322811881734E-01  0.343913305674E-01  0.366377632366E-01  0.390290649394E-01
  0.415743237782E-01  0.442831631875E-01  0.471657686316E-01  0.502329149313E-01  0.534959941151E-01
  0.569670436677E-01  0.606587750192E-01  0.645846020878E-01  0.687586696505E-01  0.731958812761E-01
  0.779119265068E-01  0.829233069227E-01  0.882473606615E-01  0.939022849025E-01  0.999071557438E-01
  0.106281944824E+00  0.113047531942E+00  0.120225712827E+00  0.127839201103E+00  0.135911623360E+00
  0.144467506118E+00  0.153532253311E+00  0.163132112781E+00  0.173294130078E+00  0.184046087708E+00
  0.195416427754E+00  0.207434155639E+00  0.220128722542E+00  0.233529883845E+00  0.247667530723E+00
  0.262571491835E+00  0.278271301905E+00  0.294795933782E+00  0.312173490521E+00  0.330430853894E+00
  0.349593285780E+00  0.369683978950E+00  0.390723553939E+00  0.412729499027E+00  0.435715550803E+00
  0.459691013480E+00  0.484660015960E+00  0.510620706840E+00  0.537564388958E+00  0.565474596840E+00
  0.594326122565E+00  0.624083998048E+00  0.654702444702E+00  0.686123804749E+00  0.718277472164E+00
  0.751078845285E+00  0.784428327380E+00  0.818210405796E+00  0.852292844519E+00  0.886526028710E+00
  0.920742502665E+00  0.954756744132E+00  0.988365217450E+00  0.102134674460E+01  0.105346322630E+01
  0.108446073346E+01  0.111407097189E+01  0.114201309863E+01  0.116799583612E+01  0.119171978962E+01
  0.121287982415E+01  0.123116729969E+01  0.124627190046E+01  0.125788272862E+01  0.126568827112E+01
  0.126937479961E+01  0.126862273966E+01  0.126310056385E+01  0.125245584377E+01  0.123630326409E+01
  0.121420968427E+01  0.118567870407E+01  0.115037724671E+01  0.110841653494E+01  0.105998822681E+01
  0.000000000000E+00  0.000000000000E+00  0.000000000000E+00  0.000000000000E+00  0.000000000000E+00
  0.000000000000E+00  0.000000000000E+00  0.000000000000E+00  0.000000000000E+00  0.000000000000E+00
  0.000000000000E+00  0.000000000000E+00  0.000000000000E+00  0.000000000000E+00  0.000000000000E+00
  0.000000000000E+00  0.000000000000E+00  0.000000000000E+00  0.000000000000E+00  0.000000000000E+00
  0.000000000000E+00  0.000000000000E+00  0.000000000000E+00  0.000000000000E+00  0.000000000000E+00
  0.000000000000E+00  0.000000000000E+00  0.000000000000E+00  0.000000000000E+00  0.000000000000E+00
  0.000000000000E+00  0.000000000000E+00  0.000000000000E+00  0.000000000000E+00  0.000000000000E+00
  0.000000000000E+00  0.000000000000E+00  0.000000000000E+00  0.000000000000E+00  0.000000000000E+00
  0.000000000000E+00  0.000000000000E+00  0.000000000000E+00  0.000000000000E+00  0.000000000000E+00
  0.000000000000E+00  0.000000000000E+00  0.000000000000E+00
 ae wavefunction
 -0.147604293229E-04 -0.156070124519E-04 -0.164999666397E-04 -0.174419617668E-04 -0.184358162090E-04
 -0.194845055021E-04 -0.205911715002E-04 -0.217591320584E-04 -0.229918912709E-04 -0.242931502974E-04
 -0.256668188142E-04 -0.271170271265E-04 -0.286481389814E-04 -0.302647651241E-04 -0.319717776425E-04
 -0.337743251457E-04 -0.356778488281E-04 -0.376880994711E-04 -0.398111554390E-04 -0.420534417291E-04
 -0.444217501384E-04 -0.469232606130E-04 -0.495655638550E-04 -0.523566852549E-04 -0.553051102377E-04
 -0.584198110981E-04 -0.617102754217E-04 -0.651865361812E-04 -0.688592036111E-04 -0.727394989644E-04
 -0.768392902660E-04 -0.811711301793E-04 -0.857482961136E-04 -0.905848327055E-04 -0.956955968136E-04
 -0.101096305179E-03 -0.106803584907E-03 -0.112835026939E-03 -0.119209242692E-03 -0.125945924051E-03
 -0.133065906918E-03 -0.140591238519E-03 -0.148545248702E-03 -0.156952625452E-03 -0.165839494869E-03
 -0.175233505892E-03 -0.185163920012E-03 -0.195661706301E-03 -0.206759642043E-03 -0.218492419306E-03
 -0.230896757794E-03 -0.244011524345E-03 -0.257877859459E-03 -0.272539311259E-03 -0.288041977313E-03
 -0.304434654766E-03 -0.321768999249E-03 -0.340099693078E-03 -0.359484623249E-03 -0.379985069791E-03
 -0.401665905052E-03 -0.424595804532E-03 -0.448847469888E-03 -0.474497864799E-03 -0.501628464381E-03
 -0.530325518889E-03 -0.560680332488E-03 -0.592789557886E-03 -0.626755507684E-03 -0.662686483313E-03
 -0.700697122497E-03 -0.740908766178E-03 -0.783449845925E-03 -0.828456292850E-03 -0.876071969135E-03
 -0.926449123263E-03 -0.979748870152E-03 -0.103614169738E-02 -0.109580799873E-02 -0.115893863644E-02
 -0.122573553328E-02 -0.129641229613E-02 -0.137119487214E-02 -0.145032223913E-02 -0.153404713167E-02
 -0.162263680419E-02 -0.171637383286E-02 -0.181555695760E-02 -0.192050196594E-02 -0.203154262009E-02
 -0.214903162904E-02 -0.227334166699E-02 -0.240486643985E-02 -0.254402180123E-02 -0.269124691937E-02
 -0.284700549656E-02 -0.301178704212E-02 -0.318610820058E-02 -0.337051413582E-02 -0.356557997250E-02
 -0.377191229536E-02 -0.399015070735E-02 -0.422096944685E-02 -0.446507906419E-02 -0.472322815758E-02
 -0.499620516789E-02 -0.528484023157E-02 -0.559000709050E-02 -0.591262505721E-02 -0.625366103317E-02
 -0.661413157742E-02 -0.699510502211E-02 -0.739770363073E-02 -0.782310579407E-02 -0.827254825797E-02
 -0.874732837591E-02 -0.924880637852E-02 -0.977840765063E-02 -0.103376250054E-01 -0.109280209435E-01
 -0.115512298834E-01 -0.122089603482E-01 -0.129029970906E-01 -0.136352031376E-01 -0.144075217331E-01
 -0.152219781544E-01 -0.160806813762E-01 -0.169858255523E-01 -0.179396912843E-01 -0.189446466387E-01
 -0.200031478777E-01 -0.211177398570E-01 -0.222910560474E-01 -0.235258181277E-01 -0.248248350955E-01
 -0.261910018349E-01 -0.276272970796E-01 -0.291367806994E-01 -0.307225902384E-01 -0.323879366238E-01
 -0.341360989613E-01 -0.359704183256E-01 -0.378942904511E-01 -0.399111572188E-01 -0.420244968339E-01
 -0.442378125784E-01 -0.465546200219E-01 -0.489784325647E-01 -0.515127451847E-01 -0.541610162547E-01
 -0.569266472911E-01 -0.598129604944E-01 -0.628231739370E-01 -0.659603742533E-01 -0.692274866881E-01
 -0.726272423576E-01 -0.761621425836E-01 -0.798344201640E-01 -0.836459974507E-01 -0.875984411149E-01
 -0.916929134934E-01 -0.959301204236E-01 -0.100310255495E+00 -0.104832940669E+00 -0.109497163240E+00
 -0.114301209157E+00 -0.119242592742E+00 -0.124317982909E+00 -0.129523126009E+00 -0.134852765512E+00
 -0.140300558771E+00 -0.145858991215E+00 -0.151519288360E+00 -0.157271326146E+00 -0.163103540172E+00
 -0.169002834524E+00 -0.174954490962E+00 -0.180942079345E+00 -0.186947370281E+00 -0.192950251049E+00
 -0.198928645942E+00 -0.204858442271E+00 -0.210713423340E+00 -0.216465209843E+00 -0.222083211315E+00
 -0.227534589488E+00 -0.232784235751E+00 -0.237794765243E+00 -0.242526530472E+00 -0.246937657640E+00
 -0.250984108998E+00 -0.254619774622E+00 -0.257796596843E+00 -0.260464730416E+00 -0.262572741162E+00
 -0.264067845553E+00 -0.264896193329E+00 -0.265003195017E+00 -0.264333895926E+00 -0.262833398061E+00
 -0.260447331071E+00 -0.257122373009E+00 -0.252806821227E+00 -0.247451213075E+00 -0.241008995414E+00
 -0.233437241124E+00 -0.224697409879E+00 -0.214756149433E+00 -0.203586132532E+00 -0.191166923349E+00
 -0.177485865966E+00 -0.162538986077E+00 -0.146331895551E+00 -0.128880688066E+00 -0.110212812467E+00
 -0.903679090910E-01 -0.693985929144E-01 -0.473711661198E-01 -0.243662416295E-01 -0.479258272805E-03
  0.241791323049E-01  0.494828270375E-01  0.752902007133E-01  0.101444221305E+00  0.127772766914E+00
  0.154089156012E+00  0.180192898231E+00  0.205870669541E+00  0.230897515660E+00  0.255038292698E+00
  0.278049363912E+00  0.299680581635E+00  0.319677584908E+00  0.337784426586E+00  0.353746509392E+00
  0.367313777424E+00  0.378244099518E+00  0.386306793577E+00  0.391286256278E+00  0.392985664925E+00
  0.391230708463E+00  0.385873292450E+00  0.376795155425E+00  0.363911332772E+00  0.347173406254E+00
  0.326572479668E+00  0.302141821826E+00  0.273959117126E+00  0.242148262003E+00  0.206880643398E+00
  0.168375834336E+00  0.126901642704E+00  0.827734539390E-01  0.363528174250E-01 -0.119547596013E-01
 -0.617028295381E-01 -0.112407835698E+00 -0.163553750172E+00 -0.214597511294E+00 -0.264975251326E+00
 -0.314109253962E+00 -0.361415402367E+00 -0.406310536595E+00 -0.448218838216E+00 -0.486576664439E+00
 -0.520836657906E+00 -0.550473719346E+00 -0.574994967697E+00 -0.593952090003E+00 -0.606952085733E+00
 -0.613664633455E+00 -0.613827083716E+00 -0.607248352064E+00 -0.593812143191E+00 -0.573479357705E+00
 -0.546289358591E+00 -0.512359842954E+00 -0.471885236815E+00 -0.425133694700E+00 -0.372442884155E+00
 -0.314214770429E+00 -0.250909610343E+00 -0.183039343271E+00 -0.111160541739E+00 -0.358670618523E-01
  0.422174833268E-01  0.122447316132E+00  0.204162046902E+00  0.286694083895E+00  0.369375798962E+00
  0.451546352111E+00  0.532558087721E+00  0.611782431201E+00  0.688615226705E+00  0.762481453858E+00
  0.832839230546E+00  0.899182947412E+00  0.961045329293E+00  0.101799825102E+01  0.106965233459E+01
  0.111565571719E+01  0.115569273553E+01  0.118948335279E+01  0.121678381343E+01  0.123738840792E+01
  0.125113175944E+01  0.125789090308E+01  0.125758663555E+01  0.125018390561E+01  0.123569123788E+01
  0.121415929579E+01  0.118567870407E+01  0.115037724671E+01  0.110841653494E+01  0.105998822681E+01
  0.000000000000E+00  0.000000000000E+00  0.000000000000E+00  0.000000000000E+00  0.000000000000E+00
  0.000000000000E+00  0.000000000000E+00  0.000000000000E+00  0.000000000000E+00  0.000000000000E+00
  0.000000000000E+00  0.000000000000E+00  0.000000000000E+00  0.000000000000E+00  0.000000000000E+00
  0.000000000000E+00  0.000000000000E+00  0.000000000000E+00  0.000000000000E+00  0.000000000000E+00
  0.000000000000E+00  0.000000000000E+00  0.000000000000E+00  0.000000000000E+00  0.000000000000E+00
  0.000000000000E+00  0.000000000000E+00  0.000000000000E+00  0.000000000000E+00  0.000000000000E+00
  0.000000000000E+00  0.000000000000E+00  0.000000000000E+00  0.000000000000E+00  0.000000000000E+00
  0.000000000000E+00  0.000000000000E+00  0.000000000000E+00  0.000000000000E+00  0.000000000000E+00
  0.000000000000E+00  0.000000000000E+00  0.000000000000E+00  0.000000000000E+00  0.000000000000E+00
  0.000000000000E+00  0.000000000000E+00  0.000000000000E+00
 pseudo wavefunction
  0.177267236747E-12  0.195128517616E-12  0.214789484431E-12  0.236431471862E-12  0.260254085695E-12
  0.286477043805E-12  0.315342202634E-12  0.347115787857E-12  0.382090849794E-12  0.420589966245E-12
  0.462968217645E-12  0.509616462004E-12  0.560964939816E-12  0.617487242208E-12  0.679704678906E-12
  0.748191086314E-12  0.823578120059E-12  0.906561080795E-12  0.997905327024E-12  0.109845333405E-11
  0.120913246421E-11  0.133096351999E-11  0.146507015899E-11  0.161268925751E-11  0.177518231832E-11
  0.195404802798E-11  0.215093607926E-11  0.236766238647E-11  0.260622583375E-11  0.286882671090E-11
  0.315788700693E-11  0.347607274814E-11  0.382631858719E-11  0.421185486959E-11  0.463623742748E-11
  0.510338037528E-11  0.561759220998E-11  0.618361554869E-11  0.680667087020E-11  0.749250466388E-11
  0.824744243004E-11  0.907844702050E-11  0.999318285755E-11  0.110000866236E-10  0.121084450732E-10
  0.133284806858E-10  0.146714459483E-10  0.161497271379E-10  0.177769585613E-10  0.195681483057E-10
  0.215398166589E-10  0.237101484779E-10  0.260991609088E-10  0.287288880071E-10  0.316235839592E-10
  0.348099467812E-10  0.383173645563E-10  0.421781864842E-10  0.464280212402E-10  0.511060653970E-10
  0.562554649379E-10  0.619237131961E-10  0.681630888895E-10  0.750311382920E-10  0.825912059874E-10
  0.909130191023E-10  0.100073330405E-09  0.110156626203E-09  0.121255905569E-09  0.133473538077E-09
  0.146922207966E-09  0.161725953441E-09  0.178021310682E-09  0.195958573135E-09  0.215703177679E-09
  0.237437230466E-09  0.261361186503E-09  0.287695698467E-09  0.316683651805E-09  0.348592404891E-09
  0.383716254894E-09  0.422379152115E-09  0.464937687805E-09  0.511784383048E-09  0.563351309016E-09
  0.620114072012E-09  0.682596200028E-09  0.751373971305E-09  0.827081729401E-09  0.910417733817E-09
  0.100215060012E-08  0.110312638895E-08  0.121427640937E-08  0.133662580840E-08  0.147130302610E-08
  0.161955020328E-08  0.178273463792E-08  0.196236139596E-08  0.216008719269E-08  0.237773567284E-08
  0.261731423034E-08  0.288103252277E-08  0.317132285132E-08  0.349086259433E-08  0.384259890108E-08
  0.422977587384E-08  0.465596448876E-08  0.512509553154E-08  0.564149585177E-08  0.620992827021E-08
  0.683563550716E-08  0.752438853711E-08  0.828253981552E-08  0.911708186887E-08  0.100357117882E-07
  0.110469022211E-07  0.121599795170E-07  0.133852097462E-07  0.147338933864E-07  0.162184695503E-07
  0.178526307147E-07  0.196514490102E-07  0.216315152361E-07  0.238110918829E-07  0.262102815727E-07
  0.288512124733E-07  0.317582423942E-07  0.349581834485E-07  0.384805493513E-07  0.423578276379E-07
  0.466257793110E-07  0.513237686814E-07  0.564951264449E-07  0.621875493444E-07  0.684535401039E-07
  0.753508916919E-07  0.829432203827E-07  0.913005525314E-07  0.100499970476E-06  0.110626323525E-06
  0.121773010591E-06  0.134042841684E-06  0.147548986220E-06  0.162416016892E-06  0.178781058721E-06
  0.196795053913E-06  0.216624154158E-06  0.238451253255E-06  0.262477674164E-06  0.288925026080E-06
  0.318037248650E-06  0.350082862197E-06  0.385357444711E-06  0.424186358475E-06  0.466927751463E-06
  0.513975861235E-06  0.565764651798E-06  0.622771816997E-06  0.685523187397E-06  0.754597581314E-06
  0.830632144771E-06  0.914328229680E-06  0.100645786449E-05  0.110787087705E-05  0.121950273541E-05
  0.134238317903E-05  0.147764571996E-05  0.162653810184E-05  0.179043381321E-05  0.197084476153E-05
  0.216943522492E-05  0.238803721045E-05  0.262866736092E-05  0.289354556632E-05  0.318511545182E-05
  0.350606693175E-05  0.385936103790E-05  0.424825725165E-05  0.467634359260E-05  0.514756974189E-05
  0.566628350641E-05  0.623727096129E-05  0.686580064180E-05  0.755767219368E-05  0.831926993200E-05
  0.915762180427E-05  0.100804643037E-04  0.110963139338E-04  0.122145458859E-04  0.134454806591E-04
  0.148004794251E-04  0.162920490213E-04  0.179339575482E-04  0.197413616399E-04  0.217309465922E-04
  0.239210806475E-04  0.263319848697E-04  0.289859201884E-04  0.319073933501E-04  0.351233836936E-04
  0.386635928590E-04  0.425607197553E-04  0.468507633512E-04  0.515733561079E-04  0.567721311698E-04
  0.624951267380E-04  0.687952314064E-04  0.757306746262E-04  0.833655668876E-04  0.917704946814E-04
  0.101023175819E-03  0.111209181262E-03  0.122422730250E-03  0.134767566195E-03  0.148357921613E-03
  0.163319581175E-03  0.179791052930E-03  0.197924858772E-03  0.217888956383E-03  0.239868306127E-03
  0.264066597804E-03  0.290708153697E-03  0.320040026050E-03  0.352334309039E-03  0.387890687358E-03
  0.427039245885E-03  0.470143567430E-03  0.517604148440E-03  0.569862165640E-03  0.627403630105E-03
  0.690763969071E-03  0.760533080117E-03  0.837360907024E-03  0.921963591898E-03  0.101513026395E-02
  0.111773053174E-02  0.123072275293E-02  0.135516316330E-02  0.149221595589E-02  0.164316441049E-02
  0.180942318491E-02  0.199255189095E-02  0.219427009175E-02  0.241647387161E-02  0.266125414565E-02
  0.293091689486E-02  0.322800553204E-02  0.355532562608E-02  0.391597223646E-02  0.431336013697E-02
  0.475125723704E-02  0.523382154201E-02  0.576564202937E-02  0.635178385761E-02  0.699783836722E-02
  0.770997838057E-02  0.849501935831E-02  0.936048702553E-02  0.103146921404E-01  0.113668131418E-01
  0.125269874813E-01  0.138064125153E-01  0.152174569093E-01  0.167737835834E-01  0.184904853063E-01
  0.203842341228E-01  0.224734458750E-01  0.247784611465E-01  0.273217440156E-01  0.301281000509E-01
  0.332249149995E-01  0.366424156146E-01  0.404139540192E-01  0.445763169038E-01  0.491700606883E-01
  0.542398735292E-01  0.598349646941E-01  0.660094813384E-01  0.728229520717E-01  0.803407558611E-01
  0.886346137496E-01  0.977830995269E-01  0.107872163835E+00  0.118995664179E+00  0.131255890878E+00
  0.144764076150E+00  0.159640870118E+00  0.176016763711E+00  0.194032434002E+00  0.213838982694E+00
  0.235598033130E+00  0.259481645647E+00  0.285672005338E+00  0.314360830747E+00  0.345748447046E+00
  0.380042463250E+00  0.417455990822E+00  0.458205341259E+00  0.502507143914E+00  0.550574833491E+00
  0.602614470275E+00  0.658819876507E+00  0.719367099994E+00  0.784408251618E+00  0.854064806601E+00
  0.928420508667E+00  0.100751406890E+01  0.109133190203E+01  0.117980118469E+01  0.127278354259E+01
  0.137006966297E+01  0.147137742353E+01  0.157664611941E+01  0.168639728726E+01  0.180131120941E+01
  0.000000000000E+00  0.000000000000E+00  0.000000000000E+00  0.000000000000E+00  0.000000000000E+00
  0.000000000000E+00  0.000000000000E+00  0.000000000000E+00  0.000000000000E+00  0.000000000000E+00
  0.000000000000E+00  0.000000000000E+00  0.000000000000E+00  0.000000000000E+00  0.000000000000E+00
  0.000000000000E+00  0.000000000000E+00  0.000000000000E+00  0.000000000000E+00  0.000000000000E+00
  0.000000000000E+00  0.000000000000E+00  0.000000000000E+00  0.000000000000E+00  0.000000000000E+00
  0.000000000000E+00  0.000000000000E+00  0.000000000000E+00  0.000000000000E+00  0.000000000000E+00
  0.000000000000E+00  0.000000000000E+00  0.000000000000E+00  0.000000000000E+00  0.000000000000E+00
  0.000000000000E+00  0.000000000000E+00  0.000000000000E+00  0.000000000000E+00  0.000000000000E+00
  0.000000000000E+00  0.000000000000E+00  0.000000000000E+00  0.000000000000E+00  0.000000000000E+00
  0.000000000000E+00  0.000000000000E+00  0.000000000000E+00
 ae wavefunction
  0.535557091688E-08  0.584615313731E-08  0.637852560588E-08  0.695650990188E-08  0.758425806966E-08
  0.826628296352E-08  0.900749126720E-08  0.981321943545E-08  0.106892728289E-07  0.116419683367E-07
  0.126781808101E-07  0.138053936577E-07  0.150317539870E-07  0.163661327108E-07  0.178181900761E-07
  0.193984471160E-07  0.211183635701E-07  0.229904228701E-07  0.250282248424E-07  0.272465868402E-07
  0.296616540841E-07  0.322910200596E-07  0.351538579081E-07  0.382710638173E-07  0.416654135360E-07
  0.453617332175E-07  0.493870859270E-07  0.537709752659E-07  0.585455677009E-07  0.637459353370E-07
  0.694103210381E-07  0.755804279733E-07  0.823017358654E-07  0.896238464322E-07  0.976008607428E-07
  0.106291791472E-06  0.115761013312E-06  0.126078755111E-06  0.137321637645E-06  0.149573261296E-06
  0.162924848318E-06  0.177475944804E-06  0.193335187967E-06  0.210621144862E-06  0.229463229270E-06
  0.250002704090E-06  0.272393777285E-06  0.296804800196E-06  0.323419577861E-06  0.352438801893E-06
  0.384081617488E-06  0.418587337191E-06  0.456217315294E-06  0.497256998004E-06  0.542018166008E-06
  0.590841387576E-06  0.644098702118E-06  0.702196555950E-06  0.765579014125E-06  0.834731274405E-06
  0.910183511934E-06  0.992515085885E-06  0.108235914228E-05  0.118040765041E-05  0.128741691390E-05
  0.140421360116E-05  0.153170134434E-05  0.167086796055E-05  0.182279335389E-05  0.198865816276E-05
  0.216975322259E-05  0.236748992093E-05  0.258341152899E-05  0.281920560157E-05  0.307671754584E-05
  0.335796546909E-05  0.366515642535E-05  0.400070419242E-05  0.436724872277E-05  0.476767742515E-05
  0.520514844821E-05  0.568311615343E-05  0.620535898171E-05  0.677600993681E-05  0.739958992947E-05
  0.808104424819E-05  0.882578244692E-05  0.963972196661E-05  0.105293358361E-04  0.115017048290E-04
  0.125645744880E-04  0.137264174643E-04  0.149965016595E-04  0.163849647031E-04  0.179028953445E-04
  0.195624223888E-04  0.213768118647E-04  0.233605731707E-04  0.255295750111E-04  0.279011720074E-04
  0.304943429431E-04  0.333298416869E-04  0.364303619264E-04  0.398207169430E-04  0.435280357630E-04
  0.475819771314E-04  0.520149628805E-04  0.568624323912E-04  0.621631199907E-04  0.679593572794E-04
  0.742974025429E-04  0.812277995817E-04  0.888057684757E-04  0.970916310030E-04  0.106151273648E-03
  0.116056651359E-03  0.126886335465E-03  0.138726109418E-03  0.151669616304E-03  0.165819062360E-03
  0.181285981049E-03  0.198192062567E-03  0.216670054014E-03  0.236864735803E-03  0.258933980313E-03
  0.283049899130E-03  0.309400085698E-03  0.338188960608E-03  0.369639227210E-03  0.403993445724E-03
  0.441515734465E-03  0.482493607348E-03  0.527239957286E-03  0.576095195644E-03  0.629429558386E-03
  0.687645590092E-03  0.751180817488E-03  0.820510624623E-03  0.896151342294E-03  0.978663564722E-03
  0.106865570687E-02  0.116678781616E-02  0.127377565246E-02  0.139039505065E-02  0.151748657985E-02
  0.165596051347E-02  0.180680212419E-02  0.197107731733E-02  0.214993861572E-02  0.234463150834E-02
  0.255650117392E-02  0.278699958949E-02  0.303769303186E-02  0.331026997852E-02  0.360654941129E-02
  0.392848952375E-02  0.427819682947E-02  0.465793566433E-02  0.507013807132E-02  0.551741405083E-02
  0.600256215314E-02  0.652858038289E-02  0.709867737711E-02  0.771628380947E-02  0.838506396345E-02
  0.910892740557E-02  0.989204067778E-02  0.107388389141E-01  0.116540372718E-01  0.126426420508E-01
  0.137099613577E-01  0.148616151508E-01  0.161035444830E-01  0.174420197374E-01  0.188836476255E-01
  0.204353766956E-01  0.221045010695E-01  0.238986620988E-01  0.258258475984E-01  0.278943882798E-01
  0.301129509663E-01  0.324905281283E-01  0.350364232263E-01  0.377602313005E-01  0.406718142025E-01
  0.437812698293E-01  0.470988947065E-01  0.506351392785E-01  0.544005552905E-01  0.584057346962E-01
  0.626612395692E-01  0.671775225412E-01  0.719648373171E-01  0.770331388354E-01  0.823919726511E-01
  0.880503531126E-01  0.940166299146E-01  0.100298342634E+00  0.106902062923E+00  0.113833224164E+00
  0.121095938520E+00  0.128692801546E+00  0.136624684697E+00  0.144890516309E+00  0.153487051911E+00
  0.162408634977E+00  0.171646949572E+00  0.181190766697E+00  0.191025686496E+00  0.201133878916E+00
  0.211493825809E+00  0.222080067890E+00  0.232862960401E+00  0.243808441736E+00  0.254877819686E+00
  0.266027580327E+00  0.277209224893E+00  0.288369140281E+00  0.299448509020E+00  0.310383264636E+00
  0.321104098268E+00  0.331536521905E+00  0.341600992648E+00  0.351213100680E+00  0.360283821198E+00
  0.368719828083E+00  0.376423865638E+00  0.383295176381E+00  0.389229988971E+00  0.394122080834E+00
  0.397863441913E+00  0.400345073198E+00  0.401457947599E+00  0.401094136232E+00  0.399148068479E+00
  0.395517872648E+00  0.390106751761E+00  0.382824375213E+00  0.373588286893E+00  0.362325332185E+00
  0.348973096488E+00  0.333481337924E+00  0.315813392628E+00  0.295947532014E+00  0.273878254148E+00
  0.249617493161E+00  0.223195730212E+00  0.194662987235E+00  0.164089681222E+00  0.131567313011E+00
  0.972089612218E-01  0.611495499733E-01  0.235458591162E-01 -0.154237513525E-01 -0.555599253746E-01
 -0.966432190962E-01 -0.138435344127E+00 -0.180680758538E+00 -0.223108628582E+00 -0.265435190316E+00
 -0.307366500747E+00 -0.348601411819E+00 -0.388834295863E+00 -0.427756778333E+00 -0.465058000549E+00
 -0.500424206679E+00 -0.533540096848E+00 -0.564094053576E+00 -0.591785950498E+00 -0.616333933315E+00
 -0.637478529579E+00 -0.654985045120E+00 -0.668645509801E+00 -0.678280660905E+00 -0.683741884974E+00
 -0.684912828488E+00 -0.681710402222E+00 -0.674085030926E+00 -0.662020139554E+00 -0.645530959372E+00
 -0.624662775909E+00 -0.599488740379E+00 -0.570107351098E+00 -0.536639690199E+00 -0.499226480967E+00
 -0.458025014780E+00 -0.413205983051E+00 -0.364950242706E+00 -0.313445539145E+00 -0.258883212625E+00
 -0.201454915966E+00 -0.141349372843E+00 -0.787492042471E-01 -0.138278433941E-01  0.532534455006E-01
  0.122348422328E+00  0.193328547577E+00  0.266085373587E+00  0.340532496809E+00  0.416606938865E+00
  0.494269972877E+00  0.573507668106E+00  0.654331656650E+00  0.736780660310E+00  0.820923101616E+00
  0.906860813465E+00  0.994733629777E+00  0.108472460955E+01  0.117706574281E+01  0.127204411776E+01
  0.137000863647E+01  0.147137742353E+01  0.157664611941E+01  0.168639728726E+01  0.180131120941E+01
  0.000000000000E+00  0.000000000000E+00  0.000000000000E+00  0.000000000000E+00  0.000000000000E+00
  0.000000000000E+00  0.000000000000E+00  0.000000000000E+00  0.000000000000E+00  0.000000000000E+00
  0.000000000000E+00  0.000000000000E+00  0.000000000000E+00  0.000000000000E+00  0.000000000000E+00
  0.000000000000E+00  0.000000000000E+00  0.000000000000E+00  0.000000000000E+00  0.000000000000E+00
  0.000000000000E+00  0.000000000000E+00  0.000000000000E+00  0.000000000000E+00  0.000000000000E+00
  0.000000000000E+00  0.000000000000E+00  0.000000000000E+00  0.000000000000E+00  0.000000000000E+00
  0.000000000000E+00  0.000000000000E+00  0.000000000000E+00  0.000000000000E+00  0.000000000000E+00
  0.000000000000E+00  0.000000000000E+00  0.000000000000E+00  0.000000000000E+00  0.000000000000E+00
  0.000000000000E+00  0.000000000000E+00  0.000000000000E+00  0.000000000000E+00  0.000000000000E+00
  0.000000000000E+00  0.000000000000E+00  0.000000000000E+00
 End of Dataset
