Tellurium                               
   1.00000000000000     
     4.3140763933016801    0.0000000000000000   -0.0000000000000000
    -2.1570381966508401    3.7360997504875071    0.0000000000000000
     0.0000000000000000   -0.0000000000000000    5.9673016339508083
   Te
     3
Direct
  0.2862415542723701 -0.0000000000000000  0.3333333429999996
  0.0000000000000004  0.2862415542723709  0.6666666870000029
  0.7137584757276321  0.7137584757276317 -0.0000000000000000
 
  0.00000000E+00  0.00000000E+00  0.00000000E+00
  0.00000000E+00  0.00000000E+00  0.00000000E+00
  0.00000000E+00  0.00000000E+00  0.00000000E+00
