 vasp.5.4.4.18Apr17-6-g9f103f2a35 (build Feb 10 2022 16:34:21) complex          
  
 executed on         VASP-optcell date 2026.03.17  17:08:40
 running on    4 total cores
 distrk:  each k-point on    4 cores,    1 groups
 distr:  one band on NCORES_PER_BAND=   2 cores,    2 groups


--------------------------------------------------------------------------------------------------------


 INCAR:
 POTCAR:    PAW_PBE Te 08Apr2002                  
 POTCAR:    PAW_PBE Te 08Apr2002                  
   VRHFIN =Te: s2p4                                                             
   LEXCH  = PE                                                                  
   EATOM  =   223.2721 eV,   16.4100 Ry                                         
                                                                                
   TITEL  = PAW_PBE Te 08Apr2002                                                
   LULTRA =        F    use ultrasoft PP ?                                      
   IUNSCR =        1    unscreen: 0-lin 1-nonlin 2-no                           
   RPACOR =    2.200    partial core radius                                     
   POMASS =  127.600; ZVAL   =    6.000    mass and valenz                      
   RCORE  =    2.300    outmost cutoff radius                                   
   RWIGS  =    2.900; RWIGS  =    1.535    wigner-seitz radius (au A)           
   ENMAX  =  174.982; ENMIN  =  131.236 eV                                      
   ICORE  =        3    local potential                                         
   LCOR   =        T    correct aug charges                                     
   LPAW   =        T    paw PP                                                  
   EAUG   =  368.792                                                            
   DEXC   =    0.000                                                            
   RMAX   =    2.345    core radius for proj-oper                               
   RAUG   =    1.300    factor for augmentation sphere                          
   RDEP   =    2.397    radius for radial grids                                 
   RDEPT  =    2.174    core radius for aug-charge                              
                                                                                
   Atomic configuration                                                         
   13 entries                                                                   
     n  l   j            E        occ.                                          
     1  0  0.50    -31621.2075   2.0000                                         
     2  0  0.50     -4848.7941   2.0000                                         
     2  1  1.50     -4352.1960   6.0000                                         
     3  0  0.50      -964.9612   2.0000                                         
     3  1  1.50      -803.6179   6.0000                                         
     3  2  2.50      -559.8710  10.0000                                         
     4  0  0.50      -164.3522   2.0000                                         
     4  1  1.50      -114.3756   6.0000                                         
     4  2  2.50       -41.6483  10.0000                                         
     5  0  0.50       -15.1072   2.0000                                         
     5  1  0.50        -5.9526   4.0000                                         
     5  2  1.50        -5.4423   0.0000                                         
     4  3  2.50        -5.4423   0.0000                                         
   Description                                                                  
     l       E           TYP  RCUT    TYP  RCUT                                 
     0    -15.1072389     23  2.300                                             
     0    -16.4678215     23  2.300                                             
     1     -5.9526306     23  2.300                                             
     1     -2.4873968     23  2.300                                             
     2     -5.4423304     23  2.300                                             
     3     -1.3605826     23  2.300                                             
  local pseudopotential read in
  partial core-charges read in
  partial kinetic energy density read in
  atomic valenz-charges read in
  non local Contribution for L=           0  read in
    real space projection operators read in
  non local Contribution for L=           0  read in
    real space projection operators read in
  non local Contribution for L=           1  read in
    real space projection operators read in
  non local Contribution for L=           1  read in
    real space projection operators read in
  non local Contribution for L=           2  read in
    real space projection operators read in
    PAW grid and wavefunctions read in
 
   number of l-projection  operators is LMAX  =           5
   number of lm-projection operators is LMMAX =          13
 
  PAW_PBE Te 08Apr2002                  :
 energy of atom  1       EATOM= -223.2721
 kinetic energy error for atom=    0.0007 (will be added to EATOM!!)
 
 
 POSCAR: Tellurium                               
  positions in direct lattice
  No initial velocities read in
 exchange correlation table for  LEXCH =        8
   RHO(1)=    0.500       N(1)  =     2000
   RHO(2)=  100.500       N(2)  =     4000
 


--------------------------------------------------------------------------------------------------------


 ion  position               nearest neighbor table
   1  0.262  0.000  0.333-   3 2.83   2 2.83   2 3.50   2 3.50   3 3.50   3 3.50
   2  0.000  0.262  0.667-   3 2.83   1 2.83   3 3.50   3 3.50   1 3.50   1 3.50
   3  0.738  0.738  0.000-   2 2.83   1 2.83   2 3.50   2 3.50   1 3.50   1 3.50
 
  LATTYP: Found a hexagonal cell.
 ALAT       =     4.4593000412
 C/A-ratio  =     1.3294014113
  
  Lattice vectors:
  
 A1 = (   4.4593000412,   0.0000000000,   0.0000000000)
 A2 = (  -2.2296500206,   3.8618671188,   0.0000000000)
 A3 = (   0.0000000000,   0.0000000000,   5.9281997681)


Analysis of symmetry for initial positions (statically):
=====================================================================
 Subroutine PRICEL returns:
 Original cell was already a primitive cell.
 

 Routine SETGRP: Setting up the symmetry group for a 
 hexagonal supercell.


 Subroutine GETGRP returns: Found  6 space group operations
 (whereof  2 operations were pure point group operations)
 out of a pool of 24 trial point group operations.


The static configuration has the point symmetry C_2 .
 The point group associated with its full space group is D_3 .


Analysis of symmetry for dynamics (positions and initial velocities):
=====================================================================
 Subroutine PRICEL returns:
 Original cell was already a primitive cell.
 

 Routine SETGRP: Setting up the symmetry group for a 
 hexagonal supercell.


 Subroutine GETGRP returns: Found  6 space group operations
 (whereof  2 operations were pure point group operations)
 out of a pool of 24 trial point group operations.


The dynamic configuration has the point symmetry C_2 .
 The point group associated with its full space group is D_3 .


 Subroutine INISYM returns: Found  6 space group operations
 (whereof  2 operations are pure point group operations),
 and found     1 'primitive' translations

 
 
 KPOINTS: K-Spacing Value to Generate K-Mesh: 0.04

Automatic generation of k-mesh.
Space group operators:
 irot       det(A)        alpha          n_x          n_y          n_z        tau_x        tau_y        tau_z
    1     1.000000     0.000000     1.000000     0.000000     0.000000     0.000000     0.000000     0.000000
    2     1.000000   180.000000    -0.500000    -0.866025     0.000000     0.000000     0.000000     0.000000
    3     1.000000   120.000000     0.000000     0.000000    -1.000000     0.000000     0.000000     0.333333
    4     1.000000   120.000000     0.000000     0.000000     1.000000     0.000000     0.000000     0.666667
    5     1.000000   180.000000     1.000000     0.000000     0.000000     0.000000     0.000000     0.666667
    6     1.000000   180.000000     0.500000    -0.866025     0.000000     0.000000     0.000000     0.333333
 
 Subroutine IBZKPT returns following result:
 ===========================================
 
 Found     43 irreducible k-points:
 
 Following reciprocal coordinates:
            Coordinates               Weight
  0.000000  0.000000  0.000000      1.000000
  0.111111  0.000000  0.000000      6.000000
  0.222222  0.000000  0.000000      6.000000
  0.333333 -0.000000  0.000000      6.000000
  0.444444  0.000000  0.000000      6.000000
  0.111111  0.111111  0.000000      6.000000
  0.222222  0.111111  0.000000     12.000000
  0.333333  0.111111  0.000000     12.000000
  0.444444  0.111111  0.000000      6.000000
  0.222222  0.222222  0.000000      6.000000
  0.333333  0.222222  0.000000     12.000000
  0.333333  0.333333  0.000000      2.000000
  0.000000  0.000000  0.250000      2.000000
  0.111111  0.000000  0.250000      6.000000
  0.222222  0.000000  0.250000      6.000000
  0.333333 -0.000000  0.250000      6.000000
  0.444444  0.000000  0.250000      6.000000
 -0.444444 -0.000000  0.250000      6.000000
 -0.333333  0.000000  0.250000      6.000000
 -0.222222 -0.000000  0.250000      6.000000
 -0.111111 -0.000000  0.250000      6.000000
  0.111111  0.111111  0.250000     12.000000
  0.222222  0.111111  0.250000     12.000000
  0.333333  0.111111  0.250000     12.000000
  0.444444  0.111111  0.250000     12.000000
 -0.444444  0.111111  0.250000     12.000000
 -0.333333  0.111111  0.250000     12.000000
  0.222222  0.222222  0.250000     12.000000
  0.333333  0.222222  0.250000     12.000000
  0.444444  0.222222  0.250000     12.000000
  0.333333  0.333333  0.250000      4.000000
  0.000000  0.000000  0.500000      1.000000
  0.111111  0.000000  0.500000      6.000000
  0.222222  0.000000  0.500000      6.000000
  0.333333 -0.000000  0.500000      6.000000
  0.444444  0.000000  0.500000      6.000000
  0.111111  0.111111  0.500000      6.000000
  0.222222  0.111111  0.500000     12.000000
  0.333333  0.111111  0.500000     12.000000
  0.444444  0.111111  0.500000      6.000000
  0.222222  0.222222  0.500000      6.000000
  0.333333  0.222222  0.500000     12.000000
  0.333333  0.333333  0.500000      2.000000
 
 Following cartesian coordinates:
            Coordinates               Weight
  0.000000  0.000000  0.000000      1.000000
  0.024917  0.014386  0.000000      6.000000
  0.049833  0.028771  0.000000      6.000000
  0.074750  0.043157  0.000000      6.000000
  0.099667  0.057543  0.000000      6.000000
  0.024917  0.043157  0.000000      6.000000
  0.049833  0.057543  0.000000     12.000000
  0.074750  0.071928  0.000000     12.000000
  0.099667  0.086314  0.000000      6.000000
  0.049833  0.086314  0.000000      6.000000
  0.074750  0.100700  0.000000     12.000000
  0.074750  0.129471  0.000000      2.000000
  0.000000  0.000000  0.042171      2.000000
  0.024917  0.014386  0.042171      6.000000
  0.049833  0.028771  0.042171      6.000000
  0.074750  0.043157  0.042171      6.000000
  0.099667  0.057543  0.042171      6.000000
 -0.099667 -0.057543  0.042171      6.000000
 -0.074750 -0.043157  0.042171      6.000000
 -0.049833 -0.028771  0.042171      6.000000
 -0.024917 -0.014386  0.042171      6.000000
  0.024917  0.043157  0.042171     12.000000
  0.049833  0.057543  0.042171     12.000000
  0.074750  0.071928  0.042171     12.000000
  0.099667  0.086314  0.042171     12.000000
 -0.099667 -0.028771  0.042171     12.000000
 -0.074750 -0.014386  0.042171     12.000000
  0.049833  0.086314  0.042171     12.000000
  0.074750  0.100700  0.042171     12.000000
  0.099667  0.115085  0.042171     12.000000
  0.074750  0.129471  0.042171      4.000000
  0.000000  0.000000  0.084343      1.000000
  0.024917  0.014386  0.084343      6.000000
  0.049833  0.028771  0.084343      6.000000
  0.074750  0.043157  0.084343      6.000000
  0.099667  0.057543  0.084343      6.000000
  0.024917  0.043157  0.084343      6.000000
  0.049833  0.057543  0.084343     12.000000
  0.074750  0.071928  0.084343     12.000000
  0.099667  0.086314  0.084343      6.000000
  0.049833  0.086314  0.084343      6.000000
  0.074750  0.100700  0.084343     12.000000
  0.074750  0.129471  0.084343      2.000000
 


--------------------------------------------------------------------------------------------------------




 Dimension of arrays:
   k-points           NKPTS =     43   k-points in BZ     NKDIM =     43   number of bands    NBANDS=     14
   number of dos      NEDOS =    301   number of ions     NIONS =      3
   non local maximal  LDIM  =      5   non local SUM 2l+1 LMDIM =     13
   total plane-waves  NPLWV =  28224
   max r-space proj   IRMAX =      1   max aug-charges    IRDMAX=  16277
   dimension x,y,z NGX =    28 NGY =   28 NGZ =   36
   dimension x,y,z NGXF=    56 NGYF=   56 NGZF=   72
   support grid    NGXF=    56 NGYF=   56 NGZF=   72
   ions per type =               3
   NGX,Y,Z   is equivalent  to a cutoff of  10.44, 10.44, 10.10 a.u.
   NGXF,Y,Z  is equivalent  to a cutoff of  20.88, 20.88, 20.19 a.u.

 SYSTEM =  unknown system                          
 POSCAR =  Tellurium                               

 Startparameter for this run:
   NWRITE =      2    write-flag & timer
   PREC   = n         normal or accurate (medium, high low for compatibility)
   ISTART =      0    job   : 0-new  1-cont  2-samecut
   ICHARG =      2    charge: 1-file 2-atom 10-const
   ISPIN  =      1    spin polarized calculation?
   LNONCOLLINEAR =      F non collinear calculations
   LSORBIT =      F    spin-orbit coupling
   INIWAV =      1    electr: 0-lowe 1-rand  2-diag
   LASPH  =      F    aspherical Exc in radial PAW
   METAGGA=      F    non-selfconsistent MetaGGA calc.

 Electronic Relaxation 1
   ENCUT  =  520.0 eV  38.22 Ry    6.18 a.u.   8.29  8.29 11.02*2*pi/ulx,y,z
   ENINI  =  520.0     initial cutoff
   ENAUG  =  368.8 eV  augmentation charge cutoff
   NELM   =     80;   NELMIN=  2; NELMDL= -5     # of ELM steps 
   EDIFF  = 0.1E-04   stopping-criterion for ELM
   LREAL  =      F    real-space projection
   NLSPLINE    = F    spline interpolate recip. space projectors
   LCOMPAT=      F    compatible to vasp.4.4
   GGA_COMPAT  = T    GGA compatible to vasp.4.4-vasp.4.6
   LMAXPAW     = -100 max onsite density
   LMAXMIX     =    2 max onsite mixed and CHGCAR
   VOSKOWN=      0    Vosko Wilk Nusair interpolation
   ROPT   =    0.00000
 Ionic relaxation
   EDIFFG = -.1E-01   stopping-criterion for IOM
   NSW    =    100    number of steps for IOM
   NBLOCK =      1;   KBLOCK =    100    inner block; outer block 
   IBRION =      2    ionic relax: 0-MD 1-quasi-New 2-CG
   NFREE  =      1    steps in history (QN), initial steepest desc. (CG)
   ISIF   =      3    stress and relaxation
   IWAVPR =     11    prediction:  0-non 1-charg 2-wave 3-comb
   ISYM   =      2    0-nonsym 1-usesym 2-fastsym
   LCORR  =      T    Harris-Foulkes like correction to forces

   POTIM  = 0.5000    time-step for ionic-motion
   TEIN   =    0.0    initial temperature
   TEBEG  =    0.0;   TEEND  =   0.0 temperature during run
   SMASS  =  -3.00    Nose mass-parameter (am)
   estimated Nose-frequenzy (Omega)   =  0.10E-29 period in steps =****** mass=  -0.454E-27a.u.
   SCALEE = 1.0000    scale energy and forces
   NPACO  =    256;   APACO  = 16.0  distance and # of slots for P.C.
   PSTRESS=    0.0 pullay stress

  Mass of Ions in am
   POMASS = 127.60
  Ionic Valenz
   ZVAL   =   6.00
  Atomic Wigner-Seitz radii
   RWIGS  =  -1.00
  virtual crystal weights 
   VCA    =   1.00
   NELECT =      18.0000    total number of electrons
   NUPDOWN=      -1.0000    fix difference up-down

 DOS related values:
   EMIN   =  10.00;   EMAX   =-10.00  energy-range for DOS
   EFERMI =   0.00
   ISMEAR =     0;   SIGMA  =   0.05  broadening in eV -4-tet -1-fermi 0-gaus

 Electronic relaxation 2 (details)
   IALGO  =     38    algorithm
   LDIAG  =      T    sub-space diagonalisation (order eigenvalues)
   LSUBROT=      F    optimize rotation matrix (better conditioning)
   TURBO    =      0    0=normal 1=particle mesh
   IRESTART =      0    0=no restart 2=restart with 2 vectors
   NREBOOT  =      0    no. of reboots
   NMIN     =      0    reboot dimension
   EREF     =   0.00    reference energy to select bands
   IMIX   =      4    mixing-type and parameters
     AMIX     =   0.40;   BMIX     =  1.00
     AMIX_MAG =   1.60;   BMIX_MAG =  1.00
     AMIN     =   0.10
     WC   =   100.;   INIMIX=   1;  MIXPRE=   1;  MAXMIX= -45

 Intra band minimization:
   WEIMIN = 0.0010     energy-eigenvalue tresh-hold
   EBREAK =  0.18E-06  absolut break condition
   DEPER  =   0.30     relativ break condition  

   TIME   =   0.40     timestep for ELM

  volume/ion in A,a.u.               =      34.03       229.65
  Fermi-wavevector in a.u.,A,eV,Ry     =   0.917987  1.734745 11.465641  0.842701
  Thomas-Fermi vector in A             =   2.043018
 
 Write flags
   LWAVE        =      T    write WAVECAR
   LDOWNSAMPLE  =      F    k-point downsampling of WAVECAR
   LCHARG       =      T    write CHGCAR
   LVTOT        =      F    write LOCPOT, total local potential
   LVHAR        =      F    write LOCPOT, Hartree potential only
   LELF         =      F    write electronic localiz. function (ELF)
   LORBIT       =      0    0 simple, 1 ext, 2 COOP (PROOUT), +10 PAW based schemes


 Dipole corrections
   LMONO  =      F    monopole corrections only (constant potential shift)
   LDIPOL =      F    correct potential (dipole corrections)
   IDIPOL =      0    1-x, 2-y, 3-z, 4-all directions 
   EPSILON=  1.0000000 bulk dielectric constant

 Exchange correlation treatment:
   GGA     =    --    GGA type
   LEXCH   =     8    internal setting for exchange type
   VOSKOWN=      0    Vosko Wilk Nusair interpolation
   LHFCALC =     F    Hartree Fock is set to
   LHFONE  =     F    Hartree Fock one center treatment
   AEXX    =    0.0000 exact exchange contribution

 Linear response parameters
   LEPSILON=     F    determine dielectric tensor
   LRPA    =     F    only Hartree local field effects (RPA)
   LNABLA  =     F    use nabla operator in PAW spheres
   LVEL    =     F    velocity operator in full k-point grid
   LINTERFAST=   F  fast interpolation
   KINTER  =     0    interpolate to denser k-point grid
   CSHIFT  =0.1000    complex shift for real part using Kramers Kronig
   OMEGAMAX=  -1.0    maximum frequency
   DEG_THRESHOLD= 0.2000000E-02 threshold for treating states as degnerate
   RTIME   =   -0.100 relaxation time in fs
  (WPLASMAI=    0.000 imaginary part of plasma frequency in eV, 0.658/RTIME)
   DFIELD  = 0.0000000 0.0000000 0.0000000 field for delta impulse in time
 
 Orbital magnetization related:
   ORBITALMAG=     F  switch on orbital magnetization
   LCHIMAG   =     F  perturbation theory with respect to B field
   DQ        =  0.001000  dq finite difference perturbation B field
   LLRAUG    =     F  two centre corrections for induced B field



--------------------------------------------------------------------------------------------------------


 conjugate gradient relaxation of ions
 charge density and potential will be updated during run
 non-spin polarized calculation
 Variant of blocked Davidson
 Davidson routine will perform the subspace rotation
 perform sub-space diagonalisation
    after iterative eigenvector-optimisation
 modified Broyden-mixing scheme, WC =      100.0
 initial mixing is a Kerker type mixing with AMIX =  0.4000 and BMIX =      1.0000
 Hartree-type preconditioning will be used
 using additional bands            5
 reciprocal scheme for non local part
 use partial core corrections
 calculate Harris-corrections to forces 
   (improved forces if not selfconsistent)
 use gradient corrections 
 use of overlap-Matrix (Vanderbilt PP)
 Gauss-broadening in eV      SIGMA  =   0.05


--------------------------------------------------------------------------------------------------------


  energy-cutoff  :      520.00
  volume of cell :      102.09
      direct lattice vectors                 reciprocal lattice vectors
     4.459300041  0.000000000  0.000000000     0.224250441  0.129471052  0.000000000
    -2.229650021  3.861867119  0.000000000     0.000000000  0.258942105  0.000000000
     0.000000000  0.000000000  5.928199768     0.000000000  0.000000000  0.168685274

  length of vectors
     4.459300041  4.459300041  5.928199768     0.258942105  0.258942105  0.168685274


 
 k-points in units of 2pi/SCALE and weight: K-Spacing Value to Generate K-Mesh: 0.04
   0.00000000  0.00000000  0.00000000       0.003
   0.02491672  0.01438567  0.00000000       0.019
   0.04983343  0.02877134  0.00000000       0.019
   0.07475015  0.04315702  0.00000000       0.019
   0.09966686  0.05754269  0.00000000       0.019
   0.02491672  0.04315702  0.00000000       0.019
   0.04983343  0.05754269  0.00000000       0.037
   0.07475015  0.07192836  0.00000000       0.037
   0.09966686  0.08631403  0.00000000       0.019
   0.04983343  0.08631403  0.00000000       0.019
   0.07475015  0.10069971  0.00000000       0.037
   0.07475015  0.12947105  0.00000000       0.006
   0.00000000  0.00000000  0.04217132       0.006
   0.02491672  0.01438567  0.04217132       0.019
   0.04983343  0.02877134  0.04217132       0.019
   0.07475015  0.04315702  0.04217132       0.019
   0.09966686  0.05754269  0.04217132       0.019
  -0.09966686 -0.05754269  0.04217132       0.019
  -0.07475015 -0.04315702  0.04217132       0.019
  -0.04983343 -0.02877134  0.04217132       0.019
  -0.02491672 -0.01438567  0.04217132       0.019
   0.02491672  0.04315702  0.04217132       0.037
   0.04983343  0.05754269  0.04217132       0.037
   0.07475015  0.07192836  0.04217132       0.037
   0.09966686  0.08631403  0.04217132       0.037
  -0.09966686 -0.02877134  0.04217132       0.037
  -0.07475015 -0.01438567  0.04217132       0.037
   0.04983343  0.08631403  0.04217132       0.037
   0.07475015  0.10069971  0.04217132       0.037
   0.09966686  0.11508538  0.04217132       0.037
   0.07475015  0.12947105  0.04217132       0.012
   0.00000000  0.00000000  0.08434264       0.003
   0.02491672  0.01438567  0.08434264       0.019
   0.04983343  0.02877134  0.08434264       0.019
   0.07475015  0.04315702  0.08434264       0.019
   0.09966686  0.05754269  0.08434264       0.019
   0.02491672  0.04315702  0.08434264       0.019
   0.04983343  0.05754269  0.08434264       0.037
   0.07475015  0.07192836  0.08434264       0.037
   0.09966686  0.08631403  0.08434264       0.019
   0.04983343  0.08631403  0.08434264       0.019
   0.07475015  0.10069971  0.08434264       0.037
   0.07475015  0.12947105  0.08434264       0.006
 
 k-points in reciprocal lattice and weights: K-Spacing Value to Generate K-Mesh: 0.04
   0.00000000  0.00000000  0.00000000       0.003
   0.11111111  0.00000000  0.00000000       0.019
   0.22222222  0.00000000  0.00000000       0.019
   0.33333333 -0.00000000  0.00000000       0.019
   0.44444444  0.00000000  0.00000000       0.019
   0.11111111  0.11111111  0.00000000       0.019
   0.22222222  0.11111111  0.00000000       0.037
   0.33333333  0.11111111  0.00000000       0.037
   0.44444444  0.11111111  0.00000000       0.019
   0.22222222  0.22222222  0.00000000       0.019
   0.33333333  0.22222222  0.00000000       0.037
   0.33333333  0.33333333  0.00000000       0.006
   0.00000000  0.00000000  0.25000000       0.006
   0.11111111  0.00000000  0.25000000       0.019
   0.22222222  0.00000000  0.25000000       0.019
   0.33333333 -0.00000000  0.25000000       0.019
   0.44444444  0.00000000  0.25000000       0.019
  -0.44444444 -0.00000000  0.25000000       0.019
  -0.33333333  0.00000000  0.25000000       0.019
  -0.22222222 -0.00000000  0.25000000       0.019
  -0.11111111 -0.00000000  0.25000000       0.019
   0.11111111  0.11111111  0.25000000       0.037
   0.22222222  0.11111111  0.25000000       0.037
   0.33333333  0.11111111  0.25000000       0.037
   0.44444444  0.11111111  0.25000000       0.037
  -0.44444444  0.11111111  0.25000000       0.037
  -0.33333333  0.11111111  0.25000000       0.037
   0.22222222  0.22222222  0.25000000       0.037
   0.33333333  0.22222222  0.25000000       0.037
   0.44444444  0.22222222  0.25000000       0.037
   0.33333333  0.33333333  0.25000000       0.012
   0.00000000  0.00000000  0.50000000       0.003
   0.11111111  0.00000000  0.50000000       0.019
   0.22222222  0.00000000  0.50000000       0.019
   0.33333333 -0.00000000  0.50000000       0.019
   0.44444444  0.00000000  0.50000000       0.019
   0.11111111  0.11111111  0.50000000       0.019
   0.22222222  0.11111111  0.50000000       0.037
   0.33333333  0.11111111  0.50000000       0.037
   0.44444444  0.11111111  0.50000000       0.019
   0.22222222  0.22222222  0.50000000       0.019
   0.33333333  0.22222222  0.50000000       0.037
   0.33333333  0.33333333  0.50000000       0.006
 
 position of ions in fractional coordinates (direct lattice) 
   0.26196900  0.00000000  0.33333334
   0.00000000  0.26196900  0.66666669
   0.73803103  0.73803103  0.00000000
 
 position of ions in cartesian coordinates  (Angst):
   1.16819837  0.00000000  1.97606665
  -0.58409919  1.01168947  3.95213330
   1.64555090  2.85017777  0.00000000
 


--------------------------------------------------------------------------------------------------------


 k-point  1 :   0.0000 0.0000 0.0000  plane waves:    2729
 k-point  2 :   0.1111 0.0000 0.0000  plane waves:    2751
 k-point  3 :   0.2222 0.0000 0.0000  plane waves:    2738
 k-point  4 :   0.3333-0.0000 0.0000  plane waves:    2748
 k-point  5 :   0.4444 0.0000 0.0000  plane waves:    2734
 k-point  6 :   0.1111 0.1111 0.0000  plane waves:    2745
 k-point  7 :   0.2222 0.1111 0.0000  plane waves:    2742
 k-point  8 :   0.3333 0.1111 0.0000  plane waves:    2750
 k-point  9 :   0.4444 0.1111 0.0000  plane waves:    2738
 k-point 10 :   0.2222 0.2222 0.0000  plane waves:    2744
 k-point 11 :   0.3333 0.2222 0.0000  plane waves:    2737
 k-point 12 :   0.3333 0.3333 0.0000  plane waves:    2742
 k-point 13 :   0.0000 0.0000 0.2500  plane waves:    2752
 k-point 14 :   0.1111 0.0000 0.2500  plane waves:    2750
 k-point 15 :   0.2222 0.0000 0.2500  plane waves:    2757
 k-point 16 :   0.3333-0.0000 0.2500  plane waves:    2743
 k-point 17 :   0.4444 0.0000 0.2500  plane waves:    2751
 k-point 18 :  -0.4444-0.0000 0.2500  plane waves:    2751
 k-point 19 :  -0.3333 0.0000 0.2500  plane waves:    2743
 k-point 20 :  -0.2222-0.0000 0.2500  plane waves:    2757
 k-point 21 :  -0.1111-0.0000 0.2500  plane waves:    2750
 k-point 22 :   0.1111 0.1111 0.2500  plane waves:    2754
 k-point 23 :   0.2222 0.1111 0.2500  plane waves:    2751
 k-point 24 :   0.3333 0.1111 0.2500  plane waves:    2747
 k-point 25 :   0.4444 0.1111 0.2500  plane waves:    2745
 k-point 26 :  -0.4444 0.1111 0.2500  plane waves:    2747
 k-point 27 :  -0.3333 0.1111 0.2500  plane waves:    2751
 k-point 28 :   0.2222 0.2222 0.2500  plane waves:    2759
 k-point 29 :   0.3333 0.2222 0.2500  plane waves:    2751
 k-point 30 :   0.4444 0.2222 0.2500  plane waves:    2751
 k-point 31 :   0.3333 0.3333 0.2500  plane waves:    2751
 k-point 32 :   0.0000 0.0000 0.5000  plane waves:    2722
 k-point 33 :   0.1111 0.0000 0.5000  plane waves:    2780
 k-point 34 :   0.2222 0.0000 0.5000  plane waves:    2758
 k-point 35 :   0.3333-0.0000 0.5000  plane waves:    2746
 k-point 36 :   0.4444 0.0000 0.5000  plane waves:    2762
 k-point 37 :   0.1111 0.1111 0.5000  plane waves:    2760
 k-point 38 :   0.2222 0.1111 0.5000  plane waves:    2740
 k-point 39 :   0.3333 0.1111 0.5000  plane waves:    2740
 k-point 40 :   0.4444 0.1111 0.5000  plane waves:    2752
 k-point 41 :   0.2222 0.2222 0.5000  plane waves:    2732
 k-point 42 :   0.3333 0.2222 0.5000  plane waves:    2756
 k-point 43 :   0.3333 0.3333 0.5000  plane waves:    2766

 maximum and minimum number of plane-waves per node :      1406     1352

 maximum number of plane-waves:      2780
 maximum index in each direction: 
   IXMAX=    8   IYMAX=    8   IZMAX=   11
   IXMIN=   -8   IYMIN=   -8   IZMIN=  -11


 parallel 3D FFT for wavefunctions:
    minimum data exchange during FFTs selected (reduces bandwidth)
 parallel 3D FFT for charge:
    minimum data exchange during FFTs selected (reduces bandwidth)


 total amount of memory used by VASP MPI-rank0    48763. kBytes
=======================================================================

   base      :      30000. kBytes
   nonl-proj :       6255. kBytes
   fftplans  :       2372. kBytes
   grid      :       3330. kBytes
   one-center:         16. kBytes
   wavefun   :       6790. kBytes
 
     INWAV:  cpu time    0.0000: real time    0.0000
 Broyden mixing: mesh for mixing (old mesh)
   NGX = 17   NGY = 17   NGZ = 23
  (NGX  = 56   NGY  = 56   NGZ  = 72)
  gives a total of   6647 points

 initial charge density was supplied:
 charge density of overlapping atoms calculated
 number of electron      18.0000000 magnetization 
 keeping initial charge density in first step


--------------------------------------------------------------------------------------------------------


 Maximum index for augmentation-charges         3920 (set IRDMAX)


--------------------------------------------------------------------------------------------------------


 First call to EWALD:  gamma=   0.379
 Maximum number of real-space cells 3x 3x 2
 Maximum number of reciprocal cells 3x 3x 3

    FEWALD:  cpu time    0.0011: real time    0.0011


--------------------------------------- Iteration      1(   1)  ---------------------------------------


    POTLOK:  cpu time    0.0292: real time    0.0368
    SETDIJ:  cpu time    0.0029: real time    0.0029
     EDDAV:  cpu time    0.4756: real time    0.4792
       DOS:  cpu time    0.0008: real time    0.0008
    --------------------------------------------
      LOOP:  cpu time    0.5085: real time    0.5197

 eigenvalue-minimisations  :  1204
 total energy-change (2. order) : 0.7678275E+02  (-0.6593620E+03)
 number of electron      18.0000000 magnetization 
 augmentation part       18.0000000 magnetization 

 Free energy of the ion-electron system (eV)
  ---------------------------------------------------
  alpha Z        PSCENC =         2.28965292
  Ewald energy   TEWEN  =      -672.62417676
  -Hartree energ DENC   =       -44.61341497
  -exchange      EXHF   =         0.00000000
  -V(xc)+E(xc)   XCENC  =       -84.05205210
  PAW double counting   =       623.23253030     -507.77874573
  entropy T*S    EENTRO =        -0.00146824
  eigenvalues    EBANDS =        90.51612027
  atomic energy  EATOM  =       669.81430600
  Solvation  Ediel_sol  =         0.00000000
  ---------------------------------------------------
  free energy    TOTEN  =        76.78275170 eV

  energy without entropy =       76.78421994  energy(sigma->0) =       76.78348582


--------------------------------------------------------------------------------------------------------




--------------------------------------- Iteration      1(   2)  ---------------------------------------


     EDDAV:  cpu time    0.5714: real time    0.5739
       DOS:  cpu time    0.0006: real time    0.0006
    --------------------------------------------
      LOOP:  cpu time    0.5720: real time    0.5745

 eigenvalue-minimisations  :  1576
 total energy-change (2. order) :-0.8094131E+02  (-0.7758047E+02)
 number of electron      18.0000000 magnetization 
 augmentation part       18.0000000 magnetization 

 Free energy of the ion-electron system (eV)
  ---------------------------------------------------
  alpha Z        PSCENC =         2.28965292
  Ewald energy   TEWEN  =      -672.62417676
  -Hartree energ DENC   =       -44.61341497
  -exchange      EXHF   =         0.00000000
  -V(xc)+E(xc)   XCENC  =       -84.05205210
  PAW double counting   =       623.23253030     -507.77874573
  entropy T*S    EENTRO =        -0.00000003
  eigenvalues    EBANDS =         9.57334428
  atomic energy  EATOM  =       669.81430600
  Solvation  Ediel_sol  =         0.00000000
  ---------------------------------------------------
  free energy    TOTEN  =        -4.15855608 eV

  energy without entropy =       -4.15855605  energy(sigma->0) =       -4.15855607


--------------------------------------------------------------------------------------------------------




--------------------------------------- Iteration      1(   3)  ---------------------------------------


     EDDAV:  cpu time    0.5531: real time    0.5546
       DOS:  cpu time    0.0007: real time    0.0007
    --------------------------------------------
      LOOP:  cpu time    0.5538: real time    0.5553

 eigenvalue-minimisations  :  1468
 total energy-change (2. order) :-0.5165277E+01  (-0.5124966E+01)
 number of electron      18.0000000 magnetization 
 augmentation part       18.0000000 magnetization 

 Free energy of the ion-electron system (eV)
  ---------------------------------------------------
  alpha Z        PSCENC =         2.28965292
  Ewald energy   TEWEN  =      -672.62417676
  -Hartree energ DENC   =       -44.61341497
  -exchange      EXHF   =         0.00000000
  -V(xc)+E(xc)   XCENC  =       -84.05205210
  PAW double counting   =       623.23253030     -507.77874573
  entropy T*S    EENTRO =        -0.00000099
  eigenvalues    EBANDS =         4.40806775
  atomic energy  EATOM  =       669.81430600
  Solvation  Ediel_sol  =         0.00000000
  ---------------------------------------------------
  free energy    TOTEN  =        -9.32383358 eV

  energy without entropy =       -9.32383258  energy(sigma->0) =       -9.32383308


--------------------------------------------------------------------------------------------------------




--------------------------------------- Iteration      1(   4)  ---------------------------------------


     EDDAV:  cpu time    0.5723: real time    0.5737
       DOS:  cpu time    0.0007: real time    0.0007
    --------------------------------------------
      LOOP:  cpu time    0.5730: real time    0.5744

 eigenvalue-minimisations  :  1574
 total energy-change (2. order) :-0.9271013E-01  (-0.9266610E-01)
 number of electron      18.0000000 magnetization 
 augmentation part       18.0000000 magnetization 

 Free energy of the ion-electron system (eV)
  ---------------------------------------------------
  alpha Z        PSCENC =         2.28965292
  Ewald energy   TEWEN  =      -672.62417676
  -Hartree energ DENC   =       -44.61341497
  -exchange      EXHF   =         0.00000000
  -V(xc)+E(xc)   XCENC  =       -84.05205210
  PAW double counting   =       623.23253030     -507.77874573
  entropy T*S    EENTRO =        -0.00000111
  eigenvalues    EBANDS =         4.31535774
  atomic energy  EATOM  =       669.81430600
  Solvation  Ediel_sol  =         0.00000000
  ---------------------------------------------------
  free energy    TOTEN  =        -9.41654371 eV

  energy without entropy =       -9.41654259  energy(sigma->0) =       -9.41654315


--------------------------------------------------------------------------------------------------------




--------------------------------------- Iteration      1(   5)  ---------------------------------------


     EDDAV:  cpu time    0.5638: real time    0.5652
       DOS:  cpu time    0.0007: real time    0.0007
    CHARGE:  cpu time    0.0366: real time    0.0367
    MIXING:  cpu time    0.0010: real time    0.0010
    --------------------------------------------
      LOOP:  cpu time    0.6022: real time    0.6036

 eigenvalue-minimisations  :  1560
 total energy-change (2. order) :-0.1669984E-02  (-0.1669979E-02)
 number of electron      17.9999998 magnetization 
 augmentation part       -3.6013406 magnetization 

 Broyden mixing:
  rms(total) = 0.12417E+01    rms(broyden)= 0.12417E+01
  rms(prec ) = 0.12606E+01
  weight for this iteration     100.00

 Free energy of the ion-electron system (eV)
  ---------------------------------------------------
  alpha Z        PSCENC =         2.28965292
  Ewald energy   TEWEN  =      -672.62417676
  -Hartree energ DENC   =       -44.61341497
  -exchange      EXHF   =         0.00000000
  -V(xc)+E(xc)   XCENC  =       -84.05205210
  PAW double counting   =       623.23253030     -507.77874573
  entropy T*S    EENTRO =        -0.00000111
  eigenvalues    EBANDS =         4.31368775
  atomic energy  EATOM  =       669.81430600
  Solvation  Ediel_sol  =         0.00000000
  ---------------------------------------------------
  free energy    TOTEN  =        -9.41821369 eV

  energy without entropy =       -9.41821258  energy(sigma->0) =       -9.41821313


--------------------------------------------------------------------------------------------------------




--------------------------------------- Iteration      1(   6)  ---------------------------------------


    POTLOK:  cpu time    0.0227: real time    0.0228
    SETDIJ:  cpu time    0.0029: real time    0.0029
     EDDAV:  cpu time    0.5087: real time    0.5099
       DOS:  cpu time    0.0007: real time    0.0007
    CHARGE:  cpu time    0.0352: real time    0.0352
    MIXING:  cpu time    0.0011: real time    0.0011
    --------------------------------------------
      LOOP:  cpu time    0.5713: real time    0.5727

 eigenvalue-minimisations  :  1330
 total energy-change (2. order) : 0.2243227E-01  (-0.2186366E-02)
 number of electron      17.9999998 magnetization 
 augmentation part       -3.6056647 magnetization 

 Broyden mixing:
  rms(total) = 0.78842E+00    rms(broyden)= 0.78842E+00
  rms(prec ) = 0.79860E+00
  weight for this iteration     100.00

 eigenvalues of (default mixing * dielectric matrix)
  average eigenvalue GAMMA=   2.7341
  2.7341

 Free energy of the ion-electron system (eV)
  ---------------------------------------------------
  alpha Z        PSCENC =         2.28965292
  Ewald energy   TEWEN  =      -672.62417676
  -Hartree energ DENC   =       -44.59627643
  -exchange      EXHF   =         0.00000000
  -V(xc)+E(xc)   XCENC  =       -84.00354778
  PAW double counting   =       928.42511663     -813.02322098
  entropy T*S    EENTRO =        -0.00001193
  eigenvalues    EBANDS =         4.32237692
  atomic energy  EATOM  =       669.81430600
  Solvation  Ediel_sol  =         0.00000000
  ---------------------------------------------------
  free energy    TOTEN  =        -9.39578142 eV

  energy without entropy =       -9.39576949  energy(sigma->0) =       -9.39577545


--------------------------------------------------------------------------------------------------------




--------------------------------------- Iteration      1(   7)  ---------------------------------------


    POTLOK:  cpu time    0.0241: real time    0.0242
    SETDIJ:  cpu time    0.0030: real time    0.0030
     EDDAV:  cpu time    0.5255: real time    0.5270
       DOS:  cpu time    0.0008: real time    0.0008
    CHARGE:  cpu time    0.0357: real time    0.0358
    MIXING:  cpu time    0.0012: real time    0.0012
    --------------------------------------------
      LOOP:  cpu time    0.5904: real time    0.5920

 eigenvalue-minimisations  :  1348
 total energy-change (2. order) : 0.4048175E-02  (-0.4628726E-02)
 number of electron      17.9999998 magnetization 
 augmentation part       -3.6100798 magnetization 

 Broyden mixing:
  rms(total) = 0.33675E-01    rms(broyden)= 0.33675E-01
  rms(prec ) = 0.43844E-01
  weight for this iteration     100.00

 eigenvalues of (default mixing * dielectric matrix)
  average eigenvalue GAMMA=   2.0784
  1.7074  2.4494

 Free energy of the ion-electron system (eV)
  ---------------------------------------------------
  alpha Z        PSCENC =         2.28965292
  Ewald energy   TEWEN  =      -672.62417676
  -Hartree energ DENC   =       -44.79247322
  -exchange      EXHF   =         0.00000000
  -V(xc)+E(xc)   XCENC  =       -83.90105858
  PAW double counting   =      1637.42968207    -1522.10893753
  entropy T*S    EENTRO =        -0.00009429
  eigenvalues    EBANDS =         4.50136615
  atomic energy  EATOM  =       669.81430600
  Solvation  Ediel_sol  =         0.00000000
  ---------------------------------------------------
  free energy    TOTEN  =        -9.39173324 eV

  energy without entropy =       -9.39163895  energy(sigma->0) =       -9.39168609


--------------------------------------------------------------------------------------------------------




--------------------------------------- Iteration      1(   8)  ---------------------------------------


    POTLOK:  cpu time    0.0227: real time    0.0229
    SETDIJ:  cpu time    0.0029: real time    0.0029
     EDDAV:  cpu time    0.4865: real time    0.4877
       DOS:  cpu time    0.0007: real time    0.0007
    CHARGE:  cpu time    0.0351: real time    0.0352
    MIXING:  cpu time    0.0012: real time    0.0012
    --------------------------------------------
      LOOP:  cpu time    0.5492: real time    0.5505

 eigenvalue-minimisations  :  1240
 total energy-change (2. order) : 0.8719305E-03  (-0.8798909E-03)
 number of electron      17.9999998 magnetization 
 augmentation part       -3.6084959 magnetization 

 Broyden mixing:
  rms(total) = 0.18314E-01    rms(broyden)= 0.18314E-01
  rms(prec ) = 0.18917E-01
  weight for this iteration     100.00

 eigenvalues of (default mixing * dielectric matrix)
  average eigenvalue GAMMA=   1.4870
  2.4759  1.5414  0.4438

 Free energy of the ion-electron system (eV)
  ---------------------------------------------------
  alpha Z        PSCENC =         2.28965292
  Ewald energy   TEWEN  =      -672.62417676
  -Hartree energ DENC   =       -44.85308067
  -exchange      EXHF   =         0.00000000
  -V(xc)+E(xc)   XCENC  =       -83.90772213
  PAW double counting   =      1583.08047636    -1467.75119898
  entropy T*S    EENTRO =        -0.00004746
  eigenvalues    EBANDS =         4.56092942
  atomic energy  EATOM  =       669.81430600
  Solvation  Ediel_sol  =         0.00000000
  ---------------------------------------------------
  free energy    TOTEN  =        -9.39086131 eV

  energy without entropy =       -9.39081385  energy(sigma->0) =       -9.39083758


--------------------------------------------------------------------------------------------------------




--------------------------------------- Iteration      1(   9)  ---------------------------------------


    POTLOK:  cpu time    0.0218: real time    0.0219
    SETDIJ:  cpu time    0.0029: real time    0.0029
     EDDAV:  cpu time    0.5829: real time    0.5885
       DOS:  cpu time    0.0007: real time    0.0007
    CHARGE:  cpu time    0.0346: real time    0.0347
    MIXING:  cpu time    0.0012: real time    0.0012
    --------------------------------------------
      LOOP:  cpu time    0.6443: real time    0.6501

 eigenvalue-minimisations  :  1616
 total energy-change (2. order) :-0.3827179E-04  (-0.2538986E-04)
 number of electron      17.9999998 magnetization 
 augmentation part       -3.6086144 magnetization 

 Broyden mixing:
  rms(total) = 0.13184E-01    rms(broyden)= 0.13184E-01
  rms(prec ) = 0.13710E-01
  weight for this iteration     100.00

 eigenvalues of (default mixing * dielectric matrix)
  average eigenvalue GAMMA=   1.8748
  2.4801  1.4442  1.7875  1.7875

 Free energy of the ion-electron system (eV)
  ---------------------------------------------------
  alpha Z        PSCENC =         2.28965292
  Ewald energy   TEWEN  =      -672.62417676
  -Hartree energ DENC   =       -44.85117342
  -exchange      EXHF   =         0.00000000
  -V(xc)+E(xc)   XCENC  =       -83.90724784
  PAW double counting   =      1580.29333949    -1464.96409698
  entropy T*S    EENTRO =        -0.00004861
  eigenvalues    EBANDS =         4.55854562
  atomic energy  EATOM  =       669.81430600
  Solvation  Ediel_sol  =         0.00000000
  ---------------------------------------------------
  free energy    TOTEN  =        -9.39089958 eV

  energy without entropy =       -9.39085097  energy(sigma->0) =       -9.39087528


--------------------------------------------------------------------------------------------------------




--------------------------------------- Iteration      1(  10)  ---------------------------------------


    POTLOK:  cpu time    0.0216: real time    0.0217
    SETDIJ:  cpu time    0.0029: real time    0.0029
     EDDAV:  cpu time    0.4960: real time    0.4973
       DOS:  cpu time    0.0008: real time    0.0008
    CHARGE:  cpu time    0.0349: real time    0.0349
    MIXING:  cpu time    0.0012: real time    0.0012
    --------------------------------------------
      LOOP:  cpu time    0.5574: real time    0.5589

 eigenvalue-minimisations  :  1300
 total energy-change (2. order) :-0.5175327E-04  (-0.6159236E-05)
 number of electron      17.9999998 magnetization 
 augmentation part       -3.6088221 magnetization 

 Broyden mixing:
  rms(total) = 0.24099E-02    rms(broyden)= 0.24099E-02
  rms(prec ) = 0.34901E-02
  weight for this iteration     100.00

 eigenvalues of (default mixing * dielectric matrix)
  average eigenvalue GAMMA=   1.7482
  2.5654  2.5654  1.4251  1.3118  0.8733

 Free energy of the ion-electron system (eV)
  ---------------------------------------------------
  alpha Z        PSCENC =         2.28965292
  Ewald energy   TEWEN  =      -672.62417676
  -Hartree energ DENC   =       -44.85851353
  -exchange      EXHF   =         0.00000000
  -V(xc)+E(xc)   XCENC  =       -83.90461735
  PAW double counting   =      1575.66158189    -1460.33249254
  entropy T*S    EENTRO =        -0.00005073
  eigenvalues    EBANDS =         4.56335877
  atomic energy  EATOM  =       669.81430600
  Solvation  Ediel_sol  =         0.00000000
  ---------------------------------------------------
  free energy    TOTEN  =        -9.39095133 eV

  energy without entropy =       -9.39090061  energy(sigma->0) =       -9.39092597


--------------------------------------------------------------------------------------------------------




--------------------------------------- Iteration      1(  11)  ---------------------------------------


    POTLOK:  cpu time    0.0219: real time    0.0220
    SETDIJ:  cpu time    0.0030: real time    0.0030
     EDDAV:  cpu time    0.4510: real time    0.4521
       DOS:  cpu time    0.0008: real time    0.0008
    --------------------------------------------
      LOOP:  cpu time    0.4767: real time    0.4779

 eigenvalue-minimisations  :  1126
 total energy-change (2. order) : 0.8119904E-05  (-0.2553561E-05)
 number of electron      17.9999998 magnetization 
 augmentation part       -3.6088221 magnetization 

 Free energy of the ion-electron system (eV)
  ---------------------------------------------------
  alpha Z        PSCENC =         2.28965292
  Ewald energy   TEWEN  =      -672.62417676
  -Hartree energ DENC   =       -44.86820317
  -exchange      EXHF   =         0.00000000
  -V(xc)+E(xc)   XCENC  =       -83.90417861
  PAW double counting   =      1573.57828702    -1458.24888428
  entropy T*S    EENTRO =        -0.00004790
  eigenvalues    EBANDS =         4.57230156
  atomic energy  EATOM  =       669.81430600
  Solvation  Ediel_sol  =         0.00000000
  ---------------------------------------------------
  free energy    TOTEN  =        -9.39094321 eV

  energy without entropy =       -9.39089531  energy(sigma->0) =       -9.39091926


--------------------------------------------------------------------------------------------------------




 average (electrostatic) potential at core
  the test charge radii are     1.1897
  (the norm of the test charge is              1.0000)
       1 -89.0486       2 -89.0486       3 -89.0486
 
 
 
 E-fermi :   5.9805     XC(G=0):  -9.0463     alpha+bet :-10.5335


 k-point     1 :       0.0000    0.0000    0.0000
  band No.  band energies     occupation 
      1      -7.7598      2.00000
      2      -4.4175      2.00000
      3      -4.4175      2.00000
      4       2.8124      2.00000
      5       3.0984      2.00000
      6       3.0984      2.00000
      7       4.2559      2.00000
      8       4.2559      2.00000
      9       5.1843      2.00000
     10       6.9401      0.00000
     11       6.9401      0.00000
     12       7.5823      0.00000
     13      10.8391      0.00000
     14      10.8391      0.00000

 k-point     2 :       0.1111    0.0000    0.0000
  band No.  band energies     occupation 
      1      -7.6795      2.00000
      2      -4.4417      2.00000
      3      -4.3932      2.00000
      4       2.2024      2.00000
      5       2.6987      2.00000
      6       2.9643      2.00000
      7       4.4807      2.00000
      8       4.7882      2.00000
      9       5.2687      2.00000
     10       6.7221      0.00000
     11       6.8959      0.00000
     12       7.4967      0.00000
     13      10.6462      0.00000
     14      10.8089      0.00000

 k-point     3 :       0.2222    0.0000    0.0000
  band No.  band energies     occupation 
      1      -7.4510      2.00000
      2      -4.5491      2.00000
      3      -4.3272      2.00000
      4       1.4319      2.00000
      5       2.1416      2.00000
      6       2.6310      2.00000
      7       4.5459      2.00000
      8       4.8635      2.00000
      9       5.0814      2.00000
     10       6.8395      0.00000
     11       7.0274      0.00000
     12       7.6963      0.00000
     13       9.9590      0.00000
     14      11.0438      0.00000

 k-point     4 :       0.3333   -0.0000    0.0000
  band No.  band energies     occupation 
      1      -7.1232      2.00000
      2      -4.7835      2.00000
      3      -4.2449      2.00000
      4       1.0454      2.00000
      5       1.7015      2.00000
      6       2.3495      2.00000
      7       3.5492      2.00000
      8       4.8487      2.00000
      9       5.0748      2.00000
     10       6.8563      0.00000
     11       7.0331      0.00000
     12       8.7380      0.00000
     13       9.3388      0.00000
     14      11.8198      0.00000

 k-point     5 :       0.4444    0.0000    0.0000
  band No.  band energies     occupation 
      1      -6.8326      2.00000
      2      -5.0425      2.00000
      3      -4.1868      2.00000
      4       0.9968      2.00000
      5       1.4927      2.00000
      6       2.2888      2.00000
      7       2.6848      2.00000
      8       4.7793      2.00000
      9       5.0538      2.00000
     10       6.8562      0.00000
     11       6.9770      0.00000
     12       9.0038      0.00000
     13       9.5584      0.00000
     14      12.9093      0.00000

 k-point     6 :       0.1111    0.1111    0.0000
  band No.  band energies     occupation 
      1      -7.5247      2.00000
      2      -4.4936      2.00000
      3      -4.3630      2.00000
      4       1.6812      2.00000
      5       2.0449      2.00000
      6       3.0074      2.00000
      7       4.3466      2.00000
      8       5.0439      2.00000
      9       5.1051      2.00000
     10       6.7741      0.00000
     11       7.0669      0.00000
     12       7.5683      0.00000
     13      10.4170      0.00000
     14      10.5406      0.00000

 k-point     7 :       0.2222    0.1111    0.0000
  band No.  band energies     occupation 
      1      -7.2434      2.00000
      2      -4.6417      2.00000
      3      -4.3230      2.00000
      4       1.2077      2.00000
      5       1.6080      2.00000
      6       2.7376      2.00000
      7       4.0599      2.00000
      8       4.4249      2.00000
      9       4.8060      2.00000
     10       7.2012      0.00000
     11       7.4748      0.00000
     12       8.1018      0.00000
     13       9.8860      0.00000
     14      10.8125      0.00000

 k-point     8 :       0.3333    0.1111    0.0000
  band No.  band energies     occupation 
      1      -6.9183      2.00000
      2      -4.8923      2.00000
      3      -4.2826      2.00000
      4       1.0483      2.00000
      5       1.4460      2.00000
      6       2.4229      2.00000
      7       3.1241      2.00000
      8       4.3573      2.00000
      9       4.5770      2.00000
     10       7.2905      0.00000
     11       7.5707      0.00000
     12       9.1131      0.00000
     13       9.4862      0.00000
     14      11.7172      0.00000

 k-point     9 :       0.4444    0.1111    0.0000
  band No.  band energies     occupation 
      1      -6.7506      2.00000
      2      -5.0426      2.00000
      3      -4.2652      2.00000
      4       1.0636      2.00000
      5       1.4363      2.00000
      6       2.4552      2.00000
      7       2.5100      2.00000
      8       4.3471      2.00000
      9       4.4905      2.00000
     10       7.2859      0.00000
     11       7.5954      0.00000
     12       9.3405      0.00000
     13       9.5853      0.00000
     14      12.6511      0.00000

 k-point    10 :       0.2222    0.2222    0.0000
  band No.  band energies     occupation 
      1      -6.9541      2.00000
      2      -4.7571      2.00000
      3      -4.4008      2.00000
      4       1.1670      2.00000
      5       1.2921      2.00000
      6       2.7082      2.00000
      7       3.5711      2.00000
      8       3.9196      2.00000
      9       3.9833      2.00000
     10       7.8986      0.00000
     11       8.2269      0.00000
     12       8.4573      0.00000
     13      10.2245      0.00000
     14      10.6642      0.00000

 k-point    11 :       0.3333    0.2222    0.0000
  band No.  band energies     occupation 
      1      -6.7110      2.00000
      2      -4.8879      2.00000
      3      -4.4769      2.00000
      4       1.2036      2.00000
      5       1.3495      2.00000
      6       2.5808      2.00000
      7       2.8989      2.00000
      8       3.6104      2.00000
      9       3.7150      2.00000
     10       8.1256      0.00000
     11       8.4951      0.00000
     12       9.1901      0.00000
     13      10.2004      0.00000
     14      11.5039      0.00000

 k-point    12 :       0.3333    0.3333    0.0000
  band No.  band energies     occupation 
      1      -6.6205      2.00000
      2      -4.7291      2.00000
      3      -4.7291      2.00000
      4       1.3424      2.00000
      5       1.3424      2.00000
      6       2.8584      2.00000
      7       2.8585      2.00000
      8       3.0452      2.00000
      9       3.3022      2.00000
     10       8.7842      0.00000
     11       8.7842      0.00000
     12       9.1507      0.00000
     13      10.7317      0.00000
     14      11.8236      0.00000

 k-point    13 :       0.0000    0.0000    0.2500
  band No.  band energies     occupation 
      1      -7.5323      2.00000
      2      -5.7901      2.00000
      3      -2.9964      2.00000
      4       2.3527      2.00000
      5       2.9474      2.00000
      6       3.3961      2.00000
      7       4.4215      2.00000
      8       4.4277      2.00000
      9       5.1095      2.00000
     10       6.6509      0.00000
     11       6.6671      0.00000
     12       7.0895      0.00000
     13      10.3232      0.00000
     14      11.4036      0.00000

 k-point    14 :       0.1111    0.0000    0.2500
  band No.  band energies     occupation 
      1      -7.4552      2.00000
      2      -5.7404      2.00000
      3      -3.0977      2.00000
      4       2.0873      2.00000
      5       2.7724      2.00000
      6       3.2490      2.00000
      7       4.1860      2.00000
      8       4.5301      2.00000
      9       4.7801      2.00000
     10       6.9063      0.00000
     11       7.0337      0.00000
     12       7.4216      0.00000
     13      10.4092      0.00000
     14      11.3641      0.00000

 k-point    15 :       0.2222    0.0000    0.2500
  band No.  band energies     occupation 
      1      -7.2395      2.00000
      2      -5.5995      2.00000
      3      -3.4147      2.00000
      4       1.7217      2.00000
      5       2.3632      2.00000
      6       2.9926      2.00000
      7       3.5248      2.00000
      8       4.1446      2.00000
      9       4.7010      2.00000
     10       7.2141      0.00000
     11       7.7913      0.00000
     12       8.2342      0.00000
     13      10.6798      0.00000
     14      11.0999      0.00000

 k-point    16 :       0.3333   -0.0000    0.2500
  band No.  band energies     occupation 
      1      -6.9369      2.00000
      2      -5.4276      2.00000
      3      -3.8458      2.00000
      4       1.3987      2.00000
      5       1.8054      2.00000
      6       2.6739      2.00000
      7       3.0978      2.00000
      8       4.1233      2.00000
      9       4.5934      2.00000
     10       7.2601      0.00000
     11       7.9645      0.00000
     12       9.0631      0.00000
     13      10.3051      0.00000
     14      11.5405      0.00000

 k-point    17 :       0.4444    0.0000    0.2500
  band No.  band energies     occupation 
      1      -6.6675      2.00000
      2      -5.3854      2.00000
      3      -4.0871      2.00000
      4       0.8806      2.00000
      5       1.4829      2.00000
      6       2.3921      2.00000
      7       3.4988      2.00000
      8       4.1423      2.00000
      9       4.5061      2.00000
     10       7.1601      0.00000
     11       7.9331      0.00000
     12       8.9221      0.00000
     13       9.9002      0.00000
     14      11.9247      0.00000

 k-point    18 :      -0.4444   -0.0000    0.2500
  band No.  band energies     occupation 
      1      -6.6442      2.00000
      2      -5.4900      2.00000
      3      -3.9396      2.00000
      4       0.5823      2.00000
      5       1.3904      2.00000
      6       2.3551      2.00000
      7       4.1324      2.00000
      8       4.2512      2.00000
      9       4.6320      2.00000
     10       7.0465      0.00000
     11       7.7522      0.00000
     12       8.2071      0.00000
     13       9.6182      0.00000
     14      12.4159      0.00000

 k-point    19 :      -0.3333    0.0000    0.2500
  band No.  band energies     occupation 
      1      -6.9110      2.00000
      2      -5.5583      2.00000
      3      -3.6140      2.00000
      4       0.7815      2.00000
      5       1.4883      2.00000
      6       2.5057      2.00000
      7       4.4141      2.00000
      8       4.4705      2.00000
      9       5.3422      2.00000
     10       6.7688      0.00000
     11       7.3942      0.00000
     12       7.5923      0.00000
     13       9.5021      0.00000
     14      12.4334      0.00000

 k-point    20 :      -0.2222   -0.0000    0.2500
  band No.  band energies     occupation 
      1      -7.2303      2.00000
      2      -5.6482      2.00000
      3      -3.2984      2.00000
      4       1.4588      2.00000
      5       1.7884      2.00000
      6       2.7974      2.00000
      7       4.6025      2.00000
      8       4.7666      2.00000
      9       5.4392      2.00000
     10       6.5810      0.00000
     11       7.0649      0.00000
     12       7.3331      0.00000
     13       9.6671      0.00000
     14      11.9376      0.00000

 k-point    21 :      -0.1111   -0.0000    0.2500
  band No.  band energies     occupation 
      1      -7.4540      2.00000
      2      -5.7467      2.00000
      3      -3.0790      2.00000
      4       2.1095      2.00000
      5       2.4808      2.00000
      6       3.1593      2.00000
      7       4.6310      2.00000
      8       4.6774      2.00000
      9       5.0210      2.00000
     10       6.6398      0.00000
     11       6.6645      0.00000
     12       7.4184      0.00000
     13      10.1281      0.00000
     14      11.4105      0.00000

 k-point    22 :       0.1111    0.1111    0.2500
  band No.  band energies     occupation 
      1      -7.3056      2.00000
      2      -5.6601      2.00000
      3      -3.2695      2.00000
      4       1.7622      2.00000
      5       2.1115      2.00000
      6       3.0159      2.00000
      7       4.0221      2.00000
      8       4.6206      2.00000
      9       5.0496      2.00000
     10       6.8397      0.00000
     11       7.4020      0.00000
     12       7.6259      0.00000
     13      10.1586      0.00000
     14      11.3910      0.00000

 k-point    23 :       0.2222    0.1111    0.2500
  band No.  band energies     occupation 
      1      -7.0422      2.00000
      2      -5.5047      2.00000
      3      -3.6510      2.00000
      4       1.4132      2.00000
      5       1.8229      2.00000
      6       2.8347      2.00000
      7       3.1395      2.00000
      8       4.2356      2.00000
      9       5.1624      2.00000
     10       6.9997      0.00000
     11       7.7520      0.00000
     12       8.6749      0.00000
     13      10.4909      0.00000
     14      10.9872      0.00000

 k-point    24 :       0.3333    0.1111    0.2500
  band No.  band energies     occupation 
      1      -6.7440      2.00000
      2      -5.3780      2.00000
      3      -4.0285      2.00000
      4       1.1189      2.00000
      5       1.3929      2.00000
      6       2.4998      2.00000
      7       3.1624      2.00000
      8       3.9214      2.00000
      9       5.1699      2.00000
     10       6.9450      0.00000
     11       8.0676      0.00000
     12       9.0613      0.00000
     13      10.1710      0.00000
     14      11.6334      0.00000

 k-point    25 :       0.4444    0.1111    0.2500
  band No.  band energies     occupation 
      1      -6.5791      2.00000
      2      -5.4170      2.00000
      3      -4.0926      2.00000
      4       0.7160      2.00000
      5       1.2660      2.00000
      6       2.3905      2.00000
      7       3.3827      2.00000
      8       4.0656      2.00000
      9       5.1667      2.00000
     10       6.8801      0.00000
     11       8.1195      0.00000
     12       8.5755      0.00000
     13       9.9570      0.00000
     14      12.2816      0.00000

 k-point    26 :      -0.4444    0.1111    0.2500
  band No.  band energies     occupation 
      1      -6.7200      2.00000
      2      -5.4926      2.00000
      3      -3.8566      2.00000
      4       0.6478      2.00000
      5       1.3935      2.00000
      6       2.4316      2.00000
      7       3.4373      2.00000
      8       4.7518      2.00000
      9       5.2500      2.00000
     10       6.7732      0.00000
     11       7.6754      0.00000
     12       8.1563      0.00000
     13       9.8511      0.00000
     14      12.2157      0.00000

 k-point    27 :      -0.3333    0.1111    0.2500
  band No.  band energies     occupation 
      1      -7.0316      2.00000
      2      -5.5599      2.00000
      3      -3.5421      2.00000
      4       1.0850      2.00000
      5       1.6452      2.00000
      6       2.6595      2.00000
      7       3.6429      2.00000
      8       4.9253      2.00000
      9       5.5768      2.00000
     10       6.5410      0.00000
     11       7.2934      0.00000
     12       7.9796      0.00000
     13       9.8663      0.00000
     14      11.6077      0.00000

 k-point    28 :       0.2222    0.2222    0.2500
  band No.  band energies     occupation 
      1      -6.7636      2.00000
      2      -5.4331      2.00000
      3      -3.9113      2.00000
      4       0.8845      2.00000
      5       1.4864      2.00000
      6       2.4321      2.00000
      7       2.9885      2.00000
      8       4.5522      2.00000
      9       5.4372      2.00000
     10       6.8642      0.00000
     11       7.6984      0.00000
     12       8.7710      0.00000
     13      10.4683      0.00000
     14      11.0367      0.00000

 k-point    29 :       0.3333    0.2222    0.2500
  band No.  band energies     occupation 
      1      -6.5407      2.00000
      2      -5.3649      2.00000
      3      -4.1713      2.00000
      4       0.8461      2.00000
      5       1.1475      2.00000
      6       2.0966      2.00000
      7       3.1875      2.00000
      8       4.2006      2.00000
      9       5.2426      2.00000
     10       7.1161      0.00000
     11       8.2189      0.00000
     12       8.7953      0.00000
     13      10.4988      0.00000
     14      11.5847      0.00000

 k-point    30 :       0.4444    0.2222    0.2500
  band No.  band energies     occupation 
      1      -6.5339      2.00000
      2      -5.3958      2.00000
      3      -4.1318      2.00000
      4       0.7104      2.00000
      5       1.2121      2.00000
      6       2.1121      2.00000
      7       3.1494      2.00000
      8       4.4695      2.00000
      9       5.1260      2.00000
     10       7.2242      0.00000
     11       8.0221      0.00000
     12       8.6448      0.00000
     13      10.4499      0.00000
     14      11.7904      0.00000

 k-point    31 :       0.3333    0.3333    0.2500
  band No.  band energies     occupation 
      1      -6.4514      2.00000
      2      -5.3537      2.00000
      3      -4.2467      2.00000
      4       0.7895      2.00000
      5       1.1184      2.00000
      6       1.7838      2.00000
      7       3.3287      2.00000
      8       4.3957      2.00000
      9       4.8651      2.00000
     10       7.6673      0.00000
     11       8.3481      0.00000
     12       8.4247      0.00000
     13      11.2053      0.00000
     14      11.5014      0.00000

 k-point    32 :       0.0000    0.0000    0.5000
  band No.  band energies     occupation 
      1      -6.8617      2.00000
      2      -6.8617      2.00000
      3      -2.2529      2.00000
      4       1.8322      2.00000
      5       3.2415      2.00000
      6       3.2415      2.00000
      7       4.5633      2.00000
      8       4.8425      2.00000
      9       4.8425      2.00000
     10       6.4589      0.00000
     11       6.5303      0.00000
     12       6.5303      0.00000
     13       9.9295      0.00000
     14      11.2293      0.00000

 k-point    33 :       0.1111    0.0000    0.5000
  band No.  band energies     occupation 
      1      -6.8015      2.00000
      2      -6.7854      2.00000
      3      -2.4302      2.00000
      4       1.7851      2.00000
      5       3.0449      2.00000
      6       3.1358      2.00000
      7       4.1410      2.00000
      8       4.4708      2.00000
      9       4.7234      2.00000
     10       6.6982      0.00000
     11       6.9063      0.00000
     12       7.3010      0.00000
     13      10.1584      0.00000
     14      10.9113      0.00000

 k-point    34 :       0.2222    0.0000    0.5000
  band No.  band energies     occupation 
      1      -6.6395      2.00000
      2      -6.5675      2.00000
      3      -2.8875      2.00000
      4       1.4737      2.00000
      5       2.4642      2.00000
      6       2.8346      2.00000
      7       3.9482      2.00000
      8       4.0896      2.00000
      9       4.5901      2.00000
     10       7.1013      0.00000
     11       7.6199      0.00000
     12       8.0779      0.00000
     13      10.4167      0.00000
     14      11.0514      0.00000

 k-point    35 :       0.3333   -0.0000    0.5000
  band No.  band energies     occupation 
      1      -6.4350      2.00000
      2      -6.2528      2.00000
      3      -3.4515      2.00000
      4       0.7948      2.00000
      5       2.1915      2.00000
      6       2.5156      2.00000
      7       3.7103      2.00000
      8       3.9709      2.00000
      9       4.9036      2.00000
     10       7.3030      0.00000
     11       7.9429      0.00000
     12       8.2031      0.00000
     13      10.4480      0.00000
     14      11.3889      0.00000

 k-point    36 :       0.4444    0.0000    0.5000
  band No.  band energies     occupation 
      1      -6.2866      2.00000
      2      -5.9714      2.00000
      3      -3.8850      2.00000
      4       0.3056      2.00000
      5       2.1528      2.00000
      6       2.2882      2.00000
      7       3.5499      2.00000
      8       3.8852      2.00000
      9       5.5219      2.00000
     10       6.8561      0.00000
     11       7.8321      0.00000
     12       8.4528      0.00000
     13      10.4679      0.00000
     14      11.2862      0.00000

 k-point    37 :       0.1111    0.1111    0.5000
  band No.  band energies     occupation 
      1      -6.6868      2.00000
      2      -6.6414      2.00000
      3      -2.7446      2.00000
      4       1.6249      2.00000
      5       2.6820      2.00000
      6       2.7513      2.00000
      7       3.9161      2.00000
      8       4.1168      2.00000
      9       4.9392      2.00000
     10       6.6413      0.00000
     11       7.6925      0.00000
     12       7.8946      0.00000
     13      10.5755      0.00000
     14      10.6546      0.00000

 k-point    38 :       0.2222    0.1111    0.5000
  band No.  band energies     occupation 
      1      -6.4929      2.00000
      2      -6.3814      2.00000
      3      -3.2443      2.00000
      4       1.1524      2.00000
      5       2.0916      2.00000
      6       2.2916      2.00000
      7       3.9161      2.00000
      8       4.2754      2.00000
      9       4.9685      2.00000
     10       6.9383      0.00000
     11       8.0012      0.00000
     12       8.1849      0.00000
     13      10.4803      0.00000
     14      11.2638      0.00000

 k-point    39 :       0.3333    0.1111    0.5000
  band No.  band energies     occupation 
      1      -6.3022      2.00000
      2      -6.0796      2.00000
      3      -3.7390      2.00000
      4       0.5551      2.00000
      5       1.8170      2.00000
      6       1.9651      2.00000
      7       4.0025      2.00000
      8       4.3425      2.00000
      9       5.2805      2.00000
     10       7.0677      0.00000
     11       7.7097      0.00000
     12       8.2497      0.00000
     13      10.5140      0.00000
     14      11.4952      0.00000

 k-point    40 :       0.4444    0.1111    0.5000
  band No.  band energies     occupation 
      1      -6.2205      2.00000
      2      -5.9236      2.00000
      3      -3.9673      2.00000
      4       0.3051      2.00000
      5       1.7767      2.00000
      6       1.8122      2.00000
      7       4.1305      2.00000
      8       4.1960      2.00000
      9       5.7378      2.00000
     10       6.6766      0.00000
     11       7.6902      0.00000
     12       8.2697      0.00000
     13      10.5815      0.00000
     14      11.3233      0.00000

 k-point    41 :       0.2222    0.2222    0.5000
  band No.  band energies     occupation 
      1      -6.2878      2.00000
      2      -6.1466      2.00000
      3      -3.6635      2.00000
      4       0.8389      2.00000
      5       1.4348      2.00000
      6       1.7248      2.00000
      7       4.2977      2.00000
      8       4.7050      2.00000
      9       5.3736      2.00000
     10       6.7964      0.00000
     11       7.8859      0.00000
     12       7.9604      0.00000
     13      10.7208      0.00000
     14      11.5824      0.00000

 k-point    42 :       0.3333    0.2222    0.5000
  band No.  band energies     occupation 
      1      -6.1287      2.00000
      2      -5.9630      2.00000
      3      -3.9659      2.00000
      4       0.5471      2.00000
      5       1.1808      2.00000
      6       1.3382      2.00000
      7       4.6021      2.00000
      8       5.0775      2.00000
      9       5.7060      2.00000
     10       6.6433      0.00000
     11       7.4619      0.00000
     12       7.7770      0.00000
     13      11.0594      0.00000
     14      11.8025      0.00000

 k-point    43 :       0.3333    0.3333    0.5000
  band No.  band energies     occupation 
      1      -5.9863      2.00000
      2      -5.9863      2.00000
      3      -4.0477      2.00000
      4       0.7004      2.00000
      5       0.9369      2.00000
      6       0.9369      2.00000
      7       4.8356      2.00000
      8       5.8994      1.97815
      9       5.8994      1.97815
     10       6.0518      0.04369
     11       7.3850      0.00000
     12       7.3850      0.00000
     13      11.7507      0.00000
     14      12.4161      0.00000


--------------------------------------------------------------------------------------------------------


 soft charge-density along one line, spin component           1
         0         1         2         3         4         5         6         7         8         9
 total charge-density along one line
 
 pseudopotential strength for first ion, spin component:           1
 51.667  56.215  -0.000  -0.000  -0.057  -0.000  -0.000  -0.083
 56.215  61.167  -0.000  -0.000  -0.063  -0.000  -0.000  -0.091
 -0.000  -0.000  12.719   0.010   0.000  18.334   0.015   0.000
 -0.000  -0.000   0.010  12.737   0.000   0.015  18.360   0.000
 -0.057  -0.063   0.000   0.000  12.736   0.000   0.000  18.358
 -0.000  -0.000  18.334   0.015   0.000  26.437   0.021   0.000
 -0.000  -0.000   0.015  18.360   0.000   0.021  26.474   0.000
 -0.083  -0.091   0.000   0.000  18.358   0.000   0.000  26.472
  0.000   0.000  -0.011   0.000  -0.000  -0.017   0.000  -0.000
  0.016   0.017   0.000  -0.000   0.000   0.000  -0.000   0.000
  0.008   0.009   0.000  -0.000   0.007   0.000  -0.000   0.010
  0.000   0.000   0.000  -0.011  -0.000   0.000  -0.016  -0.000
  0.013   0.014   0.000  -0.000  -0.011   0.000  -0.000  -0.016
 total augmentation occupancy for first ion, spin component:           1
 13.483  -9.953   0.000  -0.000   2.496   0.000  -0.000  -0.688   0.000  -0.184  -0.115   0.000  -0.128
 -9.953   8.632   0.000  -0.000  -2.108   0.000  -0.000   0.594   0.000   0.167   0.104   0.000   0.115
  0.000   0.000   2.605   0.286   0.000  -0.510  -0.230   0.000  -0.064   0.000  -0.000  -0.056   0.000
 -0.000   0.000   0.286   3.071   0.000  -0.230  -0.892   0.000  -0.054   0.000   0.000  -0.144  -0.000
  2.496  -2.108   0.000   0.000   2.913   0.000   0.000  -0.798   0.000  -0.062  -0.020   0.000  -0.063
  0.000   0.000  -0.510  -0.230   0.000   0.185   0.091  -0.000   0.016   0.000   0.000   0.021   0.000
 -0.000  -0.000  -0.230  -0.892  -0.000   0.091   0.330   0.000   0.022   0.000   0.000   0.046   0.000
 -0.688   0.594   0.000   0.000  -0.798   0.000   0.000   0.284   0.000   0.019   0.005   0.000   0.017
  0.000   0.000  -0.064  -0.054   0.000   0.016   0.022   0.000   0.009   0.000   0.000   0.011   0.000
 -0.184   0.167   0.000   0.000  -0.062   0.000   0.000   0.019   0.000   0.015   0.005   0.000   0.003
 -0.115   0.104   0.000   0.000  -0.020   0.000   0.000   0.005   0.000   0.005   0.009   0.000  -0.001
  0.000   0.000  -0.056  -0.144   0.000   0.021   0.046   0.000   0.011   0.000   0.000   0.028   0.000
 -0.128   0.115   0.000   0.000  -0.063   0.000   0.000   0.017   0.000   0.003  -0.001   0.000   0.010


------------------------ aborting loop because EDIFF is reached ----------------------------------------


    CHARGE:  cpu time    0.0352: real time    0.0353
    FORLOC:  cpu time    0.0014: real time    0.0014
    FORNL :  cpu time    0.1250: real time    0.1253
    STRESS:  cpu time    0.2786: real time    0.2792
    FORCOR:  cpu time    0.0263: real time    0.0263
    FORHAR:  cpu time    0.0058: real time    0.0059
    MIXING:  cpu time    0.0014: real time    0.0014
    OFIELD:  cpu time    0.0000: real time    0.0000

 ---------------------------------------------------------------------------------------------

         DFTD3 V3.0 Rev 1        
 IVDW         = 12
 DF pbe       
 parameters
 VDW_S6       =    1.0000
 VDW_S8       =    0.7875
 VDW_A1       =    0.4289
 VDW_A2       =    4.4407
 k1-k3        =   16.0000    1.3333   -4.0000
 VDW_RADIUS   =   50.2022 A
 VDW_CNRADIUS =   21.1671 A
 Edisp (eV)   -1.28635

 E6    (eV) :    -0.6958
 E8    (eV) :    -0.5906
 % E8        : 45.91
    FORVDW:  cpu time    0.0085: real time    0.0106

  FORCE on cell =-STRESS in cart. coord.  units (eV):
  Direction    XX          YY          ZZ          XY          YZ          ZX
  --------------------------------------------------------------------------------------
  Alpha Z     2.28965     2.28965     2.28965
  Ewald    -239.40015  -239.40015  -193.82453    -0.00000    -0.00001     0.00000
  Hartree    11.13509    11.13509    22.60612     0.00000     0.00000    -0.00000
  E(xc)     -70.58426   -70.58426   -70.09872    -0.00000     0.00000    -0.00000
  Local    -111.09594  -111.09598  -157.77533    -0.00004     0.00000    -0.00000
  n-local   333.12939   333.92495   329.33834    -1.25925    -0.73310    -1.24840
  augment   -81.13401   -81.13396   -78.67547     0.00004    -0.00000     0.00000
  Kinetic   153.21087   159.76972   147.78797    -7.45683     0.20489     1.50226
  Fock        0.00000     0.00000     0.00000     0.00000     0.00000     0.00000
  vdW        -1.39177    -1.39177    -1.36293    -0.00000    -0.00000    -0.00000
  -------------------------------------------------------------------------------------
  Total      -0.16392    -0.16392     0.28511     0.00000    -0.00000    -0.00000
  in kB      -2.57254    -2.57254     4.47445     0.00000    -0.00000    -0.00000
  external pressure =       -0.22 kB  Pullay stress =        0.00 kB


 VOLUME and BASIS-vectors are now :
 -----------------------------------------------------------------------------
  energy-cutoff  :      520.00
  volume of cell :      102.09
      direct lattice vectors                 reciprocal lattice vectors
     4.459300041  0.000000000  0.000000000     0.224250441  0.129471052  0.000000000
    -2.229650021  3.861867119  0.000000000     0.000000000  0.258942105  0.000000000
     0.000000000  0.000000000  5.928199768     0.000000000  0.000000000  0.168685274

  length of vectors
     4.459300041  4.459300041  5.928199768     0.258942105  0.258942105  0.168685274


 FORCES acting on ions
    electron-ion (+dipol)            ewald-force                    non-local-force                 convergence-correction
 -----------------------------------------------------------------------------------------------
   -.137E+02 0.119E-04 -.129E-05   0.194E+02 0.150E-05 0.187E-05   -.531E+01 -.555E-16 0.555E-16   0.583E-02 -.261E-07 -.160E-07
   0.686E+01 -.119E+02 -.179E-04   -.969E+01 0.168E+02 -.875E-05   0.265E+01 -.460E+01 -.555E-16   -.291E-02 0.505E-02 0.414E-06
   0.686E+01 0.119E+02 0.188E-04   -.969E+01 -.168E+02 0.687E-05   0.265E+01 0.460E+01 0.000E+00   -.291E-02 -.505E-02 -.398E-06
 -----------------------------------------------------------------------------------------------
   0.251E-04 -.742E-05 -.345E-06   0.000E+00 -.355E-14 0.000E+00   0.000E+00 0.000E+00 0.000E+00   -.128E-07 0.223E-08 0.412E-10
 
 
 POSITION                                       TOTAL-FORCE (eV/Angst)
 -----------------------------------------------------------------------------------
      1.16820      0.00000      1.97607         0.371041     -0.000000     -0.000000
     -0.58410      1.01169      3.95213        -0.185520      0.321330      0.000000
      1.64555      2.85018      0.00000        -0.185520     -0.321330      0.000000
 -----------------------------------------------------------------------------------
    total drift:                                0.000025     -0.000007     -0.000000


--------------------------------------------------------------------------------------------------------



  FREE ENERGIE OF THE ION-ELECTRON SYSTEM (eV)
  ---------------------------------------------------
  free  energy   TOTEN  =       -10.67729501 eV

  energy  without entropy=      -10.67724711  energy(sigma->0) =      -10.67727106
 


--------------------------------------------------------------------------------------------------------


    POTLOK:  cpu time    0.0276: real time    0.0276


--------------------------------------------------------------------------------------------------------




--------------------------------------------------------------------------------------------------------


    WAVPRE:  cpu time    0.2068: real time    0.2957
    FEWALD:  cpu time    0.0002: real time    0.0002
    GENKIN:  cpu time    0.0148: real time    0.0149
    ORTHCH:  cpu time    0.0256: real time    0.0258
     LOOP+:  cpu time    6.9694: real time    7.0975


--------------------------------------- Iteration      2(   1)  ---------------------------------------


    POTLOK:  cpu time    0.0286: real time    0.0349
    SETDIJ:  cpu time    0.0027: real time    0.0027
     EDDAV:  cpu time    0.4726: real time    0.4761
       DOS:  cpu time    0.0008: real time    0.0008
    CHARGE:  cpu time    0.0352: real time    0.0354
    MIXING:  cpu time    0.0009: real time    0.0009
    --------------------------------------------
      LOOP:  cpu time    0.5408: real time    0.5509

 eigenvalue-minimisations  :  1204
 total energy-change (2. order) :-0.1477038E-01  (-0.5616350E-01)
 number of electron      17.9999992 magnetization 
 augmentation part       -3.6022098 magnetization 

 Broyden mixing:
  rms(total) = 0.57686E-01    rms(broyden)= 0.57686E-01
  rms(prec ) = 0.61360E-01
  weight for this iteration     100.00

 Free energy of the ion-electron system (eV)
  ---------------------------------------------------
  alpha Z        PSCENC =         2.29126682
  Ewald energy   TEWEN  =      -673.99088519
  -Hartree energ DENC   =       -44.15736774
  -exchange      EXHF   =         0.00000000
  -V(xc)+E(xc)   XCENC  =       -83.94285714
  PAW double counting   =      1574.57147525    -1459.24211895
  entropy T*S    EENTRO =        -0.00009189
  eigenvalues    EBANDS =         5.25055112
  atomic energy  EATOM  =       669.81430600
  Solvation  Ediel_sol  =         0.00000000
  ---------------------------------------------------
  free energy    TOTEN  =        -9.40572172 eV

  energy without entropy =       -9.40562983  energy(sigma->0) =       -9.40567577


--------------------------------------------------------------------------------------------------------




--------------------------------------- Iteration      2(   2)  ---------------------------------------


    POTLOK:  cpu time    0.0213: real time    0.0215
    SETDIJ:  cpu time    0.0028: real time    0.0028
     EDDAV:  cpu time    0.5441: real time    0.5482
       DOS:  cpu time    0.0008: real time    0.0008
    CHARGE:  cpu time    0.0350: real time    0.0352
    MIXING:  cpu time    0.0010: real time    0.0010
    --------------------------------------------
      LOOP:  cpu time    0.6050: real time    0.6096

 eigenvalue-minimisations  :  1462
 total energy-change (2. order) :-0.2005846E-02  (-0.2377282E-02)
 number of electron      17.9999992 magnetization 
 augmentation part       -3.6067199 magnetization 

 Broyden mixing:
  rms(total) = 0.13089E-01    rms(broyden)= 0.13089E-01
  rms(prec ) = 0.18630E-01
  weight for this iteration     100.00

 eigenvalues of (default mixing * dielectric matrix)
  average eigenvalue GAMMA=   1.0438
  1.0438

 Free energy of the ion-electron system (eV)
  ---------------------------------------------------
  alpha Z        PSCENC =         2.29126682
  Ewald energy   TEWEN  =      -673.99088519
  -Hartree energ DENC   =       -44.04468771
  -exchange      EXHF   =         0.00000000
  -V(xc)+E(xc)   XCENC  =       -83.94336903
  PAW double counting   =      1556.52450370    -1441.18697191
  entropy T*S    EENTRO =        -0.00009121
  eigenvalues    EBANDS =         5.12820099
  atomic energy  EATOM  =       669.81430600
  Solvation  Ediel_sol  =         0.00000000
  ---------------------------------------------------
  free energy    TOTEN  =        -9.40772756 eV

  energy without entropy =       -9.40763635  energy(sigma->0) =       -9.40768196


--------------------------------------------------------------------------------------------------------




--------------------------------------- Iteration      2(   3)  ---------------------------------------


    POTLOK:  cpu time    0.0215: real time    0.0217
    SETDIJ:  cpu time    0.0029: real time    0.0029
     EDDAV:  cpu time    0.5281: real time    0.5323
       DOS:  cpu time    0.0008: real time    0.0008
    CHARGE:  cpu time    0.0347: real time    0.0350
    MIXING:  cpu time    0.0011: real time    0.0011
    --------------------------------------------
      LOOP:  cpu time    0.5890: real time    0.5937

 eigenvalue-minimisations  :  1414
 total energy-change (2. order) : 0.1382998E-03  (-0.3769938E-04)
 number of electron      17.9999992 magnetization 
 augmentation part       -3.6080694 magnetization 

 Broyden mixing:
  rms(total) = 0.94645E-02    rms(broyden)= 0.94645E-02
  rms(prec ) = 0.11623E-01
  weight for this iteration     100.00

 eigenvalues of (default mixing * dielectric matrix)
  average eigenvalue GAMMA=   1.8620
  1.0859  2.6381

 Free energy of the ion-electron system (eV)
  ---------------------------------------------------
  alpha Z        PSCENC =         2.29126682
  Ewald energy   TEWEN  =      -673.99088519
  -Hartree energ DENC   =       -43.98083575
  -exchange      EXHF   =         0.00000000
  -V(xc)+E(xc)   XCENC  =       -83.94392841
  PAW double counting   =      1553.12869841    -1437.78687617
  entropy T*S    EENTRO =        -0.00009868
  eigenvalues    EBANDS =         5.06076371
  atomic energy  EATOM  =       669.81430600
  Solvation  Ediel_sol  =         0.00000000
  ---------------------------------------------------
  free energy    TOTEN  =        -9.40758926 eV

  energy without entropy =       -9.40749058  energy(sigma->0) =       -9.40753992


--------------------------------------------------------------------------------------------------------




--------------------------------------- Iteration      2(   4)  ---------------------------------------


    POTLOK:  cpu time    0.0215: real time    0.0217
    SETDIJ:  cpu time    0.0028: real time    0.0028
     EDDAV:  cpu time    0.5189: real time    0.5232
       DOS:  cpu time    0.0008: real time    0.0008
    CHARGE:  cpu time    0.0356: real time    0.0359
    MIXING:  cpu time    0.0011: real time    0.0011
    --------------------------------------------
      LOOP:  cpu time    0.5807: real time    0.5855

 eigenvalue-minimisations  :  1396
 total energy-change (2. order) : 0.3562965E-04  (-0.1638124E-04)
 number of electron      17.9999992 magnetization 
 augmentation part       -3.6093751 magnetization 

 Broyden mixing:
  rms(total) = 0.46005E-02    rms(broyden)= 0.46005E-02
  rms(prec ) = 0.47441E-02
  weight for this iteration     100.00

 eigenvalues of (default mixing * dielectric matrix)
  average eigenvalue GAMMA=   1.8093
  2.9061  0.9919  1.5300

 Free energy of the ion-electron system (eV)
  ---------------------------------------------------
  alpha Z        PSCENC =         2.29126682
  Ewald energy   TEWEN  =      -673.99088519
  -Hartree energ DENC   =       -43.91990187
  -exchange      EXHF   =         0.00000000
  -V(xc)+E(xc)   XCENC  =       -83.94493532
  PAW double counting   =      1550.27907442    -1434.93354545
  entropy T*S    EENTRO =        -0.00010400
  eigenvalues    EBANDS =         4.99717095
  atomic energy  EATOM  =       669.81430600
  Solvation  Ediel_sol  =         0.00000000
  ---------------------------------------------------
  free energy    TOTEN  =        -9.40755364 eV

  energy without entropy =       -9.40744963  energy(sigma->0) =       -9.40750164


--------------------------------------------------------------------------------------------------------




--------------------------------------- Iteration      2(   5)  ---------------------------------------


    POTLOK:  cpu time    0.0214: real time    0.0216
    SETDIJ:  cpu time    0.0027: real time    0.0027
     EDDAV:  cpu time    0.3695: real time    0.3724
       DOS:  cpu time    0.0008: real time    0.0008
    --------------------------------------------
      LOOP:  cpu time    0.3944: real time    0.3976

 eigenvalue-minimisations  :   806
 total energy-change (2. order) : 0.1809586E-06  (-0.1506017E-05)
 number of electron      17.9999992 magnetization 
 augmentation part       -3.6093751 magnetization 

 Free energy of the ion-electron system (eV)
  ---------------------------------------------------
  alpha Z        PSCENC =         2.29126682
  Ewald energy   TEWEN  =      -673.99088519
  -Hartree energ DENC   =       -43.91557709
  -exchange      EXHF   =         0.00000000
  -V(xc)+E(xc)   XCENC  =       -83.94570391
  PAW double counting   =      1549.79429378    -1434.44907395
  entropy T*S    EENTRO =        -0.00010268
  eigenvalues    EBANDS =         4.99392277
  atomic energy  EATOM  =       669.81430600
  Solvation  Ediel_sol  =         0.00000000
  ---------------------------------------------------
  free energy    TOTEN  =        -9.40755345 eV

  energy without entropy =       -9.40745077  energy(sigma->0) =       -9.40750211


--------------------------------------------------------------------------------------------------------




 average (electrostatic) potential at core
  the test charge radii are     1.1897
  (the norm of the test charge is              1.0000)
       1 -89.0480       2 -89.0480       3 -89.0480
 
 
 
 E-fermi :   5.9772     XC(G=0):  -9.0586     alpha+bet :-10.5409


 k-point     1 :       0.0000    0.0000    0.0000
  band No.  band energies     occupation 
      1      -7.7021      2.00000
      2      -4.4077      2.00000
      3      -4.4077      2.00000
      4       2.8800      2.00000
      5       3.1642      2.00000
      6       3.1642      2.00000
      7       4.2783      2.00000
      8       4.2783      2.00000
      9       5.1451      2.00000
     10       6.9228      0.00000
     11       6.9228      0.00000
     12       7.5744      0.00000
     13      10.8631      0.00000
     14      10.8631      0.00000

 k-point     2 :       0.1111    0.0000    0.0000
  band No.  band energies     occupation 
      1      -7.6196      2.00000
      2      -4.4305      2.00000
      3      -4.3832      2.00000
      4       2.2496      2.00000
      5       2.7464      2.00000
      6       3.0091      2.00000
      7       4.5257      2.00000
      8       4.8273      2.00000
      9       5.2800      2.00000
     10       6.6757      0.00000
     11       6.8682      0.00000
     12       7.4651      0.00000
     13      10.6455      0.00000
     14      10.8373      0.00000

 k-point     3 :       0.2222    0.0000    0.0000
  band No.  band energies     occupation 
      1      -7.3835      2.00000
      2      -4.5372      2.00000
      3      -4.3165      2.00000
      4       1.4623      2.00000
      5       2.1725      2.00000
      6       2.6571      2.00000
      7       4.5948      2.00000
      8       4.9164      2.00000
      9       5.1039      2.00000
     10       6.7937      0.00000
     11       6.9887      0.00000
     12       7.6350      0.00000
     13       9.9282      0.00000
     14      11.0875      0.00000

 k-point     4 :       0.3333   -0.0000    0.0000
  band No.  band energies     occupation 
      1      -7.0413      2.00000
      2      -4.7788      2.00000
      3      -4.2328      2.00000
      4       1.0758      2.00000
      5       1.7214      2.00000
      6       2.3607      2.00000
      7       3.5513      2.00000
      8       4.9281      2.00000
      9       5.1091      2.00000
     10       6.7943      0.00000
     11       6.9693      0.00000
     12       8.6933      0.00000
     13       9.2951      0.00000
     14      11.8825      0.00000

 k-point     5 :       0.4444    0.0000    0.0000
  band No.  band energies     occupation 
      1      -6.7303      2.00000
      2      -5.0548      2.00000
      3      -4.1734      2.00000
      4       1.0389      2.00000
      5       1.5166      2.00000
      6       2.2797      2.00000
      7       2.6639      2.00000
      8       4.8619      2.00000
      9       5.0956      2.00000
     10       6.7960      0.00000
     11       6.8950      0.00000
     12       8.9544      0.00000
     13       9.5121      0.00000
     14      12.9901      0.00000

 k-point     6 :       0.1111    0.1111    0.0000
  band No.  band energies     occupation 
      1      -7.4599      2.00000
      2      -4.4806      2.00000
      3      -4.3536      2.00000
      4       1.7187      2.00000
      5       2.0681      2.00000
      6       3.0574      2.00000
      7       4.3593      2.00000
      8       5.1090      2.00000
      9       5.1471      2.00000
     10       6.7124      0.00000
     11       7.0219      0.00000
     12       7.5301      0.00000
     13      10.4263      0.00000
     14      10.5264      0.00000

 k-point     7 :       0.2222    0.1111    0.0000
  band No.  band energies     occupation 
      1      -7.1676      2.00000
      2      -4.6307      2.00000
      3      -4.3139      2.00000
      4       1.2368      2.00000
      5       1.6279      2.00000
      6       2.7670      2.00000
      7       4.0814      2.00000
      8       4.4324      2.00000
      9       4.8465      2.00000
     10       7.1521      0.00000
     11       7.4586      0.00000
     12       8.0508      0.00000
     13       9.8593      0.00000
     14      10.8248      0.00000

 k-point     8 :       0.3333    0.1111    0.0000
  band No.  band energies     occupation 
      1      -6.8239      2.00000
      2      -4.8947      2.00000
      3      -4.2728      2.00000
      4       1.0858      2.00000
      5       1.4700      2.00000
      6       2.4249      2.00000
      7       3.1149      2.00000
      8       4.3820      2.00000
      9       4.6003      2.00000
     10       7.2628      0.00000
     11       7.5260      0.00000
     12       9.0728      0.00000
     13       9.4444      0.00000
     14      11.7554      0.00000

 k-point     9 :       0.4444    0.1111    0.0000
  band No.  band energies     occupation 
      1      -6.6417      2.00000
      2      -5.0583      2.00000
      3      -4.2549      2.00000
      4       1.1106      2.00000
      5       1.4720      2.00000
      6       2.4435      2.00000
      7       2.4791      2.00000
      8       4.3888      2.00000
      9       4.4971      2.00000
     10       7.2661      0.00000
     11       7.5412      0.00000
     12       9.2946      0.00000
     13       9.5427      0.00000
     14      12.7254      0.00000

 k-point    10 :       0.2222    0.2222    0.0000
  band No.  band energies     occupation 
      1      -6.8629      2.00000
      2      -4.7511      2.00000
      3      -4.3971      2.00000
      4       1.2030      2.00000
      5       1.3169      2.00000
      6       2.7283      2.00000
      7       3.5815      2.00000
      8       3.9195      2.00000
      9       3.9652      2.00000
     10       7.9054      0.00000
     11       8.2000      0.00000
     12       8.4071      0.00000
     13      10.2318      0.00000
     14      10.6307      0.00000

 k-point    11 :       0.3333    0.2222    0.0000
  band No.  band energies     occupation 
      1      -6.6006      2.00000
      2      -4.8969      2.00000
      3      -4.4756      2.00000
      4       1.2549      2.00000
      5       1.3946      2.00000
      6       2.5689      2.00000
      7       2.8840      2.00000
      8       3.6066      2.00000
      9       3.6900      2.00000
     10       8.1318      0.00000
     11       8.4623      0.00000
     12       9.1573      0.00000
     13      10.1854      0.00000
     14      11.5160      0.00000

 k-point    12 :       0.3333    0.3333    0.0000
  band No.  band energies     occupation 
      1      -6.5017      2.00000
      2      -4.7372      2.00000
      3      -4.7372      2.00000
      4       1.4044      2.00000
      5       1.4044      2.00000
      6       2.8480      2.00000
      7       2.8480      2.00000
      8       3.0187      2.00000
      9       3.2489      2.00000
     10       8.7814      0.00000
     11       8.7814      0.00000
     12       9.1068      0.00000
     13      10.7886      0.00000
     14      11.8024      0.00000

 k-point    13 :       0.0000    0.0000    0.2500
  band No.  band energies     occupation 
      1      -7.4778      2.00000
      2      -5.7601      2.00000
      3      -3.0108      2.00000
      4       2.4159      2.00000
      5       3.0079      2.00000
      6       3.4402      2.00000
      7       4.4473      2.00000
      8       4.4873      2.00000
      9       5.1027      2.00000
     10       6.6188      0.00000
     11       6.6500      0.00000
     12       7.0703      0.00000
     13      10.2965      0.00000
     14      11.4136      0.00000

 k-point    14 :       0.1111    0.0000    0.2500
  band No.  band energies     occupation 
      1      -7.3986      2.00000
      2      -5.7087      2.00000
      3      -3.1125      2.00000
      4       2.1431      2.00000
      5       2.8391      2.00000
      6       3.2975      2.00000
      7       4.1846      2.00000
      8       4.5877      2.00000
      9       4.7535      2.00000
     10       6.8928      0.00000
     11       7.0065      0.00000
     12       7.4214      0.00000
     13      10.3943      0.00000
     14      11.3834      0.00000

 k-point    15 :       0.2222    0.0000    0.2500
  band No.  band energies     occupation 
      1      -7.1762      2.00000
      2      -5.5618      2.00000
      3      -3.4342      2.00000
      4       1.7826      2.00000
      5       2.4288      2.00000
      6       3.0185      2.00000
      7       3.5256      2.00000
      8       4.1404      2.00000
      9       4.6680      2.00000
     10       7.2265      0.00000
     11       7.7927      0.00000
     12       8.2166      0.00000
     13      10.6854      0.00000
     14      11.1090      0.00000

 k-point    16 :       0.3333   -0.0000    0.2500
  band No.  band energies     occupation 
      1      -6.8616      2.00000
      2      -5.3794      2.00000
      3      -3.8792      2.00000
      4       1.4591      2.00000
      5       1.8576      2.00000
      6       2.6868      2.00000
      7       3.0753      2.00000
      8       4.1269      2.00000
      9       4.5623      2.00000
     10       7.2707      0.00000
     11       7.9505      0.00000
     12       9.0392      0.00000
     13      10.2616      0.00000
     14      11.5516      0.00000

 k-point    17 :       0.4444    0.0000    0.2500
  band No.  band energies     occupation 
      1      -6.5753      2.00000
      2      -5.3391      2.00000
      3      -4.1280      2.00000
      4       0.9040      2.00000
      5       1.5360      2.00000
      6       2.4058      2.00000
      7       3.4874      2.00000
      8       4.1549      2.00000
      9       4.4827      2.00000
     10       7.1651      0.00000
     11       7.9072      0.00000
     12       8.8743      0.00000
     13       9.8289      0.00000
     14      11.9470      0.00000

 k-point    18 :      -0.4444   -0.0000    0.2500
  band No.  band energies     occupation 
      1      -6.5472      2.00000
      2      -5.4613      2.00000
      3      -3.9649      2.00000
      4       0.5887      2.00000
      5       1.4360      2.00000
      6       2.3705      2.00000
      7       4.1641      2.00000
      8       4.2749      2.00000
      9       4.6005      2.00000
     10       7.0429      0.00000
     11       7.7200      0.00000
     12       8.1407      0.00000
     13       9.5440      0.00000
     14      12.4655      0.00000

 k-point    19 :      -0.3333    0.0000    0.2500
  band No.  band energies     occupation 
      1      -6.8319      2.00000
      2      -5.5267      2.00000
      3      -3.6293      2.00000
      4       0.7905      2.00000
      5       1.5287      2.00000
      6       2.5222      2.00000
      7       4.4590      2.00000
      8       4.5107      2.00000
      9       5.3448      2.00000
     10       6.7478      0.00000
     11       7.3326      0.00000
     12       7.5382      0.00000
     13       9.4453      0.00000
     14      12.5085      0.00000

 k-point    20 :      -0.2222   -0.0000    0.2500
  band No.  band energies     occupation 
      1      -7.1660      2.00000
      2      -5.6151      2.00000
      3      -3.3116      2.00000
      4       1.4894      2.00000
      5       1.8270      2.00000
      6       2.8173      2.00000
      7       4.6689      2.00000
      8       4.8129      2.00000
      9       5.4562      2.00000
     10       6.5457      0.00000
     11       7.0214      0.00000
     12       7.2706      0.00000
     13       9.6367      0.00000
     14      11.9758      0.00000

 k-point    21 :      -0.1111   -0.0000    0.2500
  band No.  band energies     occupation 
      1      -7.3973      2.00000
      2      -5.7155      2.00000
      3      -3.0930      2.00000
      4       2.1657      2.00000
      5       2.5303      2.00000
      6       3.1907      2.00000
      7       4.6356      2.00000
      8       4.7524      2.00000
      9       5.0567      2.00000
     10       6.5933      0.00000
     11       6.6143      0.00000
     12       7.4130      0.00000
     13      10.1081      0.00000
     14      11.4199      0.00000

 k-point    22 :       0.1111    0.1111    0.2500
  band No.  band energies     occupation 
      1      -7.2443      2.00000
      2      -5.6260      2.00000
      3      -3.2849      2.00000
      4       1.8155      2.00000
      5       2.1504      2.00000
      6       3.0449      2.00000
      7       4.0513      2.00000
      8       4.6425      2.00000
      9       5.0462      2.00000
     10       6.8277      0.00000
     11       7.3858      0.00000
     12       7.5963      0.00000
     13      10.1463      0.00000
     14      11.4181      0.00000

 k-point    23 :       0.2222    0.1111    0.2500
  band No.  band energies     occupation 
      1      -6.9713      2.00000
      2      -5.4631      2.00000
      3      -3.6755      2.00000
      4       1.4641      2.00000
      5       1.8719      2.00000
      6       2.8525      2.00000
      7       3.1330      2.00000
      8       4.2247      2.00000
      9       5.1662      2.00000
     10       6.9837      0.00000
     11       7.7375      0.00000
     12       8.6623      0.00000
     13      10.4942      0.00000
     14      10.9754      0.00000

 k-point    24 :       0.3333    0.1111    0.2500
  band No.  band energies     occupation 
      1      -6.6578      2.00000
      2      -5.3283      2.00000
      3      -4.0686      2.00000
      4       1.1618      2.00000
      5       1.4297      2.00000
      6       2.5207      2.00000
      7       3.1567      2.00000
      8       3.8879      2.00000
      9       5.1904      2.00000
     10       6.9072      0.00000
     11       8.0628      0.00000
     12       9.0291      0.00000
     13      10.1348      0.00000
     14      11.6522      0.00000

 k-point    25 :       0.4444    0.1111    0.2500
  band No.  band energies     occupation 
      1      -6.4787      2.00000
      2      -5.3802      2.00000
      3      -4.1292      2.00000
      4       0.7315      2.00000
      5       1.3065      2.00000
      6       2.4182      2.00000
      7       3.3807      2.00000
      8       4.0384      2.00000
      9       5.1999      2.00000
     10       6.8304      0.00000
     11       8.1155      0.00000
     12       8.5228      0.00000
     13       9.8986      0.00000
     14      12.3174      0.00000

 k-point    26 :      -0.4444    0.1111    0.2500
  band No.  band energies     occupation 
      1      -6.6294      2.00000
      2      -5.4608      2.00000
      3      -3.8797      2.00000
      4       0.6567      2.00000
      5       1.4380      2.00000
      6       2.4513      2.00000
      7       3.4357      2.00000
      8       4.7801      2.00000
      9       5.2710      2.00000
     10       6.7260      0.00000
     11       7.6079      0.00000
     12       8.1455      0.00000
     13       9.7942      0.00000
     14      12.2680      0.00000

 k-point    27 :      -0.3333    0.1111    0.2500
  band No.  band energies     occupation 
      1      -6.9592      2.00000
      2      -5.5245      2.00000
      3      -3.5592      2.00000
      4       1.1069      2.00000
      5       1.6899      2.00000
      6       2.6760      2.00000
      7       3.6549      2.00000
      8       4.9784      2.00000
      9       5.6026      2.00000
     10       6.4940      0.00000
     11       7.2219      0.00000
     12       7.9665      0.00000
     13       9.8317      0.00000
     14      11.6321      0.00000

 k-point    28 :       0.2222    0.2222    0.2500
  band No.  band energies     occupation 
      1      -6.6779      2.00000
      2      -5.3916      2.00000
      3      -3.9418      2.00000
      4       0.9075      2.00000
      5       1.5416      2.00000
      6       2.4400      2.00000
      7       2.9753      2.00000
      8       4.5604      2.00000
      9       5.4570      2.00000
     10       6.8146      0.00000
     11       7.6577      0.00000
     12       8.7628      0.00000
     13      10.4641      0.00000
     14      11.0312      0.00000

 k-point    29 :       0.3333    0.2222    0.2500
  band No.  band energies     occupation 
      1      -6.4388      2.00000
      2      -5.3208      2.00000
      3      -4.2161      2.00000
      4       0.8763      2.00000
      5       1.1824      2.00000
      6       2.0975      2.00000
      7       3.2018      2.00000
      8       4.1736      2.00000
      9       5.2514      2.00000
     10       7.0686      0.00000
     11       8.2027      0.00000
     12       8.7580      0.00000
     13      10.4986      0.00000
     14      11.6039      0.00000

 k-point    30 :       0.4444    0.2222    0.2500
  band No.  band energies     occupation 
      1      -6.4304      2.00000
      2      -5.3579      2.00000
      3      -4.1714      2.00000
      4       0.7301      2.00000
      5       1.2547      2.00000
      6       2.1146      2.00000
      7       3.1544      2.00000
      8       4.4676      2.00000
      9       5.1181      2.00000
     10       7.1961      0.00000
     11       7.9656      0.00000
     12       8.6325      0.00000
     13      10.4327      0.00000
     14      11.8268      0.00000

 k-point    31 :       0.3333    0.3333    0.2500
  band No.  band energies     occupation 
      1      -6.3408      2.00000
      2      -5.3117      2.00000
      3      -4.2962      2.00000
      4       0.8221      2.00000
      5       1.1598      2.00000
      6       1.7610      2.00000
      7       3.3644      2.00000
      8       4.3830      2.00000
      9       4.8253      2.00000
     10       7.6606      0.00000
     11       8.2996      0.00000
     12       8.3848      0.00000
     13      11.2439      0.00000
     14      11.5422      0.00000

 k-point    32 :       0.0000    0.0000    0.5000
  band No.  band energies     occupation 
      1      -6.8165      2.00000
      2      -6.8165      2.00000
      3      -2.2846      2.00000
      4       1.8992      2.00000
      5       3.2848      2.00000
      6       3.2848      2.00000
      7       4.5986      2.00000
      8       4.9046      2.00000
      9       4.9046      2.00000
     10       6.4281      0.00000
     11       6.4834      0.00000
     12       6.4834      0.00000
     13       9.9177      0.00000
     14      11.2192      0.00000

 k-point    33 :       0.1111    0.0000    0.5000
  band No.  band energies     occupation 
      1      -6.7544      2.00000
      2      -6.7383      2.00000
      3      -2.4613      2.00000
      4       1.8603      2.00000
      5       3.0911      2.00000
      6       3.1857      2.00000
      7       4.1327      2.00000
      8       4.4981      2.00000
      9       4.7478      2.00000
     10       6.6745      0.00000
     11       6.8911      0.00000
     12       7.3013      0.00000
     13      10.1527      0.00000
     14      10.9053      0.00000

 k-point    34 :       0.2222    0.0000    0.5000
  band No.  band energies     occupation 
      1      -6.5869      2.00000
      2      -6.5139      2.00000
      3      -2.9199      2.00000
      4       1.5507      2.00000
      5       2.4932      2.00000
      6       2.8904      2.00000
      7       3.9296      2.00000
      8       4.0893      2.00000
      9       4.5683      2.00000
     10       7.1088      0.00000
     11       7.6200      0.00000
     12       8.0756      0.00000
     13      10.3828      0.00000
     14      11.0865      0.00000

 k-point    35 :       0.3333   -0.0000    0.5000
  band No.  band energies     occupation 
      1      -6.3748      2.00000
      2      -6.1858      2.00000
      3      -3.4931      2.00000
      4       0.8357      2.00000
      5       2.2372      2.00000
      6       2.5729      2.00000
      7       3.6937      2.00000
      8       3.9489      2.00000
      9       4.8674      2.00000
     10       7.3306      0.00000
     11       7.8999      0.00000
     12       8.2053      0.00000
     13      10.4057      0.00000
     14      11.3975      0.00000

 k-point    36 :       0.4444    0.0000    0.5000
  band No.  band energies     occupation 
      1      -6.2203      2.00000
      2      -5.8846      2.00000
      3      -3.9443      2.00000
      4       0.3260      2.00000
      5       2.2129      2.00000
      6       2.3404      2.00000
      7       3.5279      2.00000
      8       3.8526      2.00000
      9       5.5047      2.00000
     10       6.8230      0.00000
     11       7.8202      0.00000
     12       8.4541      0.00000
     13      10.4451      0.00000
     14      11.2150      0.00000

 k-point    37 :       0.1111    0.1111    0.5000
  band No.  band energies     occupation 
      1      -6.6358      2.00000
      2      -6.5903      2.00000
      3      -2.7761      2.00000
      4       1.7080      2.00000
      5       2.7200      2.00000
      6       2.7970      2.00000
      7       3.8922      2.00000
      8       4.0899      2.00000
      9       4.9881      2.00000
     10       6.5976      0.00000
     11       7.7187      0.00000
     12       7.8917      0.00000
     13      10.5758      0.00000
     14      10.6460      0.00000

 k-point    38 :       0.2222    0.1111    0.5000
  band No.  band energies     occupation 
      1      -6.4346      2.00000
      2      -6.3210      2.00000
      3      -3.2812      2.00000
      4       1.2156      2.00000
      5       2.1189      2.00000
      6       2.3281      2.00000
      7       3.8922      2.00000
      8       4.2607      2.00000
      9       4.9830      2.00000
     10       6.9189      0.00000
     11       8.0038      0.00000
     12       8.1703      0.00000
     13      10.4660      0.00000
     14      11.2829      0.00000

 k-point    39 :       0.3333    0.1111    0.5000
  band No.  band energies     occupation 
      1      -6.2362      2.00000
      2      -6.0022      2.00000
      3      -3.7902      2.00000
      4       0.5853      2.00000
      5       1.8486      2.00000
      6       2.0018      2.00000
      7       3.9856      2.00000
      8       4.3524      2.00000
      9       5.2544      2.00000
     10       7.0727      0.00000
     11       7.6577      0.00000
     12       8.2378      0.00000
     13      10.5005      0.00000
     14      11.4703      0.00000

 k-point    40 :       0.4444    0.1111    0.5000
  band No.  band energies     occupation 
      1      -6.1509      2.00000
      2      -5.8324      2.00000
      3      -4.0314      2.00000
      4       0.3243      2.00000
      5       1.8012      2.00000
      6       1.8566      2.00000
      7       4.1246      2.00000
      8       4.1938      2.00000
      9       5.7300      2.00000
     10       6.6347      0.00000
     11       7.6644      0.00000
     12       8.2495      0.00000
     13      10.5806      0.00000
     14      11.2567      0.00000

 k-point    41 :       0.2222    0.2222    0.5000
  band No.  band energies     occupation 
      1      -6.2203      2.00000
      2      -6.0748      2.00000
      3      -3.7111      2.00000
      4       0.8909      2.00000
      5       1.4407      2.00000
      6       1.7500      2.00000
      7       4.3022      2.00000
      8       4.6810      2.00000
      9       5.4090      2.00000
     10       6.7605      0.00000
     11       7.8619      0.00000
     12       7.9145      0.00000
     13      10.7403      0.00000
     14      11.5954      0.00000

 k-point    42 :       0.3333    0.2222    0.5000
  band No.  band energies     occupation 
      1      -6.0534      2.00000
      2      -5.8767      2.00000
      3      -4.0283      2.00000
      4       0.5755      2.00000
      5       1.1917      2.00000
      6       1.3591      2.00000
      7       4.6330      2.00000
      8       5.0787      2.00000
      9       5.7000      2.00000
     10       6.6363      0.00000
     11       7.3841      0.00000
     12       7.7202      0.00000
     13      11.0855      0.00000
     14      11.7858      0.00000

 k-point    43 :       0.3333    0.3333    0.5000
  band No.  band energies     occupation 
      1      -5.9015      2.00000
      2      -5.9015      2.00000
      3      -4.1149      2.00000
      4       0.7452      2.00000
      5       0.9385      2.00000
      6       0.9385      2.00000
      7       4.8919      2.00000
      8       5.9092      1.94573
      9       5.9092      1.94573
     10       6.0340      0.10854
     11       7.2918      0.00000
     12       7.2918      0.00000
     13      11.8132      0.00000
     14      12.4090      0.00000


--------------------------------------------------------------------------------------------------------


 soft charge-density along one line, spin component           1
         0         1         2         3         4         5         6         7         8         9
 total charge-density along one line
 
 pseudopotential strength for first ion, spin component:           1
 51.662  56.209  -0.000  -0.000  -0.053  -0.000  -0.000  -0.077
 56.209  61.161  -0.000  -0.000  -0.058  -0.000  -0.000  -0.084
 -0.000  -0.000  12.718   0.010   0.000  18.333   0.014   0.000
 -0.000  -0.000   0.010  12.735   0.000   0.014  18.357   0.000
 -0.053  -0.058   0.000   0.000  12.735   0.000   0.000  18.356
 -0.000  -0.000  18.333   0.014   0.000  26.435   0.020   0.000
 -0.000  -0.000   0.014  18.357   0.000   0.020  26.470   0.000
 -0.077  -0.084   0.000   0.000  18.356   0.000   0.000  26.468
  0.000   0.000  -0.011   0.000  -0.000  -0.015   0.000  -0.000
  0.015   0.017   0.000  -0.000   0.000   0.000  -0.000   0.000
  0.008   0.009   0.000  -0.000   0.006   0.000  -0.000   0.009
  0.000   0.000   0.000  -0.010  -0.000   0.000  -0.015  -0.000
  0.013   0.014   0.000  -0.000  -0.010   0.000  -0.000  -0.015
 total augmentation occupancy for first ion, spin component:           1
 13.432  -9.875   0.000   0.000   2.316   0.000  -0.000  -0.621   0.000  -0.175  -0.110   0.000  -0.123
 -9.875   8.535   0.000   0.000  -1.952   0.000   0.000   0.535   0.000   0.159   0.099   0.000   0.111
  0.000  -0.000   2.574   0.256   0.000  -0.500  -0.212   0.000  -0.059   0.000   0.000  -0.053   0.000
 -0.000  -0.000   0.256   2.997   0.000  -0.212  -0.855   0.000  -0.051   0.000   0.000  -0.133   0.000
  2.316  -1.952   0.000   0.000   2.850   0.000   0.000  -0.768   0.000  -0.058  -0.018   0.000  -0.058
  0.000   0.000  -0.500  -0.212   0.000   0.181   0.082   0.000   0.014   0.000  -0.000   0.020   0.000
  0.000   0.000  -0.212  -0.855   0.000   0.082   0.314   0.000   0.020   0.000   0.000   0.041   0.000
 -0.621   0.535   0.000  -0.000  -0.768   0.000   0.000   0.271   0.000   0.017   0.005   0.000   0.015
  0.000   0.000  -0.059  -0.051   0.000   0.014   0.020   0.000   0.009   0.000   0.000   0.011   0.000
 -0.175   0.159   0.000   0.000  -0.058   0.000   0.000   0.017   0.000   0.015   0.004   0.000   0.003
 -0.110   0.099   0.000   0.000  -0.018   0.000   0.000   0.005   0.000   0.004   0.008   0.000  -0.001
  0.000   0.000  -0.053  -0.133   0.000   0.020   0.041   0.000   0.011   0.000   0.000   0.027   0.000
 -0.123   0.111   0.000  -0.000  -0.058   0.000   0.000   0.015   0.000   0.003  -0.001   0.000   0.010


------------------------ aborting loop because EDIFF is reached ----------------------------------------


    CHARGE:  cpu time    0.0350: real time    0.0352
    FORLOC:  cpu time    0.0013: real time    0.0013
    FORNL :  cpu time    0.1243: real time    0.1248
    STRESS:  cpu time    0.2730: real time    0.2744
    FORCOR:  cpu time    0.0222: real time    0.0223
    FORHAR:  cpu time    0.0054: real time    0.0054
    MIXING:  cpu time    0.0011: real time    0.0011
    OFIELD:  cpu time    0.0000: real time    0.0000

 ---------------------------------------------------------------------------------------------

         DFTD3 V3.0 Rev 1        
 Edisp (eV)   -1.28767

 E6    (eV) :    -0.6964
 E8    (eV) :    -0.5912
 % E8        : 45.91
    FORVDW:  cpu time    0.0076: real time    0.0076

  FORCE on cell =-STRESS in cart. coord.  units (eV):
  Direction    XX          YY          ZZ          XY          YZ          ZX
  --------------------------------------------------------------------------------------
  Alpha Z     2.29127     2.29127     2.29127
  Ewald    -238.82379  -238.82378  -196.34384    -0.00000    -0.00001     0.00000
  Hartree    11.08464    11.08464    21.74657     0.00000     0.00000    -0.00000
  E(xc)     -70.48654   -70.48655   -69.99860    -0.00000     0.00000    -0.00000
  Local    -111.14413  -111.14418  -154.42616    -0.00004     0.00000    -0.00000
  n-local   332.65062   333.43944   328.80278    -1.27951    -0.73149    -1.26256
  augment   -81.12808   -81.12803   -78.74861     0.00004    -0.00000     0.00000
  Kinetic   152.77741   159.41864   147.80141    -7.46344     0.16112     1.49034
  Fock        0.00000     0.00000     0.00000     0.00000     0.00000     0.00000
  vdW        -1.38945    -1.38945    -1.36372    -0.00000    -0.00000    -0.00000
  -------------------------------------------------------------------------------------
  Total      -0.45303    -0.45303    -0.23890     0.00000     0.00000     0.00000
  in kB      -7.11467    -7.11467    -3.75178     0.00000     0.00000     0.00000
  external pressure =       -5.99 kB  Pullay stress =        0.00 kB


 VOLUME and BASIS-vectors are now :
 -----------------------------------------------------------------------------
  energy-cutoff  :      520.00
  volume of cell :      102.02
      direct lattice vectors                 reciprocal lattice vectors
     4.447545251  0.000000000 -0.000000000     0.224843131  0.129813242  0.000000000
    -2.223772625  3.851687172  0.000000000     0.000000000  0.259626485  0.000000000
     0.000000000 -0.000000000  5.955379706     0.000000000  0.000000000  0.167915406

  length of vectors
     4.447545251  4.447545251  5.955379706     0.259626485  0.259626485  0.167915406


 FORCES acting on ions
    electron-ion (+dipol)            ewald-force                    non-local-force                 convergence-correction
 -----------------------------------------------------------------------------------------------
   -.124E+02 0.118E-04 -.118E-05   0.178E+02 0.151E-05 0.174E-05   -.514E+01 -.277E-16 0.000E+00   -.825E-03 -.115E-07 -.152E-08
   0.622E+01 -.108E+02 -.182E-04   -.890E+01 0.154E+02 -.861E-05   0.257E+01 -.445E+01 0.000E+00   0.412E-03 -.714E-03 0.630E-07
   0.622E+01 0.108E+02 0.190E-04   -.890E+01 -.154E+02 0.687E-05   0.257E+01 0.445E+01 0.000E+00   0.412E-03 0.714E-03 -.615E-07
 -----------------------------------------------------------------------------------------------
   0.255E-04 -.753E-05 -.339E-06   0.000E+00 -.178E-14 0.000E+00   -.888E-15 0.000E+00 0.000E+00   -.649E-08 -.826E-08 -.270E-11
 
 
 POSITION                                       TOTAL-FORCE (eV/Angst)
 -----------------------------------------------------------------------------------
      1.18297     -0.00000      1.98513         0.237381      0.000000     -0.000000
     -0.59149      1.02448      3.97025        -0.118690      0.205578      0.000000
      1.63229      2.82720     -0.00000        -0.118690     -0.205578      0.000000
 -----------------------------------------------------------------------------------
    total drift:                                0.000026     -0.000008     -0.000000


--------------------------------------------------------------------------------------------------------



  FREE ENERGIE OF THE ION-ELECTRON SYSTEM (eV)
  ---------------------------------------------------
  free  energy   TOTEN  =       -10.69521885 eV

  energy  without entropy=      -10.69511617  energy(sigma->0) =      -10.69516751
 
 d Force = 0.1629303E-01[ 0.127E-01, 0.199E-01]  d Energy = 0.1792384E-01-0.163E-02
 d Force = 0.9958873E+00[ 0.954E+00, 0.104E+01]  d Ewald  = 0.1366708E+01-0.371E+00


--------------------------------------------------------------------------------------------------------


    POTLOK:  cpu time    0.0246: real time    0.0248


--------------------------------------------------------------------------------------------------------


 Steepest descent step on ions:
 trial-energy change:   -0.017924  1 .order   -0.018068   -0.022096   -0.014040
  (g-gl).g = 0.221E-01      g.g   = 0.221E-01  gl.gl    = 0.000E+00
 g(Force)  = 0.199E-01   g(Stress)= 0.217E-02 ortho     = 0.000E+00
 gamma     =   0.00000
 trial     =   1.00000
 opt step  =   4.00000  (harmonic =   2.74289) maximal distance =0.07159991
 next E    =   -10.712814   (d E  =  -0.03552)


--------------------------------------------------------------------------------------------------------


    WAVPRE:  cpu time    0.0063: real time    0.0211
    FEWALD:  cpu time    0.0002: real time    0.0002
    GENKIN:  cpu time    0.0083: real time    0.0083
    ORTHCH:  cpu time    0.0247: real time    0.0248
     LOOP+:  cpu time    3.2553: real time    3.3149


--------------------------------------- Iteration      3(   1)  ---------------------------------------


    POTLOK:  cpu time    0.0364: real time    0.0502
    SETDIJ:  cpu time    0.0029: real time    0.0029
     EDDAV:  cpu time    0.4770: real time    0.4794
       DOS:  cpu time    0.0008: real time    0.0008
    CHARGE:  cpu time    0.0353: real time    0.0355
    MIXING:  cpu time    0.0009: real time    0.0009
    --------------------------------------------
      LOOP:  cpu time    0.5533: real time    0.5697

 eigenvalue-minimisations  :  1204
 total energy-change (2. order) : 0.7860633E-02  (-0.4927754E+00)
 number of electron      17.9999997 magnetization 
 augmentation part       -3.5868346 magnetization 

 Broyden mixing:
  rms(total) = 0.15368E+00    rms(broyden)= 0.15368E+00
  rms(prec ) = 0.16584E+00
  weight for this iteration     100.00

 Free energy of the ion-electron system (eV)
  ---------------------------------------------------
  alpha Z        PSCENC =         2.29659378
  Ewald energy   TEWEN  =      -677.56804943
  -Hartree energ DENC   =       -42.11533696
  -exchange      EXHF   =         0.00000000
  -V(xc)+E(xc)   XCENC  =       -84.04718686
  PAW double counting   =      1549.50786808    -1434.16279315
  entropy T*S    EENTRO =        -0.00033754
  eigenvalues    EBANDS =         6.87524308
  atomic energy  EATOM  =       669.81430600
  Solvation  Ediel_sol  =         0.00000000
  ---------------------------------------------------
  free energy    TOTEN  =        -9.39969300 eV

  energy without entropy =       -9.39935546  energy(sigma->0) =       -9.39952423


--------------------------------------------------------------------------------------------------------




--------------------------------------- Iteration      3(   2)  ---------------------------------------


    POTLOK:  cpu time    0.0215: real time    0.0216
    SETDIJ:  cpu time    0.0028: real time    0.0028
     EDDAV:  cpu time    0.5472: real time    0.5487
       DOS:  cpu time    0.0008: real time    0.0008
    CHARGE:  cpu time    0.0347: real time    0.0348
    MIXING:  cpu time    0.0010: real time    0.0010
    --------------------------------------------
      LOOP:  cpu time    0.6081: real time    0.6098

 eigenvalue-minimisations  :  1456
 total energy-change (2. order) :-0.1774527E-01  (-0.2101469E-01)
 number of electron      17.9999997 magnetization 
 augmentation part       -3.6038011 magnetization 

 Broyden mixing:
  rms(total) = 0.39330E-01    rms(broyden)= 0.39330E-01
  rms(prec ) = 0.54745E-01
  weight for this iteration     100.00

 eigenvalues of (default mixing * dielectric matrix)
  average eigenvalue GAMMA=   1.0580
  1.0580

 Free energy of the ion-electron system (eV)
  ---------------------------------------------------
  alpha Z        PSCENC =         2.29659378
  Ewald energy   TEWEN  =      -677.56804943
  -Hartree energ DENC   =       -41.78548922
  -exchange      EXHF   =         0.00000000
  -V(xc)+E(xc)   XCENC  =       -84.04675576
  PAW double counting   =      1510.83831064    -1395.47118501
  entropy T*S    EENTRO =        -0.00032888
  eigenvalues    EBANDS =         6.50515961
  atomic energy  EATOM  =       669.81430600
  Solvation  Ediel_sol  =         0.00000000
  ---------------------------------------------------
  free energy    TOTEN  =        -9.41743828 eV

  energy without entropy =       -9.41710940  energy(sigma->0) =       -9.41727384


--------------------------------------------------------------------------------------------------------




--------------------------------------- Iteration      3(   3)  ---------------------------------------


    POTLOK:  cpu time    0.0214: real time    0.0215
    SETDIJ:  cpu time    0.0028: real time    0.0028
     EDDAV:  cpu time    0.5492: real time    0.5507
       DOS:  cpu time    0.0008: real time    0.0008
    CHARGE:  cpu time    0.0360: real time    0.0361
    MIXING:  cpu time    0.0011: real time    0.0011
    --------------------------------------------
      LOOP:  cpu time    0.6114: real time    0.6131

 eigenvalue-minimisations  :  1414
 total energy-change (2. order) : 0.1033537E-02  (-0.3196533E-03)
 number of electron      17.9999996 magnetization 
 augmentation part       -3.6075902 magnetization 

 Broyden mixing:
  rms(total) = 0.28160E-01    rms(broyden)= 0.28160E-01
  rms(prec ) = 0.34096E-01
  weight for this iteration     100.00

 eigenvalues of (default mixing * dielectric matrix)
  average eigenvalue GAMMA=   1.8568
  1.1016  2.6119

 Free energy of the ion-electron system (eV)
  ---------------------------------------------------
  alpha Z        PSCENC =         2.29659378
  Ewald energy   TEWEN  =      -677.56804943
  -Hartree energ DENC   =       -41.61611252
  -exchange      EXHF   =         0.00000000
  -V(xc)+E(xc)   XCENC  =       -84.04816044
  PAW double counting   =      1499.60543800    -1384.22839425
  entropy T*S    EENTRO =        -0.00036351
  eigenvalues    EBANDS =         6.32833764
  atomic energy  EATOM  =       669.81430600
  Solvation  Ediel_sol  =         0.00000000
  ---------------------------------------------------
  free energy    TOTEN  =        -9.41640474 eV

  energy without entropy =       -9.41604123  energy(sigma->0) =       -9.41622298


--------------------------------------------------------------------------------------------------------




--------------------------------------- Iteration      3(   4)  ---------------------------------------


    POTLOK:  cpu time    0.0227: real time    0.0228
    SETDIJ:  cpu time    0.0029: real time    0.0029
     EDDAV:  cpu time    0.5285: real time    0.5298
       DOS:  cpu time    0.0008: real time    0.0008
    CHARGE:  cpu time    0.0344: real time    0.0345
    MIXING:  cpu time    0.0012: real time    0.0012
    --------------------------------------------
      LOOP:  cpu time    0.5905: real time    0.5920

 eigenvalue-minimisations  :  1392
 total energy-change (2. order) : 0.2015793E-03  (-0.1262958E-03)
 number of electron      17.9999996 magnetization 
 augmentation part       -3.6111353 magnetization 

 Broyden mixing:
  rms(total) = 0.13261E-01    rms(broyden)= 0.13261E-01
  rms(prec ) = 0.13682E-01
  weight for this iteration     100.00

 eigenvalues of (default mixing * dielectric matrix)
  average eigenvalue GAMMA=   1.7915
  2.8130  0.9901  1.5714

 Free energy of the ion-electron system (eV)
  ---------------------------------------------------
  alpha Z        PSCENC =         2.29659378
  Ewald energy   TEWEN  =      -677.56804943
  -Hartree energ DENC   =       -41.45782705
  -exchange      EXHF   =         0.00000000
  -V(xc)+E(xc)   XCENC  =       -84.05097755
  PAW double counting   =      1489.39799849    -1374.01298555
  entropy T*S    EENTRO =        -0.00038450
  eigenvalues    EBANDS =         6.16512265
  atomic energy  EATOM  =       669.81430600
  Solvation  Ediel_sol  =         0.00000000
  ---------------------------------------------------
  free energy    TOTEN  =        -9.41620316 eV

  energy without entropy =       -9.41581867  energy(sigma->0) =       -9.41601091


--------------------------------------------------------------------------------------------------------




--------------------------------------- Iteration      3(   5)  ---------------------------------------


    POTLOK:  cpu time    0.0212: real time    0.0213
    SETDIJ:  cpu time    0.0029: real time    0.0029
     EDDAV:  cpu time    0.5134: real time    0.5148
       DOS:  cpu time    0.0008: real time    0.0008
    CHARGE:  cpu time    0.0349: real time    0.0350
    MIXING:  cpu time    0.0012: real time    0.0012
    --------------------------------------------
      LOOP:  cpu time    0.5744: real time    0.5760

 eigenvalue-minimisations  :  1330
 total energy-change (2. order) :-0.1541930E-04  (-0.1273105E-04)
 number of electron      17.9999996 magnetization 
 augmentation part       -3.6111310 magnetization 

 Broyden mixing:
  rms(total) = 0.31133E-02    rms(broyden)= 0.31133E-02
  rms(prec ) = 0.32132E-02
  weight for this iteration     100.00

 eigenvalues of (default mixing * dielectric matrix)
  average eigenvalue GAMMA=   1.7798
  3.1183  0.9487  1.1965  1.8556

 Free energy of the ion-electron system (eV)
  ---------------------------------------------------
  alpha Z        PSCENC =         2.29659378
  Ewald energy   TEWEN  =      -677.56804943
  -Hartree energ DENC   =       -41.44409444
  -exchange      EXHF   =         0.00000000
  -V(xc)+E(xc)   XCENC  =       -84.05334212
  PAW double counting   =      1487.75019683    -1372.36626210
  entropy T*S    EENTRO =        -0.00037950
  eigenvalues    EBANDS =         6.15481240
  atomic energy  EATOM  =       669.81430600
  Solvation  Ediel_sol  =         0.00000000
  ---------------------------------------------------
  free energy    TOTEN  =        -9.41621858 eV

  energy without entropy =       -9.41583908  energy(sigma->0) =       -9.41602883


--------------------------------------------------------------------------------------------------------




--------------------------------------- Iteration      3(   6)  ---------------------------------------


    POTLOK:  cpu time    0.0213: real time    0.0214
    SETDIJ:  cpu time    0.0030: real time    0.0030
     EDDAV:  cpu time    0.3496: real time    0.3507
       DOS:  cpu time    0.0008: real time    0.0008
    --------------------------------------------
      LOOP:  cpu time    0.3747: real time    0.3759

 eigenvalue-minimisations  :   716
 total energy-change (2. order) : 0.1092751E-05  (-0.5550089E-06)
 number of electron      17.9999996 magnetization 
 augmentation part       -3.6111310 magnetization 

 Free energy of the ion-electron system (eV)
  ---------------------------------------------------
  alpha Z        PSCENC =         2.29659378
  Ewald energy   TEWEN  =      -677.56804943
  -Hartree energ DENC   =       -41.44004432
  -exchange      EXHF   =         0.00000000
  -V(xc)+E(xc)   XCENC  =       -84.05428725
  PAW double counting   =      1487.09751016    -1371.71393339
  entropy T*S    EENTRO =        -0.00037952
  eigenvalues    EBANDS =         6.15206649
  atomic energy  EATOM  =       669.81430600
  Solvation  Ediel_sol  =         0.00000000
  ---------------------------------------------------
  free energy    TOTEN  =        -9.41621749 eV

  energy without entropy =       -9.41583797  energy(sigma->0) =       -9.41602773


--------------------------------------------------------------------------------------------------------




 average (electrostatic) potential at core
  the test charge radii are     1.1897
  (the norm of the test charge is              1.0000)
       1 -89.0429       2 -89.0429       3 -89.0429
 
 
 
 E-fermi :   5.9699     XC(G=0):  -9.0941     alpha+bet :-10.5654


 k-point     1 :       0.0000    0.0000    0.0000
  band No.  band energies     occupation 
      1      -7.5558      2.00000
      2      -4.3871      2.00000
      3      -4.3871      2.00000
      4       3.1045      2.00000
      5       3.3620      2.00000
      6       3.3620      2.00000
      7       4.3164      2.00000
      8       4.3164      2.00000
      9       5.0166      2.00000
     10       6.9073      0.00000
     11       6.9073      0.00000
     12       7.5834      0.00000
     13      10.9290      0.00000
     14      10.9290      0.00000

 k-point     2 :       0.1111    0.0000    0.0000
  band No.  band energies     occupation 
      1      -7.4670      2.00000
      2      -4.4050      2.00000
      3      -4.3624      2.00000
      4       2.3898      2.00000
      5       2.8836      2.00000
      6       3.1509      2.00000
      7       4.6366      2.00000
      8       4.8904      2.00000
      9       5.3493      2.00000
     10       6.5613      0.00000
     11       6.8229      0.00000
     12       7.4069      0.00000
     13      10.6398      0.00000
     14      10.9142      0.00000

 k-point     3 :       0.2222    0.0000    0.0000
  band No.  band energies     occupation 
      1      -7.2107      2.00000
      2      -4.5058      2.00000
      3      -4.2933      2.00000
      4       1.5482      2.00000
      5       2.2561      2.00000
      6       2.7471      2.00000
      7       4.7170      2.00000
      8       5.0499      2.00000
      9       5.1879      2.00000
     10       6.6825      0.00000
     11       6.9066      0.00000
     12       7.4773      0.00000
     13       9.8470      0.00000
     14      11.2149      0.00000

 k-point     4 :       0.3333   -0.0000    0.0000
  band No.  band energies     occupation 
      1      -6.8276      2.00000
      2      -4.7641      2.00000
      3      -4.2044      2.00000
      4       1.1576      2.00000
      5       1.7690      2.00000
      6       2.4118      2.00000
      7       3.5531      2.00000
      8       5.1559      2.00000
      9       5.2171      2.00000
     10       6.6192      0.00000
     11       6.8092      0.00000
     12       8.5754      0.00000
     13       9.1797      0.00000
     14      12.0705      0.00000

 k-point     5 :       0.4444    0.0000    0.0000
  band No.  band energies     occupation 
      1      -6.4510      2.00000
      2      -5.0943      2.00000
      3      -4.1406      2.00000
      4       1.1544      2.00000
      5       1.5798      2.00000
      6       2.2647      2.00000
      7       2.6021      2.00000
      8       5.1047      2.00000
      9       5.2301      2.00000
     10       6.6162      0.00000
     11       6.6804      0.00000
     12       8.8225      0.00000
     13       9.3848      0.00000
     14      13.2333      0.00000

 k-point     6 :       0.1111    0.1111    0.0000
  band No.  band energies     occupation 
      1      -7.2942      2.00000
      2      -4.4465      2.00000
      3      -4.3343      2.00000
      4       1.8285      2.00000
      5       2.1324      2.00000
      6       3.2225      2.00000
      7       4.3540      2.00000
      8       5.2901      2.00000
      9       5.3041      2.00000
     10       6.5522      0.00000
     11       6.8782      0.00000
     12       7.4719      0.00000
     13      10.4532      0.00000
     14      10.4908      0.00000

 k-point     7 :       0.2222    0.1111    0.0000
  band No.  band energies     occupation 
      1      -6.9716      2.00000
      2      -4.5983      2.00000
      3      -4.2949      2.00000
      4       1.3157      2.00000
      5       1.6825      2.00000
      6       2.8673      2.00000
      7       4.1271      2.00000
      8       4.4427      2.00000
      9       4.9740      2.00000
     10       7.0145      0.00000
     11       7.4464      0.00000
     12       7.9236      0.00000
     13       9.7891      0.00000
     14      10.8720      0.00000

 k-point     8 :       0.3333    0.1111    0.0000
  band No.  band energies     occupation 
      1      -6.5721      2.00000
      2      -4.9011      2.00000
      3      -4.2505      2.00000
      4       1.1872      2.00000
      5       1.5317      2.00000
      6       2.4460      2.00000
      7       3.0839      2.00000
      8       4.4270      2.00000
      9       4.6842      2.00000
     10       7.1845      0.00000
     11       7.4381      0.00000
     12       8.9638      0.00000
     13       9.3343      0.00000
     14      11.8789      0.00000

 k-point     9 :       0.4444    0.1111    0.0000
  band No.  band energies     occupation 
      1      -6.3384      2.00000
      2      -5.1116      2.00000
      3      -4.2308      2.00000
      4       1.2394      2.00000
      5       1.5809      2.00000
      6       2.3820      2.00000
      7       2.4148      2.00000
      8       4.4967      2.00000
      9       4.5185      2.00000
     10       7.2281      0.00000
     11       7.4094      0.00000
     12       9.1723      0.00000
     13       9.4256      0.00000
     14      12.9597      0.00000

 k-point    10 :       0.2222    0.2222    0.0000
  band No.  band energies     occupation 
      1      -6.6216      2.00000
      2      -4.7295      2.00000
      3      -4.3949      2.00000
      4       1.2961      2.00000
      5       1.3863      2.00000
      6       2.8090      2.00000
      7       3.5875      2.00000
      8       3.9097      2.00000
      9       3.9251      2.00000
     10       7.9394      0.00000
     11       8.1338      0.00000
     12       8.2828      0.00000
     13      10.2664      0.00000
     14      10.5501      0.00000

 k-point    11 :       0.3333    0.2222    0.0000
  band No.  band energies     occupation 
      1      -6.2948      2.00000
      2      -4.9271      2.00000
      3      -4.4785      2.00000
      4       1.3980      2.00000
      5       1.5263      2.00000
      6       2.5403      2.00000
      7       2.8331      2.00000
      8       3.5693      2.00000
      9       3.6395      2.00000
     10       8.1615      0.00000
     11       8.3827      0.00000
     12       9.0720      0.00000
     13      10.1482      0.00000
     14      11.5757      0.00000

 k-point    12 :       0.3333    0.3333    0.0000
  band No.  band energies     occupation 
      1      -6.1650      2.00000
      2      -4.7689      2.00000
      3      -4.7689      2.00000
      4       1.5916      2.00000
      5       1.5916      2.00000
      6       2.8104      2.00000
      7       2.8104      2.00000
      8       2.9414      2.00000
      9       3.0853      2.00000
     10       8.7788      0.00000
     11       8.7788      0.00000
     12       8.9963      0.00000
     13      10.9726      0.00000
     14      11.7623      0.00000

 k-point    13 :       0.0000    0.0000    0.2500
  band No.  band energies     occupation 
      1      -7.3399      2.00000
      2      -5.6870      2.00000
      3      -3.0511      2.00000
      4       2.5795      2.00000
      5       3.2046      2.00000
      6       3.5679      2.00000
      7       4.5239      2.00000
      8       4.6595      2.00000
      9       5.0670      2.00000
     10       6.5517      0.00000
     11       6.6122      0.00000
     12       7.0507      0.00000
     13      10.2265      0.00000
     14      11.4562      0.00000

 k-point    14 :       0.1111    0.0000    0.2500
  band No.  band energies     occupation 
      1      -7.2549      2.00000
      2      -5.6307      2.00000
      3      -3.1523      2.00000
      4       2.2892      2.00000
      5       3.0522      2.00000
      6       3.4494      2.00000
      7       4.1699      2.00000
      8       4.6586      2.00000
      9       4.7598      2.00000
     10       6.8206      0.00000
     11       6.9945      0.00000
     12       7.4501      0.00000
     13      10.3624      0.00000
     14      11.4437      0.00000

 k-point    15 :       0.2222    0.0000    0.2500
  band No.  band energies     occupation 
      1      -7.0145      2.00000
      2      -5.4658      2.00000
      3      -3.4839      2.00000
      4       1.9505      2.00000
      5       2.6318      2.00000
      6       3.0912      2.00000
      7       3.5281      2.00000
      8       4.1224      2.00000
      9       4.5673      2.00000
     10       7.2763      0.00000
     11       7.8142      0.00000
     12       8.1846      0.00000
     13      10.7141      0.00000
     14      11.1319      0.00000

 k-point    16 :       0.3333   -0.0000    0.2500
  band No.  band energies     occupation 
      1      -6.6668      2.00000
      2      -5.2482      2.00000
      3      -3.9689      2.00000
      4       1.6328      2.00000
      5       2.0090      2.00000
      6       2.7271      2.00000
      7       2.9997      2.00000
      8       4.1359      2.00000
      9       4.4746      2.00000
     10       7.3176      0.00000
     11       7.9247      0.00000
     12       8.9779      0.00000
     13      10.1354      0.00000
     14      11.5814      0.00000

 k-point    17 :       0.4444    0.0000    0.2500
  band No.  band energies     occupation 
      1      -6.3292      2.00000
      2      -5.2122      2.00000
      3      -4.2416      2.00000
      4       0.9652      2.00000
      5       1.6839      2.00000
      6       2.4585      2.00000
      7       3.4328      2.00000
      8       4.1916      2.00000
      9       4.4265      2.00000
     10       7.1996      0.00000
     11       7.8459      0.00000
     12       8.7411      0.00000
     13       9.6299      0.00000
     14      11.9987      0.00000

 k-point    18 :      -0.4444   -0.0000    0.2500
  band No.  band energies     occupation 
      1      -6.2805      2.00000
      2      -5.4004      2.00000
      3      -4.0244      2.00000
      4       0.6043      2.00000
      5       1.5552      2.00000
      6       2.4274      2.00000
      7       4.2290      2.00000
      8       4.3478      2.00000
      9       4.5257      2.00000
     10       7.0518      0.00000
     11       7.6412      0.00000
     12       7.9569      0.00000
     13       9.3394      0.00000
     14      12.5920      0.00000

 k-point    19 :      -0.3333    0.0000    0.2500
  band No.  band energies     occupation 
      1      -6.6239      2.00000
      2      -5.4501      2.00000
      3      -3.6629      2.00000
      4       0.8162      2.00000
      5       1.6312      2.00000
      6       2.5814      2.00000
      7       4.5611      2.00000
      8       4.6482      2.00000
      9       5.3559      2.00000
     10       6.7002      0.00000
     11       7.1514      0.00000
     12       7.4153      0.00000
     13       9.2927      0.00000
     14      12.7322      0.00000

 k-point    20 :      -0.2222   -0.0000    0.2500
  band No.  band energies     occupation 
      1      -7.0011      2.00000
      2      -5.5328      2.00000
      3      -3.3437      2.00000
      4       1.5768      2.00000
      5       1.9271      2.00000
      6       2.8839      2.00000
      7       4.8458      2.00000
      8       4.9684      2.00000
      9       5.4996      2.00000
     10       6.4606      0.00000
     11       6.9052      0.00000
     12       7.1105      0.00000
     13       9.5609      0.00000
     14      12.0812      0.00000

 k-point    21 :      -0.1111   -0.0000    0.2500
  band No.  band energies     occupation 
      1      -7.2532      2.00000
      2      -5.6389      2.00000
      3      -3.1306      2.00000
      4       2.3108      2.00000
      5       2.6863      2.00000
      6       3.2855      2.00000
      7       4.6209      2.00000
      8       4.9764      2.00000
      9       5.1971      2.00000
     10       6.4494      0.00000
     11       6.4896      0.00000
     12       7.4256      0.00000
     13      10.0624      0.00000
     14      11.4351      0.00000

 k-point    22 :       0.1111    0.1111    0.2500
  band No.  band energies     occupation 
      1      -7.0877      2.00000
      2      -5.5407      2.00000
      3      -3.3240      2.00000
      4       1.9638      2.00000
      5       2.2575      2.00000
      6       3.1363      2.00000
      7       4.1329      2.00000
      8       4.7022      2.00000
      9       5.0323      2.00000
     10       6.8105      0.00000
     11       7.3590      0.00000
     12       7.5340      0.00000
     13      10.1235      0.00000
     14      11.4947      0.00000

 k-point    23 :       0.2222    0.1111    0.2500
  band No.  band energies     occupation 
      1      -6.7885      2.00000
      2      -5.3544      2.00000
      3      -3.7373      2.00000
      4       1.6080      2.00000
      5       2.0118      2.00000
      6       2.8883      2.00000
      7       3.1315      2.00000
      8       4.1872      2.00000
      9       5.1744      2.00000
     10       6.9487      0.00000
     11       7.7181      0.00000
     12       8.6384      0.00000
     13      10.5136      0.00000
     14      10.9392      0.00000

 k-point    24 :       0.3333    0.1111    0.2500
  band No.  band energies     occupation 
      1      -6.4311      2.00000
      2      -5.1891      2.00000
      3      -4.1807      2.00000
      4       1.2844      2.00000
      5       1.5249      2.00000
      6       2.5925      2.00000
      7       3.1374      2.00000
      8       3.7832      2.00000
      9       5.2534      2.00000
     10       6.8055      0.00000
     11       8.0698      0.00000
     12       8.9407      0.00000
     13      10.0325      0.00000
     14      11.7092      0.00000

 k-point    25 :       0.4444    0.1111    0.2500
  band No.  band energies     occupation 
      1      -6.2029      2.00000
      2      -5.2914      2.00000
      3      -4.2250      2.00000
      4       0.7718      2.00000
      5       1.4126      2.00000
      6       2.5171      2.00000
      7       3.3626      2.00000
      8       3.9506      2.00000
      9       5.3121      2.00000
     10       6.6881      0.00000
     11       8.1209      0.00000
     12       8.3827      0.00000
     13       9.7361      0.00000
     14      12.4113      0.00000

 k-point    26 :      -0.4444    0.1111    0.2500
  band No.  band energies     occupation 
      1      -6.3857      2.00000
      2      -5.3865      2.00000
      3      -3.9337      2.00000
      4       0.6805      2.00000
      5       1.5544      2.00000
      6       2.5196      2.00000
      7       3.4251      2.00000
      8       4.8340      2.00000
      9       5.3696      2.00000
     10       6.5901      0.00000
     11       7.4173      0.00000
     12       8.1414      0.00000
     13       9.6376      0.00000
     14      12.4236      0.00000

 k-point    27 :      -0.3333    0.1111    0.2500
  band No.  band energies     occupation 
      1      -6.7718      2.00000
      2      -5.4354      2.00000
      3      -3.5992      2.00000
      4       1.1690      2.00000
      5       1.8074      2.00000
      6       2.7315      2.00000
      7       3.6876      2.00000
      8       5.1368      2.00000
      9       5.6786      2.00000
     10       6.3682      0.00000
     11       7.0241      0.00000
     12       7.9487      0.00000
     13       9.7417      0.00000
     14      11.7053      0.00000

 k-point    28 :       0.2222    0.2222    0.2500
  band No.  band energies     occupation 
      1      -6.4513      2.00000
      2      -5.2830      2.00000
      3      -4.0201      2.00000
      4       0.9714      2.00000
      5       1.6991      2.00000
      6       2.4623      2.00000
      7       2.9324      2.00000
      8       4.5820      2.00000
      9       5.5171      2.00000
     10       6.6689      0.00000
     11       7.5670      0.00000
     12       8.7488      0.00000
     13      10.4586      0.00000
     14      11.0243      0.00000

 k-point    29 :       0.3333    0.2222    0.2500
  band No.  band energies     occupation 
      1      -6.1598      2.00000
      2      -5.2021      2.00000
      3      -4.3427      2.00000
      4       0.9659      2.00000
      5       1.2666      2.00000
      6       2.1071      2.00000
      7       3.2439      2.00000
      8       4.0881      2.00000
      9       5.2776      2.00000
     10       6.9378      0.00000
     11       8.1737      0.00000
     12       8.6568      0.00000
     13      10.5045      0.00000
     14      11.6692      0.00000

 k-point    30 :       0.4444    0.2222    0.2500
  band No.  band energies     occupation 
      1      -6.1437      2.00000
      2      -5.2658      2.00000
      3      -4.2770      2.00000
      4       0.7852      2.00000
      5       1.3672      2.00000
      6       2.1284      2.00000
      7       3.1644      2.00000
      8       4.4566      2.00000
      9       5.0953      2.00000
     10       7.1281      0.00000
     11       7.8120      0.00000
     12       8.6101      0.00000
     13      10.3923      0.00000
     14      11.9399      0.00000

 k-point    31 :       0.3333    0.3333    0.2500
  band No.  band energies     occupation 
      1      -6.0293      2.00000
      2      -5.2033      2.00000
      3      -4.4388      2.00000
      4       0.9238      2.00000
      5       1.2668      2.00000
      6       1.6934      2.00000
      7       3.4750      2.00000
      8       4.3394      2.00000
      9       4.7001      2.00000
     10       7.6517      0.00000
     11       8.1722      0.00000
     12       8.2777      0.00000
     13      11.3759      0.00000
     14      11.6681      0.00000

 k-point    32 :       0.0000    0.0000    0.5000
  band No.  band energies     occupation 
      1      -6.7035      2.00000
      2      -6.7035      2.00000
      3      -2.3654      2.00000
      4       2.0581      2.00000
      5       3.4168      2.00000
      6       3.4168      2.00000
      7       4.7308      2.00000
      8       5.0960      2.00000
      9       5.0960      2.00000
     10       6.3257      0.00000
     11       6.3619      0.00000
     12       6.3619      0.00000
     13       9.8847      0.00000
     14      11.2094      0.00000

 k-point    33 :       0.1111    0.0000    0.5000
  band No.  band energies     occupation 
      1      -6.6357      2.00000
      2      -6.6203      2.00000
      3      -2.5389      2.00000
      4       2.0497      2.00000
      5       3.2319      2.00000
      6       3.3361      2.00000
      7       4.1099      2.00000
      8       4.5865      2.00000
      9       4.8201      2.00000
     10       6.6119      0.00000
     11       6.8642      0.00000
     12       7.3232      0.00000
     13      10.1350      0.00000
     14      10.8993      0.00000

 k-point    34 :       0.2222    0.0000    0.5000
  band No.  band energies     occupation 
      1      -6.4522      2.00000
      2      -6.3787      2.00000
      3      -2.9981      2.00000
      4       1.7673      2.00000
      5       2.5598      2.00000
      6       3.0606      2.00000
      7       3.8825      2.00000
      8       4.0956      2.00000
      9       4.5024      2.00000
     10       7.1387      0.00000
     11       7.6305      0.00000
     12       8.0822      0.00000
     13      10.2851      0.00000
     14      11.1943      0.00000

 k-point    35 :       0.3333   -0.0000    0.5000
  band No.  band energies     occupation 
      1      -6.2178      2.00000
      2      -6.0128      2.00000
      3      -3.5951      2.00000
      4       0.9437      2.00000
      5       2.3617      2.00000
      6       2.7523      2.00000
      7       3.6551      2.00000
      8       3.8812      2.00000
      9       4.7580      2.00000
     10       7.4107      0.00000
     11       7.7947      0.00000
     12       8.2163      0.00000
     13      10.2722      0.00000
     14      11.4314      0.00000

 k-point    36 :       0.4444    0.0000    0.5000
  band No.  band energies     occupation 
      1      -6.0452      2.00000
      2      -5.6466      2.00000
      3      -4.1044      2.00000
      4       0.3766      2.00000
      5       2.3782      2.00000
      6       2.5110      2.00000
      7       3.4699      2.00000
      8       3.7495      2.00000
      9       5.4508      2.00000
     10       6.7010      0.00000
     11       7.8311      0.00000
     12       8.4604      0.00000
     13      10.3723      0.00000
     14      11.0142      0.00000

 k-point    37 :       0.1111    0.1111    0.5000
  band No.  band energies     occupation 
      1      -6.5055      2.00000
      2      -6.4621      2.00000
      3      -2.8526      2.00000
      4       1.9366      2.00000
      5       2.8289      2.00000
      6       2.9318      2.00000
      7       3.8213      2.00000
      8       4.0145      2.00000
      9       5.1490      2.00000
     10       6.4700      0.00000
     11       7.8009      0.00000
     12       7.8991      0.00000
     13      10.5714      0.00000
     14      10.6263      0.00000

 k-point    38 :       0.2222    0.1111    0.5000
  band No.  band energies     occupation 
      1      -6.2831      2.00000
      2      -6.1675      2.00000
      3      -3.3698      2.00000
      4       1.3906      2.00000
      5       2.1939      2.00000
      6       2.4324      2.00000
      7       3.8228      2.00000
      8       4.2175      2.00000
      9       5.0362      2.00000
     10       6.8671      0.00000
     11       8.0004      0.00000
     12       8.1557      0.00000
     13      10.4184      0.00000
     14      11.3483      0.00000

 k-point    39 :       0.3333    0.1111    0.5000
  band No.  band energies     occupation 
      1      -6.0618      2.00000
      2      -5.7972      2.00000
      3      -3.9215      2.00000
      4       0.6626      2.00000
      5       1.9385      2.00000
      6       2.1079      2.00000
      7       3.9390      2.00000
      8       4.3900      2.00000
      9       5.1714      2.00000
     10       7.0733      0.00000
     11       7.5360      0.00000
     12       8.2109      0.00000
     13      10.4510      0.00000
     14      11.4034      0.00000

 k-point    40 :       0.4444    0.1111    0.5000
  band No.  band energies     occupation 
      1      -5.9659      2.00000
      2      -5.5780      2.00000
      3      -4.2091      2.00000
      4       0.3705      2.00000
      5       1.8768      2.00000
      6       1.9782      2.00000
      7       4.1153      2.00000
      8       4.1879      2.00000
      9       5.7119      2.00000
     10       6.4775      0.00000
     11       7.6333      0.00000
     12       8.1951      0.00000
     13      10.5816      0.00000
     14      11.0625      0.00000

 k-point    41 :       0.2222    0.2222    0.5000
  band No.  band energies     occupation 
      1      -6.0406      2.00000
      2      -5.8885      2.00000
      3      -3.8304      2.00000
      4       1.0358      2.00000
      5       1.4559      2.00000
      6       1.8188      2.00000
      7       4.3094      2.00000
      8       4.6167      2.00000
      9       5.5262      2.00000
     10       6.6434      0.00000
     11       7.7956      0.00000
     12       7.8007      0.00000
     13      10.7935      0.00000
     14      11.6394      0.00000

 k-point    42 :       0.3333    0.2222    0.5000
  band No.  band energies     occupation 
      1      -5.8504      2.00000
      2      -5.6406      2.00000
      3      -4.1981      2.00000
      4       0.6440      2.00000
      5       1.2269      2.00000
      6       1.4203      2.00000
      7       4.7180      2.00000
      8       5.0924      2.00000
      9       5.6762      2.00000
     10       6.6080      0.00000
     11       7.1748      0.00000
     12       7.5681      0.00000
     13      11.1533      0.00000
     14      11.7415      0.00000

 k-point    43 :       0.3333    0.3333    0.5000
  band No.  band energies     occupation 
      1      -5.6677      2.00000
      2      -5.6677      2.00000
      3      -4.3035      2.00000
      4       0.8603      2.00000
      5       0.9465      2.00000
      6       0.9465      2.00000
      7       5.0697      2.00000
      8       5.9360      1.66221
      9       5.9360      1.66220
     10       5.9847      0.67559
     11       7.0237      0.00000
     12       7.0237      0.00000
     13      11.9952      0.00000
     14      12.3985      0.00000


--------------------------------------------------------------------------------------------------------


 soft charge-density along one line, spin component           1
         0         1         2         3         4         5         6         7         8         9
 total charge-density along one line
 
 pseudopotential strength for first ion, spin component:           1
 51.648  56.194  -0.000  -0.000  -0.042  -0.000  -0.000  -0.061
 56.194  61.144  -0.000  -0.000  -0.046  -0.000  -0.000  -0.067
 -0.000  -0.000  12.716   0.009   0.000  18.329   0.012   0.000
 -0.000  -0.000   0.009  12.731   0.000   0.012  18.350   0.000
 -0.042  -0.046   0.000   0.000  12.730   0.000   0.000  18.350
 -0.000  -0.000  18.329   0.012   0.000  26.430   0.018   0.000
 -0.000  -0.000   0.012  18.350   0.000   0.018  26.460   0.000
 -0.061  -0.067   0.000   0.000  18.350   0.000   0.000  26.459
  0.000   0.000  -0.008   0.000  -0.000  -0.012   0.001  -0.000
  0.013   0.015   0.000  -0.000   0.000   0.000  -0.000   0.001
  0.007   0.007   0.000  -0.000   0.005   0.000  -0.000   0.007
  0.000   0.000   0.000  -0.007  -0.000   0.001  -0.011  -0.000
  0.011   0.012   0.000  -0.000  -0.008   0.000  -0.000  -0.012
 total augmentation occupancy for first ion, spin component:           1
 13.360  -9.726   0.000   0.000   1.809   0.000   0.000  -0.448   0.000  -0.149  -0.099   0.000  -0.108
 -9.726   8.328   0.000   0.000  -1.512   0.000   0.000   0.380   0.000   0.134   0.088   0.000   0.097
  0.000   0.000   2.497   0.174   0.000  -0.480  -0.160  -0.000  -0.044   0.000   0.000  -0.043   0.000
  0.000  -0.000   0.174   2.801   0.000  -0.160  -0.758   0.000  -0.042   0.000   0.000  -0.102   0.000
  1.809  -1.512   0.000   0.000   2.691   0.000   0.000  -0.692   0.000  -0.047  -0.014   0.000  -0.044
  0.000   0.000  -0.480  -0.160   0.000   0.174   0.057   0.000   0.010   0.000  -0.000   0.015   0.000
 -0.000  -0.000  -0.160  -0.758   0.000   0.057   0.273   0.000   0.015   0.000   0.000   0.029  -0.000
 -0.448   0.380   0.000   0.000  -0.692   0.000   0.000   0.241   0.000   0.013   0.003   0.000   0.010
  0.000   0.000  -0.044  -0.042   0.000   0.010   0.015   0.000   0.009   0.000  -0.000   0.010   0.000
 -0.149   0.134   0.000   0.000  -0.047   0.000   0.000   0.013   0.000   0.014   0.003   0.000   0.004
 -0.099   0.088   0.000   0.000  -0.014   0.000   0.000   0.003  -0.000   0.003   0.007   0.000  -0.000
  0.000   0.000  -0.043  -0.102   0.000   0.015   0.029   0.000   0.010   0.000  -0.000   0.026   0.000
 -0.108   0.097   0.000   0.000  -0.044   0.000   0.000   0.010   0.000   0.004  -0.000   0.000   0.009


------------------------ aborting loop because EDIFF is reached ----------------------------------------


    CHARGE:  cpu time    0.0351: real time    0.0352
    FORLOC:  cpu time    0.0014: real time    0.0014
    FORNL :  cpu time    0.1244: real time    0.1247
    STRESS:  cpu time    0.2731: real time    0.2739
    FORCOR:  cpu time    0.0223: real time    0.0224
    FORHAR:  cpu time    0.0055: real time    0.0055
    MIXING:  cpu time    0.0011: real time    0.0011
    OFIELD:  cpu time    0.0000: real time    0.0000

 ---------------------------------------------------------------------------------------------

         DFTD3 V3.0 Rev 1        
 Edisp (eV)   -1.29164

 E6    (eV) :    -0.6986
 E8    (eV) :    -0.5931
 % E8        : 45.92
    FORVDW:  cpu time    0.0081: real time    0.0081

  FORCE on cell =-STRESS in cart. coord.  units (eV):
  Direction    XX          YY          ZZ          XY          YZ          ZX
  --------------------------------------------------------------------------------------
  Alpha Z     2.29659     2.29659     2.29659
  Ewald    -237.56518  -237.56518  -202.43843    -0.00000    -0.00000     0.00000
  Hartree    10.89174    10.89174    19.65829     0.00000     0.00000    -0.00000
  E(xc)     -70.23491   -70.23491   -69.74376    -0.00000     0.00000    -0.00000
  Local    -110.98083  -110.98088  -146.35608    -0.00004     0.00000    -0.00000
  n-local   331.44267   332.19688   327.52990    -1.35410    -0.72049    -1.29435
  augment   -81.10992   -81.10988   -78.94172     0.00004    -0.00000     0.00000
  Kinetic   151.70398   158.53883   147.83960    -7.43601     0.00949     1.40885
  Fock        0.00000     0.00000     0.00000     0.00000     0.00000     0.00000
  vdW        -1.38357    -1.38357    -1.36575    -0.00000     0.00000    -0.00000
  -------------------------------------------------------------------------------------
  Total      -1.14489    -1.14489    -1.52134     0.00000    -0.00000     0.00000
  in kB     -18.02200   -18.02200   -23.94773     0.00000    -0.00000     0.00000
  external pressure =      -20.00 kB  Pullay stress =        0.00 kB


 VOLUME and BASIS-vectors are now :
 -----------------------------------------------------------------------------
  energy-cutoff  :      520.00
  volume of cell :      101.78
      direct lattice vectors                 reciprocal lattice vectors
     4.412280879  0.000000000 -0.000000000     0.226640150  0.130850752  0.000000000
    -2.206140440  3.821147330  0.000000000     0.000000000  0.261701503  0.000000000
     0.000000000 -0.000000000  6.036919521     0.000000000  0.000000000  0.165647396

  length of vectors
     4.412280879  4.412280879  6.036919521     0.261701503  0.261701503  0.165647396


 FORCES acting on ions
    electron-ion (+dipol)            ewald-force                    non-local-force                 convergence-correction
 -----------------------------------------------------------------------------------------------
   -.902E+01 0.112E-04 -.871E-06   0.134E+02 0.151E-05 0.138E-05   -.447E+01 0.264E-18 0.555E-16   -.215E-02 -.448E-07 0.183E-08
   0.451E+01 -.782E+01 -.191E-04   -.671E+01 0.116E+02 -.829E-05   0.223E+01 -.387E+01 0.000E+00   0.107E-02 -.186E-02 0.375E-08
   0.451E+01 0.782E+01 0.196E-04   -.671E+01 -.116E+02 0.692E-05   0.223E+01 0.387E+01 0.000E+00   0.107E-02 0.186E-02 -.559E-08
 -----------------------------------------------------------------------------------------------
   0.264E-04 -.822E-05 -.333E-06   0.000E+00 0.000E+00 -.348E-17   0.888E-15 -.444E-15 0.555E-16   -.243E-07 -.414E-07 -.681E-11
 
 
 POSITION                                       TOTAL-FORCE (eV/Angst)
 -----------------------------------------------------------------------------------
      1.22687     -0.00000      2.01231        -0.063598     -0.000000      0.000000
     -0.61343      1.06250      4.02461         0.031799     -0.055078     -0.000000
      1.59271      2.75865     -0.00000         0.031799      0.055078     -0.000000
 -----------------------------------------------------------------------------------
    total drift:                                0.000026     -0.000008     -0.000000


--------------------------------------------------------------------------------------------------------



  FREE ENERGIE OF THE ION-ELECTRON SYSTEM (eV)
  ---------------------------------------------------
  free  energy   TOTEN  =       -10.70785470 eV

  energy  without entropy=      -10.70747518  energy(sigma->0) =      -10.70766494
 
 d Force = 0.1388719E-01[-0.102E-01, 0.379E-01]  d Energy = 0.1263585E-01 0.125E-02
 d Force = 0.2496235E+01[ 0.215E+01, 0.285E+01]  d Ewald  = 0.3577164E+01-0.108E+01


--------------------------------------------------------------------------------------------------------


    POTLOK:  cpu time    0.0269: real time    0.0270


--------------------------------------------------------------------------------------------------------




--------------------------------------------------------------------------------------------------------


    WAVPRE:  cpu time    0.0089: real time    0.0320
    FEWALD:  cpu time    0.0002: real time    0.0001
    GENKIN:  cpu time    0.0134: real time    0.0135
    ORTHCH:  cpu time    0.0249: real time    0.0250
     LOOP+:  cpu time    3.8699: real time    3.9430


--------------------------------------- Iteration      4(   1)  ---------------------------------------


    POTLOK:  cpu time    0.0397: real time    0.0547
    SETDIJ:  cpu time    0.0028: real time    0.0029
     EDDAV:  cpu time    0.4653: real time    0.4726
       DOS:  cpu time    0.0008: real time    0.0008
    CHARGE:  cpu time    0.0343: real time    0.0345
    MIXING:  cpu time    0.0009: real time    0.0009
    --------------------------------------------
      LOOP:  cpu time    0.5439: real time    0.5664

 eigenvalue-minimisations  :  1204
 total energy-change (2. order) :-0.1719915E-02  (-0.2720745E-01)
 number of electron      17.9999997 magnetization 
 augmentation part       -3.6145501 magnetization 

 Broyden mixing:
  rms(total) = 0.34928E-01    rms(broyden)= 0.34928E-01
  rms(prec ) = 0.37670E-01
  weight for this iteration     100.00

 Free energy of the ion-electron system (eV)
  ---------------------------------------------------
  alpha Z        PSCENC =         2.29526709
  Ewald energy   TEWEN  =      -676.78430395
  -Hartree energ DENC   =       -41.82573362
  -exchange      EXHF   =         0.00000000
  -V(xc)+E(xc)   XCENC  =       -84.03321361
  PAW double counting   =      1487.32068890    -1371.93728646
  entropy T*S    EENTRO =        -0.00031775
  eigenvalues    EBANDS =         5.73265491
  atomic energy  EATOM  =       669.81430600
  Solvation  Ediel_sol  =         0.00000000
  ---------------------------------------------------
  free energy    TOTEN  =        -9.41793849 eV

  energy without entropy =       -9.41762074  energy(sigma->0) =       -9.41777962


--------------------------------------------------------------------------------------------------------




--------------------------------------- Iteration      4(   2)  ---------------------------------------


    POTLOK:  cpu time    0.0214: real time    0.0216
    SETDIJ:  cpu time    0.0028: real time    0.0028
     EDDAV:  cpu time    0.5418: real time    0.5458
       DOS:  cpu time    0.0008: real time    0.0008
    CHARGE:  cpu time    0.0344: real time    0.0348
    MIXING:  cpu time    0.0010: real time    0.0010
    --------------------------------------------
      LOOP:  cpu time    0.6021: real time    0.6068

 eigenvalue-minimisations  :  1468
 total energy-change (2. order) :-0.9991570E-03  (-0.1137095E-02)
 number of electron      17.9999997 magnetization 
 augmentation part       -3.6124745 magnetization 

 Broyden mixing:
  rms(total) = 0.85137E-02    rms(broyden)= 0.85137E-02
  rms(prec ) = 0.12317E-01
  weight for this iteration     100.00

 eigenvalues of (default mixing * dielectric matrix)
  average eigenvalue GAMMA=   1.0843
  1.0843

 Free energy of the ion-electron system (eV)
  ---------------------------------------------------
  alpha Z        PSCENC =         2.29526709
  Ewald energy   TEWEN  =      -676.78430395
  -Hartree energ DENC   =       -41.89262012
  -exchange      EXHF   =         0.00000000
  -V(xc)+E(xc)   XCENC  =       -84.03281622
  PAW double counting   =      1497.46020480    -1382.08106722
  entropy T*S    EENTRO =        -0.00032373
  eigenvalues    EBANDS =         5.80241568
  atomic energy  EATOM  =       669.81430600
  Solvation  Ediel_sol  =         0.00000000
  ---------------------------------------------------
  free energy    TOTEN  =        -9.41893765 eV

  energy without entropy =       -9.41861392  energy(sigma->0) =       -9.41877579


--------------------------------------------------------------------------------------------------------




--------------------------------------- Iteration      4(   3)  ---------------------------------------


    POTLOK:  cpu time    0.0215: real time    0.0217
    SETDIJ:  cpu time    0.0028: real time    0.0028
     EDDAV:  cpu time    0.5141: real time    0.5184
       DOS:  cpu time    0.0008: real time    0.0008
    CHARGE:  cpu time    0.0342: real time    0.0343
    MIXING:  cpu time    0.0010: real time    0.0010
    --------------------------------------------
      LOOP:  cpu time    0.5745: real time    0.5791

 eigenvalue-minimisations  :  1390
 total energy-change (2. order) : 0.4949801E-04  (-0.1677789E-04)
 number of electron      17.9999997 magnetization 
 augmentation part       -3.6116152 magnetization 

 Broyden mixing:
  rms(total) = 0.58129E-02    rms(broyden)= 0.58129E-02
  rms(prec ) = 0.73578E-02
  weight for this iteration     100.00

 eigenvalues of (default mixing * dielectric matrix)
  average eigenvalue GAMMA=   1.7482
  1.0985  2.3980

 Free energy of the ion-electron system (eV)
  ---------------------------------------------------
  alpha Z        PSCENC =         2.29526709
  Ewald energy   TEWEN  =      -676.78430395
  -Hartree energ DENC   =       -41.93500523
  -exchange      EXHF   =         0.00000000
  -V(xc)+E(xc)   XCENC  =       -84.03259585
  PAW double counting   =      1499.16564715    -1383.78892293
  entropy T*S    EENTRO =        -0.00031797
  eigenvalues    EBANDS =         5.84703753
  atomic energy  EATOM  =       669.81430600
  Solvation  Ediel_sol  =         0.00000000
  ---------------------------------------------------
  free energy    TOTEN  =        -9.41888815 eV

  energy without entropy =       -9.41857019  energy(sigma->0) =       -9.41872917


--------------------------------------------------------------------------------------------------------




--------------------------------------- Iteration      4(   4)  ---------------------------------------


    POTLOK:  cpu time    0.0218: real time    0.0220
    SETDIJ:  cpu time    0.0028: real time    0.0028
     EDDAV:  cpu time    0.5170: real time    0.5207
       DOS:  cpu time    0.0008: real time    0.0008
    --------------------------------------------
      LOOP:  cpu time    0.5424: real time    0.5463

 eigenvalue-minimisations  :  1384
 total energy-change (2. order) : 0.7091486E-05  (-0.5908860E-05)
 number of electron      17.9999997 magnetization 
 augmentation part       -3.6116152 magnetization 

 Free energy of the ion-electron system (eV)
  ---------------------------------------------------
  alpha Z        PSCENC =         2.29526709
  Ewald energy   TEWEN  =      -676.78430395
  -Hartree energ DENC   =       -41.97345071
  -exchange      EXHF   =         0.00000000
  -V(xc)+E(xc)   XCENC  =       -84.03214085
  PAW double counting   =      1500.28851700    -1384.91359875
  entropy T*S    EENTRO =        -0.00031479
  eigenvalues    EBANDS =         5.88683790
  atomic energy  EATOM  =       669.81430600
  Solvation  Ediel_sol  =         0.00000000
  ---------------------------------------------------
  free energy    TOTEN  =        -9.41888106 eV

  energy without entropy =       -9.41856627  energy(sigma->0) =       -9.41872367


--------------------------------------------------------------------------------------------------------




 average (electrostatic) potential at core
  the test charge radii are     1.1897
  (the norm of the test charge is              1.0000)
       1 -89.0441       2 -89.0441       3 -89.0441
 
 
 
 E-fermi :   5.9710     XC(G=0):  -9.0864     alpha+bet :-10.5593


 k-point     1 :       0.0000    0.0000    0.0000
  band No.  band energies     occupation 
      1      -7.5874      2.00000
      2      -4.3911      2.00000
      3      -4.3911      2.00000
      4       3.0480      2.00000
      5       3.3149      2.00000
      6       3.3149      2.00000
      7       4.3109      2.00000
      8       4.3109      2.00000
      9       5.0483      2.00000
     10       6.9063      0.00000
     11       6.9063      0.00000
     12       7.5775      0.00000
     13      10.9138      0.00000
     14      10.9138      0.00000

 k-point     2 :       0.1111    0.0000    0.0000
  band No.  band energies     occupation 
      1      -7.5000      2.00000
      2      -4.4103      2.00000
      3      -4.3665      2.00000
      4       2.3566      2.00000
      5       2.8518      2.00000
      6       3.1161      2.00000
      7       4.6132      2.00000
      8       4.8822      2.00000
      9       5.3282      2.00000
     10       6.5850      0.00000
     11       6.8287      0.00000
     12       7.4162      0.00000
     13      10.6409      0.00000
     14      10.8965      0.00000

 k-point     3 :       0.2222    0.0000    0.0000
  band No.  band energies     occupation 
      1      -7.2482      2.00000
      2      -4.5130      2.00000
      3      -4.2980      2.00000
      4       1.5282      2.00000
      5       2.2374      2.00000
      6       2.7240      2.00000
      7       4.6907      2.00000
      8       5.0218      2.00000
      9       5.1658      2.00000
     10       6.7051      0.00000
     11       6.9213      0.00000
     12       7.5115      0.00000
     13       9.8640      0.00000
     14      11.1846      0.00000

 k-point     4 :       0.3333   -0.0000    0.0000
  band No.  band energies     occupation 
      1      -6.8744      2.00000
      2      -4.7680      2.00000
      3      -4.2105      2.00000
      4       1.1391      2.00000
      5       1.7593      2.00000
      6       2.3972      2.00000
      7       3.5528      2.00000
      8       5.1033      2.00000
      9       5.1906      2.00000
     10       6.6589      0.00000
     11       6.8432      0.00000
     12       8.6013      0.00000
     13       9.2043      0.00000
     14      12.0253      0.00000

 k-point     5 :       0.4444    0.0000    0.0000
  band No.  band energies     occupation 
      1      -6.5140      2.00000
      2      -5.0850      2.00000
      3      -4.1478      2.00000
      4       1.1281      2.00000
      5       1.5662      2.00000
      6       2.2661      2.00000
      7       2.6162      2.00000
      8       5.0476      2.00000
      9       5.1968      2.00000
     10       6.6590      0.00000
     11       6.7268      0.00000
     12       8.8509      0.00000
     13       9.4134      0.00000
     14      13.1750      0.00000

 k-point     6 :       0.1111    0.1111    0.0000
  band No.  band energies     occupation 
      1      -7.3301      2.00000
      2      -4.4543      2.00000
      3      -4.3380      2.00000
      4       1.8025      2.00000
      5       2.1178      2.00000
      6       3.1812      2.00000
      7       4.3600      2.00000
      8       5.2489      2.00000
      9       5.2633      2.00000
     10       6.5868      0.00000
     11       6.9132      0.00000
     12       7.4788      0.00000
     13      10.4463      0.00000
     14      10.4975      0.00000

 k-point     7 :       0.2222    0.1111    0.0000
  band No.  band energies     occupation 
      1      -7.0143      2.00000
      2      -4.6062      2.00000
      3      -4.2987      2.00000
      4       1.2978      2.00000
      5       1.6701      2.00000
      6       2.8419      2.00000
      7       4.1181      2.00000
      8       4.4414      2.00000
      9       4.9434      2.00000
     10       7.0452      0.00000
     11       7.4451      0.00000
     12       7.9505      0.00000
     13       9.8037      0.00000
     14      10.8589      0.00000

 k-point     8 :       0.3333    0.1111    0.0000
  band No.  band energies     occupation 
      1      -6.6280      2.00000
      2      -4.9001      2.00000
      3      -4.2552      2.00000
      4       1.1643      2.00000
      5       1.5185      2.00000
      6       2.4386      2.00000
      7       3.0913      2.00000
      8       4.4191      2.00000
      9       4.6632      2.00000
     10       7.2024      0.00000
     11       7.4527      0.00000
     12       8.9880      0.00000
     13       9.3577      0.00000
     14      11.8479      0.00000

 k-point     9 :       0.4444    0.1111    0.0000
  band No.  band energies     occupation 
      1      -6.4076      2.00000
      2      -5.0984      2.00000
      3      -4.2360      2.00000
      4       1.2103      2.00000
      5       1.5547      2.00000
      6       2.4054      2.00000
      7       2.4204      2.00000
      8       4.4732      2.00000
      9       4.5131      2.00000
     10       7.2341      0.00000
     11       7.4366      0.00000
     12       9.1986      0.00000
     13       9.4520      0.00000
     14      12.9020      0.00000

 k-point    10 :       0.2222    0.2222    0.0000
  band No.  band energies     occupation 
      1      -6.6749      2.00000
      2      -4.7356      2.00000
      3      -4.3945      2.00000
      4       1.2757      2.00000
      5       1.3704      2.00000
      6       2.7869      2.00000
      7       3.5892      2.00000
      8       3.9130      2.00000
      9       3.9324      2.00000
     10       7.9298      0.00000
     11       8.1475      0.00000
     12       8.3088      0.00000
     13      10.2559      0.00000
     14      10.5659      0.00000

 k-point    11 :       0.3333    0.2222    0.0000
  band No.  band energies     occupation 
      1      -6.3643      2.00000
      2      -4.9199      2.00000
      3      -4.4773      2.00000
      4       1.3653      2.00000
      5       1.4955      2.00000
      6       2.5457      2.00000
      7       2.8456      2.00000
      8       3.5817      2.00000
      9       3.6476      2.00000
     10       8.1531      0.00000
     11       8.3990      0.00000
     12       9.0905      0.00000
     13      10.1552      0.00000
     14      11.5581      0.00000

 k-point    12 :       0.3333    0.3333    0.0000
  band No.  band energies     occupation 
      1      -6.2428      2.00000
      2      -4.7607      2.00000
      3      -4.7607      2.00000
      4       1.5467      2.00000
      5       1.5467      2.00000
      6       2.8199      2.00000
      7       2.8199      2.00000
      8       2.9591      2.00000
      9       3.1246      2.00000
     10       8.7786      0.00000
     11       8.7786      0.00000
     12       9.0198      0.00000
     13      10.9266      0.00000
     14      11.7682      0.00000

 k-point    13 :       0.0000    0.0000    0.2500
  band No.  band energies     occupation 
      1      -7.3697      2.00000
      2      -5.7025      2.00000
      3      -3.0422      2.00000
      4       2.5443      2.00000
      5       3.1557      2.00000
      6       3.5378      2.00000
      7       4.5052      2.00000
      8       4.6197      2.00000
      9       5.0772      2.00000
     10       6.5636      0.00000
     11       6.6192      0.00000
     12       7.0506      0.00000
     13      10.2414      0.00000
     14      11.4442      0.00000

 k-point    14 :       0.1111    0.0000    0.2500
  band No.  band energies     occupation 
      1      -7.2859      2.00000
      2      -5.6473      2.00000
      3      -3.1437      2.00000
      4       2.2573      2.00000
      5       2.9996      2.00000
      6       3.4122      2.00000
      7       4.1744      2.00000
      8       4.6768      2.00000
      9       4.7252      2.00000
     10       6.8395      0.00000
     11       6.9901      0.00000
     12       7.4399      0.00000
     13      10.3679      0.00000
     14      11.4286      0.00000

 k-point    15 :       0.2222    0.0000    0.2500
  band No.  band energies     occupation 
      1      -7.0495      2.00000
      2      -5.4867      2.00000
      3      -3.4736      2.00000
      4       1.9125      2.00000
      5       2.5825      2.00000
      6       3.0745      2.00000
      7       3.5272      2.00000
      8       4.1271      2.00000
      9       4.5911      2.00000
     10       7.2628      0.00000
     11       7.8070      0.00000
     12       8.1895      0.00000
     13      10.7054      0.00000
     14      11.1264      0.00000

 k-point    16 :       0.3333   -0.0000    0.2500
  band No.  band energies     occupation 
      1      -6.7092      2.00000
      2      -5.2779      2.00000
      3      -3.9493      2.00000
      4       1.5923      2.00000
      5       1.9736      2.00000
      6       2.7172      2.00000
      7       3.0183      2.00000
      8       4.1338      2.00000
      9       4.4943      2.00000
     10       7.3045      0.00000
     11       7.9286      0.00000
     12       8.9911      0.00000
     13      10.1640      0.00000
     14      11.5744      0.00000

 k-point    17 :       0.4444    0.0000    0.2500
  band No.  band energies     occupation 
      1      -6.3838      2.00000
      2      -5.2412      2.00000
      3      -4.2160      2.00000
      4       0.9516      2.00000
      5       1.6503      2.00000
      6       2.4442      2.00000
      7       3.4480      2.00000
      8       4.1828      2.00000
      9       4.4379      2.00000
     10       7.1888      0.00000
     11       7.8581      0.00000
     12       8.7712      0.00000
     13       9.6746      0.00000
     14      11.9880      0.00000

 k-point    18 :      -0.4444   -0.0000    0.2500
  band No.  band energies     occupation 
      1      -6.3409      2.00000
      2      -5.4118      2.00000
      3      -4.0127      2.00000
      4       0.6007      2.00000
      5       1.5291      2.00000
      6       2.4123      2.00000
      7       4.2174      2.00000
      8       4.3308      2.00000
      9       4.5398      2.00000
     10       7.0470      0.00000
     11       7.6574      0.00000
     12       7.9983      0.00000
     13       9.3849      0.00000
     14      12.5646      0.00000

 k-point    19 :      -0.3333    0.0000    0.2500
  band No.  band energies     occupation 
      1      -6.6697      2.00000
      2      -5.4662      2.00000
      3      -3.6568      2.00000
      4       0.8100      2.00000
      5       1.6092      2.00000
      6       2.5660      2.00000
      7       4.5383      2.00000
      8       4.6160      2.00000
      9       5.3524      2.00000
     10       6.7096      0.00000
     11       7.1931      0.00000
     12       7.4396      0.00000
     13       9.3260      0.00000
     14      12.6786      0.00000

 k-point    20 :      -0.2222   -0.0000    0.2500
  band No.  band energies     occupation 
      1      -7.0369      2.00000
      2      -5.5505      2.00000
      3      -3.3373      2.00000
      4       1.5563      2.00000
      5       1.9054      2.00000
      6       2.8670      2.00000
      7       4.8063      2.00000
      8       4.9296      2.00000
      9       5.4902      2.00000
     10       6.4776      0.00000
     11       6.9310      0.00000
     12       7.1447      0.00000
     13       9.5763      0.00000
     14      12.0567      0.00000

 k-point    21 :      -0.1111   -0.0000    0.2500
  band No.  band energies     occupation 
      1      -7.2844      2.00000
      2      -5.6552      2.00000
      3      -3.1225      2.00000
      4       2.2795      2.00000
      5       2.6480      2.00000
      6       3.2628      2.00000
      7       4.6261      2.00000
      8       4.9243      2.00000
      9       5.1596      2.00000
     10       6.4821      0.00000
     11       6.5175      0.00000
     12       7.4193      0.00000
     13      10.0709      0.00000
     14      11.4324      0.00000

 k-point    22 :       0.1111    0.1111    0.2500
  band No.  band energies     occupation 
      1      -7.1217      2.00000
      2      -5.5590      2.00000
      3      -3.3159      2.00000
      4       1.9300      2.00000
      5       2.2333      2.00000
      6       3.1138      2.00000
      7       4.1139      2.00000
      8       4.6887      2.00000
      9       5.0359      2.00000
     10       6.8119      0.00000
     11       7.3625      0.00000
     12       7.5454      0.00000
     13      10.1265      0.00000
     14      11.4769      0.00000

 k-point    23 :       0.2222    0.1111    0.2500
  band No.  band energies     occupation 
      1      -6.8282      2.00000
      2      -5.3783      2.00000
      3      -3.7245      2.00000
      4       1.5747      2.00000
      5       1.9796      2.00000
      6       2.8827      2.00000
      7       3.1284      2.00000
      8       4.1963      2.00000
      9       5.1728      2.00000
     10       6.9551      0.00000
     11       7.7196      0.00000
     12       8.6424      0.00000
     13      10.5073      0.00000
     14      10.9470      0.00000

 k-point    24 :       0.3333    0.1111    0.2500
  band No.  band energies     occupation 
      1      -6.4810      2.00000
      2      -5.2213      2.00000
      3      -4.1555      2.00000
      4       1.2558      2.00000
      5       1.5041      2.00000
      6       2.5742      2.00000
      7       3.1416      2.00000
      8       3.8082      2.00000
      9       5.2383      2.00000
     10       6.8277      0.00000
     11       8.0654      0.00000
     12       8.9606      0.00000
     13      10.0552      0.00000
     14      11.6950      0.00000

 k-point    25 :       0.4444    0.1111    0.2500
  band No.  band energies     occupation 
      1      -6.2653      2.00000
      2      -5.3099      2.00000
      3      -4.2045      2.00000
      4       0.7627      2.00000
      5       1.3892      2.00000
      6       2.4914      2.00000
      7       3.3681      2.00000
      8       3.9717      2.00000
      9       5.2840      2.00000
     10       6.7207      0.00000
     11       8.1177      0.00000
     12       8.4131      0.00000
     13       9.7724      0.00000
     14      12.3905      0.00000

 k-point    26 :      -0.4444    0.1111    0.2500
  band No.  band energies     occupation 
      1      -6.4401      2.00000
      2      -5.4017      2.00000
      3      -3.9232      2.00000
      4       0.6749      2.00000
      5       1.5288      2.00000
      6       2.5021      2.00000
      7       3.4279      2.00000
      8       4.8250      2.00000
      9       5.3414      2.00000
     10       6.6214      0.00000
     11       7.4607      0.00000
     12       8.1389      0.00000
     13       9.6723      0.00000
     14      12.3862      0.00000

 k-point    27 :      -0.3333    0.1111    0.2500
  band No.  band energies     occupation 
      1      -6.8127      2.00000
      2      -5.4546      2.00000
      3      -3.5914      2.00000
      4       1.1544      2.00000
      5       1.7817      2.00000
      6       2.7173      2.00000
      7       3.6799      2.00000
      8       5.0993      2.00000
      9       5.6607      2.00000
     10       6.3957      0.00000
     11       7.0687      0.00000
     12       7.9502      0.00000
     13       9.7607      0.00000
     14      11.6872      0.00000

 k-point    28 :       0.2222    0.2222    0.2500
  band No.  band energies     occupation 
      1      -6.5013      2.00000
      2      -5.3070      2.00000
      3      -4.0036      2.00000
      4       0.9566      2.00000
      5       1.6626      2.00000
      6       2.4573      2.00000
      7       2.9425      2.00000
      8       4.5770      2.00000
      9       5.5027      2.00000
     10       6.7027      0.00000
     11       7.5844      0.00000
     12       8.7508      0.00000
     13      10.4583      0.00000
     14      11.0238      0.00000

 k-point    29 :       0.3333    0.2222    0.2500
  band No.  band energies     occupation 
      1      -6.2227      2.00000
      2      -5.2290      2.00000
      3      -4.3139      2.00000
      4       0.9445      2.00000
      5       1.2490      2.00000
      6       2.1037      2.00000
      7       3.2336      2.00000
      8       4.1086      2.00000
      9       5.2715      2.00000
     10       6.9668      0.00000
     11       8.1781      0.00000
     12       8.6794      0.00000
     13      10.5016      0.00000
     14      11.6520      0.00000

 k-point    30 :       0.4444    0.2222    0.2500
  band No.  band energies     occupation 
      1      -6.2089      2.00000
      2      -5.2850      2.00000
      3      -4.2540      2.00000
      4       0.7724      2.00000
      5       1.3423      2.00000
      6       2.1242      2.00000
      7       3.1622      2.00000
      8       4.4596      2.00000
      9       5.1006      2.00000
     10       7.1418      0.00000
     11       7.8463      0.00000
     12       8.6137      0.00000
     13      10.3997      0.00000
     14      11.9119      0.00000

 k-point    31 :       0.3333    0.3333    0.2500
  band No.  band energies     occupation 
      1      -6.1010      2.00000
      2      -5.2270      2.00000
      3      -4.4059      2.00000
      4       0.8988      2.00000
      5       1.2435      2.00000
      6       1.7091      2.00000
      7       3.4477      2.00000
      8       4.3503      2.00000
      9       4.7304      2.00000
     10       7.6520      0.00000
     11       8.2001      0.00000
     12       8.3016      0.00000
     13      11.3419      0.00000
     14      11.6374      0.00000

 k-point    32 :       0.0000    0.0000    0.5000
  band No.  band energies     occupation 
      1      -6.7278      2.00000
      2      -6.7278      2.00000
      3      -2.3482      2.00000
      4       2.0259      2.00000
      5       3.3850      2.00000
      6       3.3850      2.00000
      7       4.6954      2.00000
      8       5.0500      2.00000
      9       5.0500      2.00000
     10       6.3511      0.00000
     11       6.3881      0.00000
     12       6.3881      0.00000
     13       9.8919      0.00000
     14      11.2087      0.00000

 k-point    33 :       0.1111    0.0000    0.5000
  band No.  band energies     occupation 
      1      -6.6613      2.00000
      2      -6.6457      2.00000
      3      -2.5227      2.00000
      4       2.0097      2.00000
      5       3.1977      2.00000
      6       3.3001      2.00000
      7       4.1148      2.00000
      8       4.5645      2.00000
      9       4.8030      2.00000
     10       6.6253      0.00000
     11       6.8679      0.00000
     12       7.3154      0.00000
     13      10.1389      0.00000
     14      10.8985      0.00000

 k-point    34 :       0.2222    0.0000    0.5000
  band No.  band energies     occupation 
      1      -6.4815      2.00000
      2      -6.4078      2.00000
      3      -2.9822      2.00000
      4       1.7175      2.00000
      5       2.5468      2.00000
      6       3.0197      2.00000
      7       3.8921      2.00000
      8       4.0928      2.00000
      9       4.5180      2.00000
     10       7.1305      0.00000
     11       7.6264      0.00000
     12       8.0791      0.00000
     13      10.3070      0.00000
     14      11.1680      0.00000

 k-point    35 :       0.3333   -0.0000    0.5000
  band No.  band energies     occupation 
      1      -6.2523      2.00000
      2      -6.0504      2.00000
      3      -3.5741      2.00000
      4       0.9196      2.00000
      5       2.3337      2.00000
      6       2.7086      2.00000
      7       3.6626      2.00000
      8       3.8971      2.00000
      9       4.7839      2.00000
     10       7.3922      0.00000
     11       7.8160      0.00000
     12       8.2129      0.00000
     13      10.3038      0.00000
     14      11.4223      0.00000

 k-point    36 :       0.4444    0.0000    0.5000
  band No.  band energies     occupation 
      1      -6.0840      2.00000
      2      -5.7003      2.00000
      3      -4.0690      2.00000
      4       0.3655      2.00000
      5       2.3406      2.00000
      6       2.4686      2.00000
      7       3.4825      2.00000
      8       3.7742      2.00000
      9       5.4638      2.00000
     10       6.7319      0.00000
     11       7.8230      0.00000
     12       8.4583      0.00000
     13      10.3900      0.00000
     14      11.0592      0.00000

 k-point    37 :       0.1111    0.1111    0.5000
  band No.  band energies     occupation 
      1      -6.5338      2.00000
      2      -6.4896      2.00000
      3      -2.8369      2.00000
      4       1.8850      2.00000
      5       2.8035      2.00000
      6       2.8999      2.00000
      7       3.8375      2.00000
      8       4.0315      2.00000
      9       5.1088      2.00000
     10       6.4996      0.00000
     11       7.7810      0.00000
     12       7.8953      0.00000
     13      10.5727      0.00000
     14      10.6294      0.00000

 k-point    38 :       0.2222    0.1111    0.5000
  band No.  band energies     occupation 
      1      -6.3164      2.00000
      2      -6.2006      2.00000
      3      -3.3518      2.00000
      4       1.3507      2.00000
      5       2.1768      2.00000
      6       2.4083      2.00000
      7       3.8386      2.00000
      8       4.2273      2.00000
      9       5.0224      2.00000
     10       6.8781      0.00000
     11       8.0028      0.00000
     12       8.1553      0.00000
     13      10.4295      0.00000
     14      11.3312      0.00000

 k-point    39 :       0.3333    0.1111    0.5000
  band No.  band energies     occupation 
      1      -6.1004      2.00000
      2      -5.8425      2.00000
      3      -3.8935      2.00000
      4       0.6456      2.00000
      5       1.9174      2.00000
      6       2.0834      2.00000
      7       3.9492      2.00000
      8       4.3798      2.00000
      9       5.1916      2.00000
     10       7.0752      0.00000
     11       7.5599      0.00000
     12       8.2160      0.00000
     13      10.4633      0.00000
     14      11.4175      0.00000

 k-point    40 :       0.4444    0.1111    0.5000
  band No.  band energies     occupation 
      1      -6.0070      2.00000
      2      -5.6363      2.00000
      3      -4.1689      2.00000
      4       0.3606      2.00000
      5       1.8583      2.00000
      6       1.9509      2.00000
      7       4.1162      2.00000
      8       4.1889      2.00000
      9       5.7153      2.00000
     10       6.5180      0.00000
     11       7.6353      0.00000
     12       8.2070      0.00000
     13      10.5805      0.00000
     14      11.1069      0.00000

 k-point    41 :       0.2222    0.2222    0.5000
  band No.  band energies     occupation 
      1      -6.0806      2.00000
      2      -5.9291      2.00000
      3      -3.8054      2.00000
      4       1.0024      2.00000
      5       1.4523      2.00000
      6       1.8033      2.00000
      7       4.3083      2.00000
      8       4.6308      2.00000
      9       5.4968      2.00000
     10       6.6720      0.00000
     11       7.8140      0.00000
     12       7.8212      0.00000
     13      10.7808      0.00000
     14      11.6279      0.00000

 k-point    42 :       0.3333    0.2222    0.5000
  band No.  band energies     occupation 
      1      -5.8959      2.00000
      2      -5.6939      2.00000
      3      -4.1603      2.00000
      4       0.6294      2.00000
      5       1.2179      2.00000
      6       1.4060      2.00000
      7       4.6989      2.00000
      8       5.0872      2.00000
      9       5.6827      2.00000
     10       6.6154      0.00000
     11       7.2210      0.00000
     12       7.6017      0.00000
     13      11.1381      0.00000
     14      11.7501      0.00000

 k-point    43 :       0.3333    0.3333    0.5000
  band No.  band energies     occupation 
      1      -5.7208      2.00000
      2      -5.7208      2.00000
      3      -4.2605      2.00000
      4       0.8353      2.00000
      5       0.9438      2.00000
      6       0.9438      2.00000
      7       5.0259      2.00000
      8       5.9299      1.75451
      9       5.9299      1.75451
     10       5.9953      0.49098
     11       7.0859      0.00000
     12       7.0859      0.00000
     13      11.9522      0.00000
     14      12.3986      0.00000


--------------------------------------------------------------------------------------------------------


 soft charge-density along one line, spin component           1
         0         1         2         3         4         5         6         7         8         9
 total charge-density along one line
 
 pseudopotential strength for first ion, spin component:           1
 51.651  56.198  -0.000  -0.000  -0.045  -0.000  -0.000  -0.065
 56.198  61.148  -0.000  -0.000  -0.049  -0.000  -0.000  -0.070
 -0.000  -0.000  12.717   0.009   0.000  18.330   0.013   0.000
 -0.000  -0.000   0.009  12.732   0.000   0.013  18.352   0.000
 -0.045  -0.049   0.000   0.000  12.731   0.000   0.000  18.351
 -0.000  -0.000  18.330   0.013   0.000  26.431   0.019   0.000
 -0.000  -0.000   0.013  18.352   0.000   0.019  26.462   0.000
 -0.065  -0.070   0.000   0.000  18.351   0.000   0.000  26.461
  0.000   0.000  -0.009   0.000  -0.000  -0.013   0.000  -0.000
  0.014   0.015   0.000  -0.000   0.000   0.000  -0.000   0.000
  0.007   0.008   0.000  -0.000   0.005   0.000  -0.000   0.008
  0.000   0.000   0.000  -0.008  -0.000   0.000  -0.012  -0.000
  0.011   0.012   0.000  -0.000  -0.008   0.000  -0.000  -0.012
 total augmentation occupancy for first ion, spin component:           1
 13.410  -9.778   0.000  -0.000   1.921   0.000  -0.000  -0.486  -0.000  -0.155  -0.101   0.000  -0.112
 -9.778   8.380   0.000   0.000  -1.607   0.000  -0.000   0.412   0.000   0.140   0.090   0.000   0.100
  0.000   0.000   2.510   0.192   0.000  -0.482  -0.172  -0.000  -0.048   0.000   0.000  -0.046   0.000
  0.000  -0.000   0.192   2.834   0.000  -0.172  -0.774   0.000  -0.044   0.000   0.000  -0.109  -0.000
  1.921  -1.607   0.000   0.000   2.722   0.000   0.000  -0.707   0.000  -0.050  -0.015   0.000  -0.047
  0.000   0.000  -0.482  -0.172   0.000   0.175   0.062  -0.000   0.011   0.000   0.000   0.016   0.000
 -0.000  -0.000  -0.172  -0.774   0.000   0.062   0.280   0.000   0.016  -0.000  -0.000   0.032  -0.000
 -0.486   0.412   0.000   0.000  -0.707  -0.000  -0.000   0.247   0.000   0.014   0.004   0.000   0.011
 -0.000   0.000  -0.048  -0.044   0.000   0.011   0.016   0.000   0.009   0.000   0.000   0.010   0.000
 -0.155   0.140   0.000   0.000  -0.050   0.000   0.000   0.014   0.000   0.014   0.004   0.000   0.004
 -0.101   0.090  -0.000   0.000  -0.015   0.000   0.000   0.004  -0.000   0.004   0.007   0.000  -0.000
  0.000   0.000  -0.046  -0.109   0.000   0.016   0.032   0.000   0.010   0.000   0.000   0.026   0.000
 -0.112   0.100   0.000   0.000  -0.047   0.000   0.000   0.011   0.000   0.004  -0.000   0.000   0.010


------------------------ aborting loop because EDIFF is reached ----------------------------------------


    CHARGE:  cpu time    0.0345: real time    0.0347
    FORLOC:  cpu time    0.0013: real time    0.0013
    FORNL :  cpu time    0.1254: real time    0.1259
    STRESS:  cpu time    0.2724: real time    0.2734
    FORCOR:  cpu time    0.0221: real time    0.0222
    FORHAR:  cpu time    0.0054: real time    0.0054
    MIXING:  cpu time    0.0010: real time    0.0010
    OFIELD:  cpu time    0.0000: real time    0.0000

 ---------------------------------------------------------------------------------------------

         DFTD3 V3.0 Rev 1        
 Edisp (eV)   -1.29069

 E6    (eV) :    -0.6980
 E8    (eV) :    -0.5926
 % E8        : 45.92
    FORVDW:  cpu time    0.0075: real time    0.0076

  FORCE on cell =-STRESS in cart. coord.  units (eV):
  Direction    XX          YY          ZZ          XY          YZ          ZX
  --------------------------------------------------------------------------------------
  Alpha Z     2.29527     2.29527     2.29527
  Ewald    -237.80536  -237.80536  -201.17432    -0.00000    -0.00000     0.00000
  Hartree    10.94207    10.94207    20.09201     0.00000     0.00000    -0.00000
  E(xc)     -70.28788   -70.28788   -69.79875    -0.00000     0.00000    -0.00000
  Local    -111.05177  -111.05182  -148.02251    -0.00004     0.00000    -0.00000
  n-local   331.69260   332.45699   327.78887    -1.33461    -0.72408    -1.28857
  augment   -81.11335   -81.11330   -78.89963     0.00004    -0.00000     0.00000
  Kinetic   151.92758   158.72357   147.83325    -7.44866     0.04809     1.43432
  Fock        0.00000     0.00000     0.00000     0.00000     0.00000     0.00000
  vdW        -1.38483    -1.38483    -1.36531    -0.00000    -0.00000    -0.00000
  -------------------------------------------------------------------------------------
  Total      -1.00548    -1.00548    -1.25111     0.00000     0.00000     0.00000
  in kB     -15.81829   -15.81829   -19.68263     0.00000     0.00000     0.00000
  external pressure =      -17.11 kB  Pullay stress =        0.00 kB


 VOLUME and BASIS-vectors are now :
 -----------------------------------------------------------------------------
  energy-cutoff  :      520.00
  volume of cell :      101.84
      direct lattice vectors                 reciprocal lattice vectors
     4.420628660  0.000000000 -0.000000000     0.226212170  0.130603657  0.000000000
    -2.210314330  3.828376721  0.000000000     0.000000000  0.261207314  0.000000000
     0.000000000 -0.000000000  6.017617418     0.000000000  0.000000000  0.166178727

  length of vectors
     4.420628660  4.420628660  6.017617418     0.261207314  0.261207314  0.166178727


 FORCES acting on ions
    electron-ion (+dipol)            ewald-force                    non-local-force                 convergence-correction
 -----------------------------------------------------------------------------------------------
   -.978E+01 0.112E-04 -.958E-06   0.144E+02 0.151E-05 0.146E-05   -.464E+01 0.280E-16 0.000E+00   -.254E-02 -.631E-07 0.166E-08
   0.489E+01 -.847E+01 -.189E-04   -.721E+01 0.125E+02 -.836E-05   0.232E+01 -.402E+01 0.555E-16   0.127E-02 -.220E-02 -.118E-08
   0.489E+01 0.847E+01 0.195E-04   -.721E+01 -.125E+02 0.690E-05   0.232E+01 0.402E+01 0.000E+00   0.127E-02 0.220E-02 -.468E-09
 -----------------------------------------------------------------------------------------------
   0.261E-04 -.811E-05 -.332E-06   -.355E-14 -.178E-14 -.174E-17   0.444E-15 -.888E-15 0.555E-16   -.107E-07 -.249E-07 0.101E-10
 
 
 POSITION                                       TOTAL-FORCE (eV/Angst)
 -----------------------------------------------------------------------------------
      1.21645     -0.00000      2.00587        -0.003326      0.000000      0.000000
     -0.60823      1.05348      4.01175         0.001663     -0.002880     -0.000000
      1.60209      2.77490     -0.00000         0.001663      0.002880     -0.000000
 -----------------------------------------------------------------------------------
    total drift:                                0.000026     -0.000008     -0.000000


--------------------------------------------------------------------------------------------------------



  FREE ENERGIE OF THE ION-ELECTRON SYSTEM (eV)
  ---------------------------------------------------
  free  energy   TOTEN  =       -10.70957007 eV

  energy  without entropy=      -10.70925528  energy(sigma->0) =      -10.70941267
 
 d Force = 0.1278506E-02[ 0.127E-03, 0.243E-02]  d Energy = 0.1715374E-02-0.437E-03
 d Force =-0.5321332E+00[-0.551E+00,-0.513E+00]  d Ewald  =-0.7837455E+00 0.252E+00


--------------------------------------------------------------------------------------------------------


    POTLOK:  cpu time    0.0248: real time    0.0250


--------------------------------------------------------------------------------------------------------




--------------------------------------------------------------------------------------------------------


    WAVPRE:  cpu time    0.0063: real time    0.0240
    FEWALD:  cpu time    0.0002: real time    0.0002
    GENKIN:  cpu time    0.0110: real time    0.0111
    ORTHCH:  cpu time    0.0245: real time    0.0247
     LOOP+:  cpu time    2.8116: real time    3.1076


--------------------------------------- Iteration      5(   1)  ---------------------------------------


    POTLOK:  cpu time    0.0270: real time    0.0332
    SETDIJ:  cpu time    0.0028: real time    0.0028
     EDDAV:  cpu time    0.4678: real time    0.4713
       DOS:  cpu time    0.0008: real time    0.0008
    CHARGE:  cpu time    0.0330: real time    0.0332
    MIXING:  cpu time    0.0009: real time    0.0009
    --------------------------------------------
      LOOP:  cpu time    0.5324: real time    0.5423

 eigenvalue-minimisations  :  1204
 total energy-change (2. order) : 0.9254120E-03  (-0.1579963E-01)
 number of electron      17.9999996 magnetization 
 augmentation part       -3.6030534 magnetization 

 Broyden mixing:
  rms(total) = 0.24358E-01    rms(broyden)= 0.24357E-01
  rms(prec ) = 0.44908E-01
  weight for this iteration     100.00

 Free energy of the ion-electron system (eV)
  ---------------------------------------------------
  alpha Z        PSCENC =         2.31464671
  Ewald energy   TEWEN  =      -679.05003339
  -Hartree energ DENC   =       -41.87165188
  -exchange      EXHF   =         0.00000000
  -V(xc)+E(xc)   XCENC  =       -84.01360728
  PAW double counting   =      1500.42632034    -1385.05108439
  entropy T*S    EENTRO =        -0.00035164
  eigenvalues    EBANDS =         8.01349280
  atomic energy  EATOM  =       669.81430600
  Solvation  Ediel_sol  =         0.00000000
  ---------------------------------------------------
  free energy    TOTEN  =        -9.41796274 eV

  energy without entropy =       -9.41761110  energy(sigma->0) =       -9.41778692


--------------------------------------------------------------------------------------------------------




--------------------------------------- Iteration      5(   2)  ---------------------------------------


    POTLOK:  cpu time    0.0209: real time    0.0211
    SETDIJ:  cpu time    0.0028: real time    0.0028
     EDDAV:  cpu time    0.4510: real time    0.4526
       DOS:  cpu time    0.0008: real time    0.0008
    CHARGE:  cpu time    0.0321: real time    0.0322
    MIXING:  cpu time    0.0010: real time    0.0010
    --------------------------------------------
      LOOP:  cpu time    0.5087: real time    0.5106

 eigenvalue-minimisations  :  1306
 total energy-change (2. order) : 0.1588896E-02  (-0.6497619E-03)
 number of electron      17.9999996 magnetization 
 augmentation part       -3.6033741 magnetization 

 Broyden mixing:
  rms(total) = 0.16559E-01    rms(broyden)= 0.16559E-01
  rms(prec ) = 0.27847E-01
  weight for this iteration     100.00

 eigenvalues of (default mixing * dielectric matrix)
  average eigenvalue GAMMA=   0.9596
  0.9596

 Free energy of the ion-electron system (eV)
  ---------------------------------------------------
  alpha Z        PSCENC =         2.31464671
  Ewald energy   TEWEN  =      -679.05003339
  -Hartree energ DENC   =       -41.58990094
  -exchange      EXHF   =         0.00000000
  -V(xc)+E(xc)   XCENC  =       -84.00682690
  PAW double counting   =      1502.33420391    -1386.95517940
  entropy T*S    EENTRO =        -0.00035027
  eigenvalues    EBANDS =         7.72276045
  atomic energy  EATOM  =       669.81430600
  Solvation  Ediel_sol  =         0.00000000
  ---------------------------------------------------
  free energy    TOTEN  =        -9.41637385 eV

  energy without entropy =       -9.41602358  energy(sigma->0) =       -9.41619871


--------------------------------------------------------------------------------------------------------




--------------------------------------- Iteration      5(   3)  ---------------------------------------


    POTLOK:  cpu time    0.0208: real time    0.0209
    SETDIJ:  cpu time    0.0028: real time    0.0028
     EDDAV:  cpu time    0.4724: real time    0.4736
       DOS:  cpu time    0.0008: real time    0.0008
    CHARGE:  cpu time    0.0319: real time    0.0320
    MIXING:  cpu time    0.0011: real time    0.0011
    --------------------------------------------
      LOOP:  cpu time    0.5299: real time    0.5313

 eigenvalue-minimisations  :  1390
 total energy-change (2. order) : 0.9907019E-03  (-0.1529368E-03)
 number of electron      17.9999996 magnetization 
 augmentation part       -3.6088566 magnetization 

 Broyden mixing:
  rms(total) = 0.10063E-01    rms(broyden)= 0.10063E-01
  rms(prec ) = 0.11780E-01
  weight for this iteration     100.00

 eigenvalues of (default mixing * dielectric matrix)
  average eigenvalue GAMMA=   1.1899
  1.6958  0.6839

 Free energy of the ion-electron system (eV)
  ---------------------------------------------------
  alpha Z        PSCENC =         2.31464671
  Ewald energy   TEWEN  =      -679.05003339
  -Hartree energ DENC   =       -41.33457289
  -exchange      EXHF   =         0.00000000
  -V(xc)+E(xc)   XCENC  =       -83.99557899
  PAW double counting   =      1506.70898691    -1391.32876558
  entropy T*S    EENTRO =        -0.00035131
  eigenvalues    EBANDS =         7.45597939
  atomic energy  EATOM  =       669.81430600
  Solvation  Ediel_sol  =         0.00000000
  ---------------------------------------------------
  free energy    TOTEN  =        -9.41538314 eV

  energy without entropy =       -9.41503183  energy(sigma->0) =       -9.41520749


--------------------------------------------------------------------------------------------------------




--------------------------------------- Iteration      5(   4)  ---------------------------------------


    POTLOK:  cpu time    0.0209: real time    0.0210
    SETDIJ:  cpu time    0.0027: real time    0.0027
     EDDAV:  cpu time    0.4689: real time    0.5865
       DOS:  cpu time    0.0008: real time    0.0008
    CHARGE:  cpu time    0.0320: real time    0.0321
    MIXING:  cpu time    0.0011: real time    0.0011
    --------------------------------------------
      LOOP:  cpu time    0.5265: real time    0.6443

 eigenvalue-minimisations  :  1334
 total energy-change (2. order) : 0.7643623E-04  (-0.1930872E-04)
 number of electron      17.9999996 magnetization 
 augmentation part       -3.6111263 magnetization 

 Broyden mixing:
  rms(total) = 0.15805E-01    rms(broyden)= 0.15805E-01
  rms(prec ) = 0.15839E-01
  weight for this iteration     100.00

 eigenvalues of (default mixing * dielectric matrix)
  average eigenvalue GAMMA=   0.8369
  1.6762  0.5060  0.3286

 Free energy of the ion-electron system (eV)
  ---------------------------------------------------
  alpha Z        PSCENC =         2.31464671
  Ewald energy   TEWEN  =      -679.05003339
  -Hartree energ DENC   =       -41.25236603
  -exchange      EXHF   =         0.00000000
  -V(xc)+E(xc)   XCENC  =       -83.99125002
  PAW double counting   =      1508.85111240    -1393.47268094
  entropy T*S    EENTRO =        -0.00035081
  eigenvalues    EBANDS =         7.37130938
  atomic energy  EATOM  =       669.81430600
  Solvation  Ediel_sol  =         0.00000000
  ---------------------------------------------------
  free energy    TOTEN  =        -9.41530671 eV

  energy without entropy =       -9.41495590  energy(sigma->0) =       -9.41513130


--------------------------------------------------------------------------------------------------------




--------------------------------------- Iteration      5(   5)  ---------------------------------------


    POTLOK:  cpu time    0.0210: real time    0.0211
    SETDIJ:  cpu time    0.0028: real time    0.0028
     EDDAV:  cpu time    0.3167: real time    0.3175
       DOS:  cpu time    0.0009: real time    0.0009
    --------------------------------------------
      LOOP:  cpu time    0.3413: real time    0.3422

 eigenvalue-minimisations  :   674
 total energy-change (2. order) : 0.1541349E-05  (-0.4116335E-06)
 number of electron      17.9999996 magnetization 
 augmentation part       -3.6111263 magnetization 

 Free energy of the ion-electron system (eV)
  ---------------------------------------------------
  alpha Z        PSCENC =         2.31464671
  Ewald energy   TEWEN  =      -679.05003339
  -Hartree energ DENC   =       -41.25039733
  -exchange      EXHF   =         0.00000000
  -V(xc)+E(xc)   XCENC  =       -83.99118729
  PAW double counting   =      1510.02325371    -1394.64641402
  entropy T*S    EENTRO =        -0.00035048
  eigenvalues    EBANDS =         7.37087095
  atomic energy  EATOM  =       669.81430600
  Solvation  Ediel_sol  =         0.00000000
  ---------------------------------------------------
  free energy    TOTEN  =        -9.41530517 eV

  energy without entropy =       -9.41495468  energy(sigma->0) =       -9.41512992


--------------------------------------------------------------------------------------------------------




 average (electrostatic) potential at core
  the test charge radii are     1.1897
  (the norm of the test charge is              1.0000)
       1 -88.9514       2 -88.9514       3 -88.9514
 
 
 
 E-fermi :   6.0799     XC(G=0):  -9.1250     alpha+bet :-10.6485


 k-point     1 :       0.0000    0.0000    0.0000
  band No.  band energies     occupation 
      1      -7.5270      2.00000
      2      -4.3063      2.00000
      3      -4.3063      2.00000
      4       3.1514      2.00000
      5       3.4322      2.00000
      6       3.4322      2.00000
      7       4.3983      2.00000
      8       4.3983      2.00000
      9       5.1185      2.00000
     10       7.0180      0.00000
     11       7.0180      0.00000
     12       7.6912      0.00000
     13      11.0096      0.00000
     14      11.0096      0.00000

 k-point     2 :       0.1111    0.0000    0.0000
  band No.  band energies     occupation 
      1      -7.4378      2.00000
      2      -4.3243      2.00000
      3      -4.2806      2.00000
      4       2.4428      2.00000
      5       2.9516      2.00000
      6       3.2121      2.00000
      7       4.7193      2.00000
      8       4.9783      2.00000
      9       5.4358      2.00000
     10       6.6802      0.00000
     11       6.9346      0.00000
     12       7.5188      0.00000
     13      10.7233      0.00000
     14      10.9927      0.00000

 k-point     3 :       0.2222    0.0000    0.0000
  band No.  band energies     occupation 
      1      -7.1803      2.00000
      2      -4.4262      2.00000
      3      -4.2090      2.00000
      4       1.5961      2.00000
      5       2.3204      2.00000
      6       2.8055      2.00000
      7       4.7953      2.00000
      8       5.1334      2.00000
      9       5.2727      2.00000
     10       6.7991      0.00000
     11       7.0254      0.00000
     12       7.6086      0.00000
     13       9.9299      0.00000
     14      11.2880      0.00000

 k-point     4 :       0.3333   -0.0000    0.0000
  band No.  band energies     occupation 
      1      -6.7963      2.00000
      2      -4.6867      2.00000
      3      -4.1171      2.00000
      4       1.2017      2.00000
      5       1.8294      2.00000
      6       2.4695      2.00000
      7       3.6299      2.00000
      8       5.2290      2.00000
      9       5.2995      2.00000
     10       6.7431      0.00000
     11       6.9305      0.00000
     12       8.7233      0.00000
     13       9.2616      0.00000
     14      12.1446      0.00000

 k-point     5 :       0.4444    0.0000    0.0000
  band No.  band energies     occupation 
      1      -6.4212      2.00000
      2      -5.0173      2.00000
      3      -4.0512      2.00000
      4       1.1966      2.00000
      5       1.6345      2.00000
      6       2.3279      2.00000
      7       2.6754      2.00000
      8       5.1711      2.00000
      9       5.3112      2.00000
     10       6.7416      0.00000
     11       6.8058      0.00000
     12       8.9038      0.00000
     13       9.5451      0.00000
     14      13.3168      0.00000

 k-point     6 :       0.1111    0.1111    0.0000
  band No.  band energies     occupation 
      1      -7.2642      2.00000
      2      -4.3665      2.00000
      3      -4.2508      2.00000
      4       1.8774      2.00000
      5       2.1933      2.00000
      6       3.2851      2.00000
      7       4.4426      2.00000
      8       5.3694      2.00000
      9       5.3786      2.00000
     10       6.6800      0.00000
     11       7.0058      0.00000
     12       7.5852      0.00000
     13      10.5290      0.00000
     14      10.5748      0.00000

 k-point     7 :       0.2222    0.1111    0.0000
  band No.  band energies     occupation 
      1      -6.9404      2.00000
      2      -4.5198      2.00000
      3      -4.2091      2.00000
      4       1.3617      2.00000
      5       1.7376      2.00000
      6       2.9305      2.00000
      7       4.2060      2.00000
      8       4.5291      2.00000
      9       5.0512      2.00000
     10       7.1434      0.00000
     11       7.5603      0.00000
     12       8.0603      0.00000
     13       9.8719      0.00000
     14      10.9487      0.00000

 k-point     8 :       0.3333    0.1111    0.0000
  band No.  band energies     occupation 
      1      -6.5411      2.00000
      2      -4.8240      2.00000
      3      -4.1628      2.00000
      4       1.2304      2.00000
      5       1.5847      2.00000
      6       2.5097      2.00000
      7       3.1593      2.00000
      8       4.5109      2.00000
      9       4.7630      2.00000
     10       7.3052      0.00000
     11       7.5574      0.00000
     12       9.1142      0.00000
     13       9.4214      0.00000
     14      11.9565      0.00000

 k-point     9 :       0.4444    0.1111    0.0000
  band No.  band energies     occupation 
      1      -6.3096      2.00000
      2      -5.0332      2.00000
      3      -4.1424      2.00000
      4       1.2816      2.00000
      5       1.6289      2.00000
      6       2.4569      2.00000
      7       2.4827      2.00000
      8       4.5739      2.00000
      9       4.6029      2.00000
     10       7.3399      0.00000
     11       7.5361      0.00000
     12       9.2593      0.00000
     13       9.5850      0.00000
     14      13.0377      0.00000

 k-point    10 :       0.2222    0.2222    0.0000
  band No.  band energies     occupation 
      1      -6.5902      2.00000
      2      -4.6521      2.00000
      3      -4.3083      2.00000
      4       1.3412      2.00000
      5       1.4348      2.00000
      6       2.8742      2.00000
      7       3.6639      2.00000
      8       3.9963      2.00000
      9       4.0054      2.00000
     10       8.0562      0.00000
     11       8.2679      0.00000
     12       8.4211      0.00000
     13      10.3425      0.00000
     14      10.6410      0.00000

 k-point    11 :       0.3333    0.2222    0.0000
  band No.  band energies     occupation 
      1      -6.2655      2.00000
      2      -4.8479      2.00000
      3      -4.3929      2.00000
      4       1.4398      2.00000
      5       1.5706      2.00000
      6       2.6120      2.00000
      7       2.9082      2.00000
      8       3.6526      2.00000
      9       3.7211      2.00000
     10       8.2791      0.00000
     11       8.5186      0.00000
     12       9.2203      0.00000
     13      10.2356      0.00000
     14      11.6578      0.00000

 k-point    12 :       0.3333    0.3333    0.0000
  band No.  band energies     occupation 
      1      -6.1372      2.00000
      2      -4.6862      2.00000
      3      -4.6862      2.00000
      4       1.6306      2.00000
      5       1.6306      2.00000
      6       2.8853      2.00000
      7       2.8853      2.00000
      8       3.0260      2.00000
      9       3.1699      2.00000
     10       8.9131      0.00000
     11       8.9131      0.00000
     12       9.1446      0.00000
     13      11.0363      0.00000
     14      11.8579      0.00000

 k-point    13 :       0.0000    0.0000    0.2500
  band No.  band energies     occupation 
      1      -7.3080      2.00000
      2      -5.6294      2.00000
      3      -2.9399      2.00000
      4       2.6474      2.00000
      5       3.2565      2.00000
      6       3.6361      2.00000
      7       4.5985      2.00000
      8       4.7357      2.00000
      9       5.1601      2.00000
     10       6.6617      0.00000
     11       6.7186      0.00000
     12       7.1577      0.00000
     13      10.3123      0.00000
     14      11.5326      0.00000

 k-point    14 :       0.1111    0.0000    0.2500
  band No.  band energies     occupation 
      1      -7.2224      2.00000
      2      -5.5725      2.00000
      3      -3.0428      2.00000
      4       2.3476      2.00000
      5       3.1040      2.00000
      6       3.5165      2.00000
      7       4.2545      2.00000
      8       4.7548      2.00000
      9       4.8311      2.00000
     10       6.9381      0.00000
     11       7.1036      0.00000
     12       7.5567      0.00000
     13      10.4447      0.00000
     14      11.5197      0.00000

 k-point    15 :       0.2222    0.0000    0.2500
  band No.  band energies     occupation 
      1      -6.9807      2.00000
      2      -5.4063      2.00000
      3      -3.3800      2.00000
      4       1.9984      2.00000
      5       2.6823      2.00000
      6       3.1604      2.00000
      7       3.6029      2.00000
      8       4.2108      2.00000
      9       4.6650      2.00000
     10       7.3849      0.00000
     11       7.9277      0.00000
     12       8.3137      0.00000
     13      10.7954      0.00000
     14      11.2151      0.00000

 k-point    16 :       0.3333   -0.0000    0.2500
  band No.  band energies     occupation 
      1      -6.6312      2.00000
      2      -5.1883      2.00000
      3      -3.8706      2.00000
      4       1.6758      2.00000
      5       2.0597      2.00000
      6       2.7913      2.00000
      7       3.0805      2.00000
      8       4.2227      2.00000
      9       4.5695      2.00000
     10       7.4237      0.00000
     11       8.0449      0.00000
     12       9.1225      0.00000
     13      10.2324      0.00000
     14      11.6695      0.00000

 k-point    17 :       0.4444    0.0000    0.2500
  band No.  band energies     occupation 
      1      -6.2937      2.00000
      2      -5.1513      2.00000
      3      -4.1450      2.00000
      4       1.0114      2.00000
      5       1.7329      2.00000
      6       2.5174      2.00000
      7       3.5160      2.00000
      8       4.2749      2.00000
      9       4.5171      2.00000
     10       7.3009      0.00000
     11       7.9705      0.00000
     12       8.8897      0.00000
     13       9.7332      0.00000
     14      12.0914      0.00000

 k-point    18 :      -0.4444   -0.0000    0.2500
  band No.  band energies     occupation 
      1      -6.2472      2.00000
      2      -5.3344      2.00000
      3      -3.9282      2.00000
      4       0.6501      2.00000
      5       1.6047      2.00000
      6       2.4854      2.00000
      7       4.3075      2.00000
      8       4.4263      2.00000
      9       4.6199      2.00000
     10       7.1537      0.00000
     11       7.7673      0.00000
     12       8.1017      0.00000
     13       9.4402      0.00000
     14      12.6845      0.00000

 k-point    19 :      -0.3333    0.0000    0.2500
  band No.  band energies     occupation 
      1      -6.5897      2.00000
      2      -5.3867      2.00000
      3      -3.5620      2.00000
      4       0.8632      2.00000
      5       1.6822      2.00000
      6       2.6409      2.00000
      7       4.6359      2.00000
      8       4.7233      2.00000
      9       5.4516      2.00000
     10       6.8145      0.00000
     11       7.2787      0.00000
     12       7.5457      0.00000
     13       9.3825      0.00000
     14      12.8095      0.00000

 k-point    20 :      -0.2222   -0.0000    0.2500
  band No.  band energies     occupation 
      1      -6.9676      2.00000
      2      -5.4725      2.00000
      3      -3.2372      2.00000
      4       1.6269      2.00000
      5       1.9821      2.00000
      6       2.9466      2.00000
      7       4.9160      2.00000
      8       5.0434      2.00000
      9       5.5993      2.00000
     10       6.5743      0.00000
     11       7.0302      0.00000
     12       7.2313      0.00000
     13       9.6391      0.00000
     14      12.1641      0.00000

 k-point    21 :      -0.1111   -0.0000    0.2500
  band No.  band energies     occupation 
      1      -7.2208      2.00000
      2      -5.5807      2.00000
      3      -3.0207      2.00000
      4       2.3722      2.00000
      5       2.7383      2.00000
      6       3.3527      2.00000
      7       4.7137      2.00000
      8       5.0454      2.00000
      9       5.2725      2.00000
     10       6.5692      0.00000
     11       6.6051      0.00000
     12       7.5350      0.00000
     13      10.1417      0.00000
     14      11.5184      0.00000

 k-point    22 :       0.1111    0.1111    0.2500
  band No.  band energies     occupation 
      1      -7.0545      2.00000
      2      -5.4813      2.00000
      3      -3.2173      2.00000
      4       2.0144      2.00000
      5       2.3136      2.00000
      6       3.2023      2.00000
      7       4.2058      2.00000
      8       4.7861      2.00000
      9       5.1303      2.00000
     10       6.9203      0.00000
     11       7.4747      0.00000
     12       7.6532      0.00000
     13      10.2012      0.00000
     14      11.5770      0.00000

 k-point    23 :       0.2222    0.1111    0.2500
  band No.  band energies     occupation 
      1      -6.7537      2.00000
      2      -5.2938      2.00000
      3      -3.6369      2.00000
      4       1.6531      2.00000
      5       2.0628      2.00000
      6       2.9562      2.00000
      7       3.2050      2.00000
      8       4.2753      2.00000
      9       5.2724      2.00000
     10       7.0622      0.00000
     11       7.8339      0.00000
     12       8.7725      0.00000
     13      10.5932      0.00000
     14      11.0276      0.00000

 k-point    24 :       0.3333    0.1111    0.2500
  band No.  band energies     occupation 
      1      -6.3953      2.00000
      2      -5.1288      2.00000
      3      -4.0834      2.00000
      4       1.3275      2.00000
      5       1.5749      2.00000
      6       2.6532      2.00000
      7       3.2140      2.00000
      8       3.8741      2.00000
      9       5.3451      2.00000
     10       6.9228      0.00000
     11       8.1874      0.00000
     12       9.0868      0.00000
     13      10.1253      0.00000
     14      11.7959      0.00000

 k-point    25 :       0.4444    0.1111    0.2500
  band No.  band energies     occupation 
      1      -6.1689      2.00000
      2      -5.2270      2.00000
      3      -4.1293      2.00000
      4       0.8172      2.00000
      5       1.4597      2.00000
      6       2.5746      2.00000
      7       3.4391      2.00000
      8       4.0427      2.00000
      9       5.3973      2.00000
     10       6.8089      0.00000
     11       8.2379      0.00000
     12       8.5241      0.00000
     13       9.8391      0.00000
     14      12.5037      0.00000

 k-point    26 :      -0.4444    0.1111    0.2500
  band No.  band energies     occupation 
      1      -6.3516      2.00000
      2      -5.3215      2.00000
      3      -3.8363      2.00000
      4       0.7258      2.00000
      5       1.6024      2.00000
      6       2.5794      2.00000
      7       3.5007      2.00000
      8       4.9214      2.00000
      9       5.4546      2.00000
     10       6.7112      0.00000
     11       7.5554      0.00000
     12       8.2562      0.00000
     13       9.7390      0.00000
     14      12.5006      0.00000

 k-point    27 :      -0.3333    0.1111    0.2500
  band No.  band energies     occupation 
      1      -6.7375      2.00000
      2      -5.3736      2.00000
      3      -3.4970      2.00000
      4       1.2164      2.00000
      5       1.8588      2.00000
      6       2.7943      2.00000
      7       3.7611      2.00000
      8       5.2154      2.00000
      9       5.7746      2.00000
     10       6.4877      0.00000
     11       7.1507      0.00000
     12       8.0691      0.00000
     13       9.8286      0.00000
     14      11.7857      0.00000

 k-point    28 :       0.2222    0.2222    0.2500
  band No.  band energies     occupation 
      1      -6.4162      2.00000
      2      -5.2202      2.00000
      3      -3.9226      2.00000
      4       1.0156      2.00000
      5       1.7443      2.00000
      6       2.5278      2.00000
      7       3.0063      2.00000
      8       4.6701      2.00000
      9       5.6104      2.00000
     10       6.7963      0.00000
     11       7.6894      0.00000
     12       8.8798      0.00000
     13      10.5440      0.00000
     14      11.1075      0.00000

 k-point    29 :       0.3333    0.2222    0.2500
  band No.  band energies     occupation 
      1      -6.1256      2.00000
      2      -5.1392      2.00000
      3      -4.2459      2.00000
      4       1.0066      2.00000
      5       1.3143      2.00000
      6       2.1693      2.00000
      7       3.3137      2.00000
      8       4.1826      2.00000
      9       5.3717      2.00000
     10       7.0648      0.00000
     11       8.2999      0.00000
     12       8.7995      0.00000
     13      10.5849      0.00000
     14      11.7527      0.00000

 k-point    30 :       0.4444    0.2222    0.2500
  band No.  band energies     occupation 
      1      -6.1103      2.00000
      2      -5.2006      2.00000
      3      -4.1810      2.00000
      4       0.8278      2.00000
      5       1.4122      2.00000
      6       2.1907      2.00000
      7       3.2365      2.00000
      8       4.5466      2.00000
      9       5.1929      2.00000
     10       7.2504      0.00000
     11       7.9495      0.00000
     12       8.7391      0.00000
     13      10.4809      0.00000
     14      12.0172      0.00000

 k-point    31 :       0.3333    0.3333    0.2500
  band No.  band energies     occupation 
      1      -5.9968      2.00000
      2      -5.1388      2.00000
      3      -4.3418      2.00000
      4       0.9616      2.00000
      5       1.3125      2.00000
      6       1.7584      2.00000
      7       3.5397      2.00000
      8       4.4337      2.00000
      9       4.8037      2.00000
     10       7.7775      0.00000
     11       8.3109      0.00000
     12       8.4138      0.00000
     13      11.4474      0.00000
     14      11.7449      0.00000

 k-point    32 :       0.0000    0.0000    0.5000
  band No.  band energies     occupation 
      1      -6.6620      2.00000
      2      -6.6620      2.00000
      3      -2.2323      2.00000
      4       2.1135      2.00000
      5       3.4798      2.00000
      6       3.4798      2.00000
      7       4.8002      2.00000
      8       5.1675      2.00000
      9       5.1675      2.00000
     10       6.4349      0.00000
     11       6.4760      0.00000
     12       6.4760      0.00000
     13       9.9632      0.00000
     14      11.2885      0.00000

 k-point    33 :       0.1111    0.0000    0.5000
  band No.  band energies     occupation 
      1      -6.5938      2.00000
      2      -6.5782      2.00000
      3      -2.4109      2.00000
      4       2.1010      2.00000
      5       3.2918      2.00000
      6       3.3982      2.00000
      7       4.1924      2.00000
      8       4.6616      2.00000
      9       4.9019      2.00000
     10       6.7212      0.00000
     11       6.9738      0.00000
     12       7.4324      0.00000
     13      10.2141      0.00000
     14      10.9768      0.00000

 k-point    34 :       0.2222    0.0000    0.5000
  band No.  band energies     occupation 
      1      -6.4089      2.00000
      2      -6.3349      2.00000
      3      -2.8815      2.00000
      4       1.8081      2.00000
      5       2.6252      2.00000
      6       3.1186      2.00000
      7       3.9668      2.00000
      8       4.1728      2.00000
      9       4.5982      2.00000
     10       7.2457      0.00000
     11       7.7462      0.00000
     12       8.2037      0.00000
     13      10.3731      0.00000
     14      11.2693      0.00000

 k-point    35 :       0.3333   -0.0000    0.5000
  band No.  band energies     occupation 
      1      -6.1724      2.00000
      2      -5.9675      2.00000
      3      -3.4894      2.00000
      4       0.9846      2.00000
      5       2.4207      2.00000
      6       2.8072      2.00000
      7       3.7346      2.00000
      8       3.9648      2.00000
      9       4.8640      2.00000
     10       7.5182      0.00000
     11       7.9222      0.00000
     12       8.3381      0.00000
     13      10.3711      0.00000
     14      11.5194      0.00000

 k-point    36 :       0.4444    0.0000    0.5000
  band No.  band energies     occupation 
      1      -5.9981      2.00000
      2      -5.6025      2.00000
      3      -4.0027      2.00000
      4       0.4161      2.00000
      5       2.4337      2.00000
      6       2.5651      2.00000
      7       3.5494      2.00000
      8       3.8363      2.00000
      9       5.5584      2.00000
     10       6.8229      0.00000
     11       7.9463      0.00000
     12       8.5835      0.00000
     13      10.4682      0.00000
     14      11.1255      0.00000

 k-point    37 :       0.1111    0.1111    0.5000
  band No.  band energies     occupation 
      1      -6.4627      2.00000
      2      -6.4187      2.00000
      3      -2.7326      2.00000
      4       1.9799      2.00000
      5       2.8888      2.00000
      6       2.9923      2.00000
      7       3.9061      2.00000
      8       4.1047      2.00000
      9       5.2243      2.00000
     10       6.5866      0.00000
     11       7.9103      0.00000
     12       8.0179      0.00000
     13      10.6534      0.00000
     14      10.7060      0.00000

 k-point    38 :       0.2222    0.1111    0.5000
  band No.  band energies     occupation 
      1      -6.2387      2.00000
      2      -6.1223      2.00000
      3      -3.2604      2.00000
      4       1.4301      2.00000
      5       2.2529      2.00000
      6       2.4899      2.00000
      7       3.9084      2.00000
      8       4.3097      2.00000
      9       5.1237      2.00000
     10       6.9822      0.00000
     11       8.1230      0.00000
     12       8.2780      0.00000
     13      10.5039      0.00000
     14      11.4274      0.00000

 k-point    39 :       0.3333    0.1111    0.5000
  band No.  band energies     occupation 
      1      -6.0155      2.00000
      2      -5.7516      2.00000
      3      -3.8189      2.00000
      4       0.7030      2.00000
      5       1.9928      2.00000
      6       2.1621      2.00000
      7       4.0251      2.00000
      8       4.4720      2.00000
      9       5.2793      2.00000
     10       7.1888      0.00000
     11       7.6621      0.00000
     12       8.3355      0.00000
     13      10.5398      0.00000
     14      11.5009      0.00000

 k-point    40 :       0.4444    0.1111    0.5000
  band No.  band energies     occupation 
      1      -5.9186      2.00000
      2      -5.5345      2.00000
      3      -4.1068      2.00000
      4       0.4102      2.00000
      5       1.9311      2.00000
      6       2.0303      2.00000
      7       4.2013      2.00000
      8       4.2712      2.00000
      9       5.8194      2.00000
     10       6.6011      0.00000
     11       7.7533      0.00000
     12       8.3216      0.00000
     13      10.6658      0.00000
     14      11.1714      0.00000

 k-point    41 :       0.2222    0.2222    0.5000
  band No.  band energies     occupation 
      1      -5.9950      2.00000
      2      -5.8419      2.00000
      3      -3.7268      2.00000
      4       1.0733      2.00000
      5       1.5114      2.00000
      6       1.8719      2.00000
      7       4.3928      2.00000
      8       4.7192      2.00000
      9       5.6135      2.00000
     10       6.7672      0.00000
     11       7.9245      0.00000
     12       7.9255      0.00000
     13      10.8706      0.00000
     14      11.7198      0.00000

 k-point    42 :       0.3333    0.2222    0.5000
  band No.  band energies     occupation 
      1      -5.8037      2.00000
      2      -5.5952      2.00000
      3      -4.0955      2.00000
      4       0.6847      2.00000
      5       1.2764      2.00000
      6       1.4695      2.00000
      7       4.7989      2.00000
      8       5.1892      2.00000
      9       5.7845      2.00000
     10       6.7243      0.00000
     11       7.3071      0.00000
     12       7.6971      0.00000
     13      11.2327      0.00000
     14      11.8347      0.00000

 k-point    43 :       0.3333    0.3333    0.5000
  band No.  band energies     occupation 
      1      -5.6218      2.00000
      2      -5.6218      2.00000
      3      -4.2000      2.00000
      4       0.8992      2.00000
      5       0.9945      2.00000
      6       0.9945      2.00000
      7       5.1428      2.00000
      8       6.0427      1.70700
      9       6.0427      1.70699
     10       6.0992      0.58601
     11       7.1591      0.00000
     12       7.1591      0.00000
     13      12.0704      0.00000
     14      12.4926      0.00000


--------------------------------------------------------------------------------------------------------


 soft charge-density along one line, spin component           1
         0         1         2         3         4         5         6         7         8         9
 total charge-density along one line
 
 pseudopotential strength for first ion, spin component:           1
 51.612  56.155  -0.000  -0.000  -0.044  -0.000  -0.000  -0.064
 56.155  61.101  -0.000  -0.000  -0.048  -0.000  -0.000  -0.069
 -0.000  -0.000  12.708   0.009   0.000  18.318   0.013   0.000
 -0.000  -0.000   0.009  12.723   0.000   0.013  18.339   0.000
 -0.044  -0.048   0.000   0.000  12.723   0.000   0.000  18.339
 -0.000  -0.000  18.318   0.013   0.000  26.414   0.018   0.000
 -0.000  -0.000   0.013  18.339   0.000   0.018  26.445   0.000
 -0.064  -0.069   0.000   0.000  18.339   0.000   0.000  26.444
  0.000   0.000  -0.009   0.000  -0.000  -0.012   0.000  -0.000
  0.014   0.015   0.000  -0.000   0.000   0.000  -0.000   0.000
  0.007   0.007   0.000  -0.000   0.005   0.000  -0.000   0.008
  0.000   0.000   0.000  -0.008  -0.000   0.000  -0.011  -0.000
  0.011   0.012   0.000  -0.000  -0.008   0.000  -0.000  -0.012
 total augmentation occupancy for first ion, spin component:           1
 13.506  -9.879   0.000   0.000   1.881   0.000   0.000  -0.473   0.000  -0.154  -0.102   0.000  -0.112
 -9.879   8.485   0.000   0.000  -1.576   0.000  -0.000   0.403   0.000   0.139   0.091   0.000   0.100
  0.000   0.000   2.529   0.187   0.000  -0.493  -0.167   0.000  -0.047   0.000   0.000  -0.045   0.000
 -0.000   0.000   0.187   2.852   0.000  -0.167  -0.783   0.000  -0.043   0.000   0.000  -0.106  -0.000
  1.881  -1.576   0.000   0.000   2.738   0.000  -0.000  -0.714   0.000  -0.049  -0.015   0.000  -0.046
  0.000   0.000  -0.493  -0.167   0.000   0.179   0.061   0.000   0.011   0.000  -0.000   0.016   0.000
 -0.000  -0.000  -0.167  -0.783   0.000   0.061   0.284   0.000   0.016  -0.000   0.000   0.031   0.000
 -0.473   0.403   0.000  -0.000  -0.714   0.000   0.000   0.250   0.000   0.014   0.004   0.000   0.011
 -0.000   0.000  -0.047  -0.043   0.000   0.011   0.016   0.000   0.009   0.000  -0.000   0.011   0.000
 -0.154   0.139   0.000  -0.000  -0.049   0.000   0.000   0.014   0.000   0.015   0.004   0.000   0.004
 -0.102   0.091   0.000   0.000  -0.015  -0.000   0.000   0.004  -0.000   0.004   0.007  -0.000  -0.000
  0.000   0.000  -0.045  -0.106   0.000   0.016   0.031  -0.000   0.011   0.000   0.000   0.026   0.000
 -0.112   0.100   0.000   0.000  -0.046   0.000   0.000   0.011   0.000   0.004  -0.000   0.000   0.010


------------------------ aborting loop because EDIFF is reached ----------------------------------------


    CHARGE:  cpu time    0.0336: real time    0.0337
    FORLOC:  cpu time    0.0015: real time    0.0015
    FORNL :  cpu time    0.1295: real time    0.1298
    STRESS:  cpu time    0.2719: real time    0.2725
    FORCOR:  cpu time    0.0223: real time    0.0224
    FORHAR:  cpu time    0.0052: real time    0.0052
    MIXING:  cpu time    0.0011: real time    0.0011
    OFIELD:  cpu time    0.0000: real time    0.0000

 ---------------------------------------------------------------------------------------------

         DFTD3 V3.0 Rev 1        
 Edisp (eV)   -1.30240

 E6    (eV) :    -0.7043
 E8    (eV) :    -0.5981
 % E8        : 45.92
    FORVDW:  cpu time    0.0076: real time    0.0076

  FORCE on cell =-STRESS in cart. coord.  units (eV):
  Direction    XX          YY          ZZ          XY          YZ          ZX
  --------------------------------------------------------------------------------------
  Alpha Z     2.31465     2.31465     2.31465
  Ewald    -238.27690  -238.27689  -202.49699    -0.00000    -0.00000     0.00000
  Hartree    10.79489    10.79489    19.64772     0.00000     0.00000    -0.00000
  E(xc)     -70.32593   -70.32593   -69.83713    -0.00000     0.00000     0.00000
  Local    -110.46322  -110.46327  -146.41286    -0.00004     0.00000    -0.00000
  n-local   331.78806   332.54904   327.90113    -1.35409    -0.71822    -1.28517
  augment   -81.10687   -81.10682   -78.91886     0.00004    -0.00000     0.00000
  Kinetic   151.93269   158.84684   148.07070    -7.54309     0.04524     1.45799
  Fock        0.00000     0.00000     0.00000     0.00000     0.00000     0.00000
  vdW        -1.39339    -1.39339    -1.37614    -0.00000     0.00000    -0.00000
  -------------------------------------------------------------------------------------
  Total      -0.89845    -0.89845    -1.10778     0.00000     0.00000     0.00000
  in kB     -14.25381   -14.25381   -17.57486     0.00000     0.00000     0.00000
  external pressure =      -15.36 kB  Pullay stress =        0.00 kB


 VOLUME and BASIS-vectors are now :
 -----------------------------------------------------------------------------
  energy-cutoff  :      520.00
  volume of cell :      100.99
      direct lattice vectors                 reciprocal lattice vectors
     4.404817195  0.000000000 -0.000000000     0.227024177  0.131072470  0.000000000
    -2.202408597  3.814683590  0.000000000     0.000000000  0.262144940  0.000000000
     0.000000000 -0.000000000  6.010150976     0.000000000  0.000000000  0.166385171

  length of vectors
     4.404817195  4.404817195  6.010150976     0.262144940  0.262144940  0.166385171


 FORCES acting on ions
    electron-ion (+dipol)            ewald-force                    non-local-force                 convergence-correction
 -----------------------------------------------------------------------------------------------
   -.942E+01 0.111E-04 -.919E-06   0.139E+02 0.152E-05 0.142E-05   -.453E+01 -.275E-16 0.555E-16   0.331E-02 0.298E-07 -.137E-08
   0.471E+01 -.816E+01 -.189E-04   -.697E+01 0.121E+02 -.836E-05   0.227E+01 -.392E+01 -.555E-16   -.166E-02 0.287E-02 0.301E-08
   0.471E+01 0.816E+01 0.195E-04   -.697E+01 -.121E+02 0.694E-05   0.227E+01 0.392E+01 0.000E+00   -.166E-02 -.287E-02 -.165E-08
 -----------------------------------------------------------------------------------------------
   0.261E-04 -.824E-05 -.334E-06   0.000E+00 0.355E-14 -.347E-17   0.000E+00 0.000E+00 0.000E+00   0.822E-08 0.185E-07 -.177E-10
 
 
 POSITION                                       TOTAL-FORCE (eV/Angst)
 -----------------------------------------------------------------------------------
      1.21935     -0.00000      2.00338        -0.004428     -0.000000      0.000000
     -0.60968      1.05599      4.00677         0.002214     -0.003834     -0.000000
      1.59273      2.75869     -0.00000         0.002214      0.003834     -0.000000
 -----------------------------------------------------------------------------------
    total drift:                                0.000026     -0.000008     -0.000000


--------------------------------------------------------------------------------------------------------



  FREE ENERGIE OF THE ION-ELECTRON SYSTEM (eV)
  ---------------------------------------------------
  free  energy   TOTEN  =       -10.71770319 eV

  energy  without entropy=      -10.71735270  energy(sigma->0) =      -10.71752794
 
 d Force =-0.8436838E-04[-0.964E-04,-0.724E-04]  d Energy = 0.8133115E-02-0.822E-02
 d Force = 0.3087201E+00[ 0.304E+00, 0.314E+00]  d Ewald  = 0.2265729E+01-0.196E+01


--------------------------------------------------------------------------------------------------------


    POTLOK:  cpu time    0.0280: real time    0.0281


--------------------------------------------------------------------------------------------------------


 Conjugate gradient step on ions:
 trial-energy change:   -0.008133  1 .order   -0.008189   -0.008672   -0.007705
  (g-gl).g = 0.583E-01      g.g   = 0.577E-01  gl.gl    = 0.221E-01
 g(Force)  = 0.160E-05   g(Stress)= 0.577E-01 ortho     =-0.614E-03
 gamma     =   2.63853
 trial     =   0.15468
 opt step  =   0.61870  (harmonic =   1.38640) maximal distance =0.02912180
 next E    =   -10.748436   (d E  =  -0.03887)


--------------------------------------------------------------------------------------------------------


    WAVPRE:  cpu time    0.0060: real time    0.0170
    FEWALD:  cpu time    0.0002: real time    0.0002
    GENKIN:  cpu time    0.0100: real time    0.0100
    ORTHCH:  cpu time    0.0238: real time    0.0238
     LOOP+:  cpu time    2.9915: real time    3.1484


--------------------------------------- Iteration      6(   1)  ---------------------------------------


    POTLOK:  cpu time    0.0301: real time    0.0401
    SETDIJ:  cpu time    0.0028: real time    0.0028
     EDDAV:  cpu time    0.4347: real time    0.4365
       DOS:  cpu time    0.0008: real time    0.0008
    CHARGE:  cpu time    0.0330: real time    0.0331
    MIXING:  cpu time    0.0010: real time    0.0010
    --------------------------------------------
      LOOP:  cpu time    0.5025: real time    0.5142

 eigenvalue-minimisations  :  1204
 total energy-change (2. order) :-0.5703191E-02  (-0.1438539E+00)
 number of electron      17.9999999 magnetization 
 augmentation part       -3.5875159 magnetization 

 Broyden mixing:
  rms(total) = 0.75088E-01    rms(broyden)= 0.75086E-01
  rms(prec ) = 0.13611E+00
  weight for this iteration     100.00

 Free energy of the ion-electron system (eV)
  ---------------------------------------------------
  alpha Z        PSCENC =         2.37416373
  Ewald energy   TEWEN  =      -685.85140300
  -Hartree energ DENC   =       -40.96517048
  -exchange      EXHF   =         0.00000000
  -V(xc)+E(xc)   XCENC  =       -83.93341882
  PAW double counting   =      1513.18317155    -1397.81076477
  entropy T*S    EENTRO =        -0.00042827
  eigenvalues    EBANDS =        13.76853416
  atomic energy  EATOM  =       669.81430600
  Solvation  Ediel_sol  =         0.00000000
  ---------------------------------------------------
  free energy    TOTEN  =        -9.42100990 eV

  energy without entropy =       -9.42058163  energy(sigma->0) =       -9.42079577


--------------------------------------------------------------------------------------------------------




--------------------------------------- Iteration      6(   2)  ---------------------------------------


    POTLOK:  cpu time    0.0211: real time    0.0212
    SETDIJ:  cpu time    0.0027: real time    0.0028
     EDDAV:  cpu time    0.4678: real time    0.4689
       DOS:  cpu time    0.0008: real time    0.0008
    CHARGE:  cpu time    0.0328: real time    0.0329
    MIXING:  cpu time    0.0011: real time    0.0011
    --------------------------------------------
      LOOP:  cpu time    0.5263: real time    0.5276

 eigenvalue-minimisations  :  1324
 total energy-change (2. order) : 0.1428391E-01  (-0.5813750E-02)
 number of electron      17.9999999 magnetization 
 augmentation part       -3.5894282 magnetization 

 Broyden mixing:
  rms(total) = 0.48040E-01    rms(broyden)= 0.48039E-01
  rms(prec ) = 0.82497E-01
  weight for this iteration     100.00

 eigenvalues of (default mixing * dielectric matrix)
  average eigenvalue GAMMA=   1.0773
  1.0773

 Free energy of the ion-electron system (eV)
  ---------------------------------------------------
  alpha Z        PSCENC =         2.37416373
  Ewald energy   TEWEN  =      -685.85140300
  -Hartree energ DENC   =       -40.12813006
  -exchange      EXHF   =         0.00000000
  -V(xc)+E(xc)   XCENC  =       -83.91190264
  PAW double counting   =      1521.84334156    -1406.46026453
  entropy T*S    EENTRO =        -0.00042950
  eigenvalues    EBANDS =        12.91359245
  atomic energy  EATOM  =       669.81430600
  Solvation  Ediel_sol  =         0.00000000
  ---------------------------------------------------
  free energy    TOTEN  =        -9.40672599 eV

  energy without entropy =       -9.40629649  energy(sigma->0) =       -9.40651124


--------------------------------------------------------------------------------------------------------




--------------------------------------- Iteration      6(   3)  ---------------------------------------


    POTLOK:  cpu time    0.0209: real time    0.0210
    SETDIJ:  cpu time    0.0027: real time    0.0027
     EDDAV:  cpu time    0.4797: real time    0.4808
       DOS:  cpu time    0.0008: real time    0.0008
    CHARGE:  cpu time    0.0325: real time    0.0326
    MIXING:  cpu time    0.0011: real time    0.0011
    --------------------------------------------
      LOOP:  cpu time    0.5377: real time    0.5390

 eigenvalue-minimisations  :  1342
 total energy-change (2. order) : 0.9054229E-02  (-0.1490593E-02)
 number of electron      17.9999999 magnetization 
 augmentation part       -3.6066469 magnetization 

 Broyden mixing:
  rms(total) = 0.32855E-01    rms(broyden)= 0.32855E-01
  rms(prec ) = 0.36489E-01
  weight for this iteration     100.00

 eigenvalues of (default mixing * dielectric matrix)
  average eigenvalue GAMMA=   1.1836
  1.7135  0.6537

 Free energy of the ion-electron system (eV)
  ---------------------------------------------------
  alpha Z        PSCENC =         2.37416373
  Ewald energy   TEWEN  =      -685.85140300
  -Hartree energ DENC   =       -39.33975223
  -exchange      EXHF   =         0.00000000
  -V(xc)+E(xc)   XCENC  =       -83.87508779
  PAW double counting   =      1536.61111426    -1421.22524171
  entropy T*S    EENTRO =        -0.00043539
  eigenvalues    EBANDS =        12.09466437
  atomic energy  EATOM  =       669.81430600
  Solvation  Ediel_sol  =         0.00000000
  ---------------------------------------------------
  free energy    TOTEN  =        -9.39767176 eV

  energy without entropy =       -9.39723637  energy(sigma->0) =       -9.39745407


--------------------------------------------------------------------------------------------------------




--------------------------------------- Iteration      6(   4)  ---------------------------------------


    POTLOK:  cpu time    0.0207: real time    0.0208
    SETDIJ:  cpu time    0.0028: real time    0.0028
     EDDAV:  cpu time    0.4878: real time    0.4890
       DOS:  cpu time    0.0008: real time    0.0008
    CHARGE:  cpu time    0.0329: real time    0.0329
    MIXING:  cpu time    0.0011: real time    0.0011
    --------------------------------------------
      LOOP:  cpu time    0.5461: real time    0.5474

 eigenvalue-minimisations  :  1382
 total energy-change (2. order) : 0.5057625E-03  (-0.1357080E-03)
 number of electron      17.9999999 magnetization 
 augmentation part       -3.6126157 magnetization 

 Broyden mixing:
  rms(total) = 0.47994E-01    rms(broyden)= 0.47994E-01
  rms(prec ) = 0.48099E-01
  weight for this iteration     100.00

 eigenvalues of (default mixing * dielectric matrix)
  average eigenvalue GAMMA=   1.0076
  1.7492  0.7913  0.4823

 Free energy of the ion-electron system (eV)
  ---------------------------------------------------
  alpha Z        PSCENC =         2.37416373
  Ewald energy   TEWEN  =      -685.85140300
  -Hartree energ DENC   =       -39.13958604
  -exchange      EXHF   =         0.00000000
  -V(xc)+E(xc)   XCENC  =       -83.86354330
  PAW double counting   =      1542.29916381    -1426.91882140
  entropy T*S    EENTRO =        -0.00043490
  eigenvalues    EBANDS =        11.88898908
  atomic energy  EATOM  =       669.81430600
  Solvation  Ediel_sol  =         0.00000000
  ---------------------------------------------------
  free energy    TOTEN  =        -9.39716600 eV

  energy without entropy =       -9.39673111  energy(sigma->0) =       -9.39694855


--------------------------------------------------------------------------------------------------------




--------------------------------------- Iteration      6(   5)  ---------------------------------------


    POTLOK:  cpu time    0.0207: real time    0.0209
    SETDIJ:  cpu time    0.0028: real time    0.0028
     EDDAV:  cpu time    0.4873: real time    0.4885
       DOS:  cpu time    0.0008: real time    0.0008
    --------------------------------------------
      LOOP:  cpu time    0.5117: real time    0.5130

 eigenvalue-minimisations  :  1362
 total energy-change (2. order) : 0.2054760E-05  (-0.3107475E-05)
 number of electron      17.9999999 magnetization 
 augmentation part       -3.6126157 magnetization 

 Free energy of the ion-electron system (eV)
  ---------------------------------------------------
  alpha Z        PSCENC =         2.37416373
  Ewald energy   TEWEN  =      -685.85140300
  -Hartree energ DENC   =       -39.13700099
  -exchange      EXHF   =         0.00000000
  -V(xc)+E(xc)   XCENC  =       -83.86351017
  PAW double counting   =      1543.74809101    -1428.36962406
  entropy T*S    EENTRO =        -0.00043460
  eigenvalues    EBANDS =        11.88824813
  atomic energy  EATOM  =       669.81430600
  Solvation  Ediel_sol  =         0.00000000
  ---------------------------------------------------
  free energy    TOTEN  =        -9.39716395 eV

  energy without entropy =       -9.39672935  energy(sigma->0) =       -9.39694665


--------------------------------------------------------------------------------------------------------




 average (electrostatic) potential at core
  the test charge radii are     1.1897
  (the norm of the test charge is              1.0000)
       1 -88.6679       2 -88.6679       3 -88.6679
 
 
 
 E-fermi :   6.4139     XC(G=0):  -9.2425     alpha+bet :-10.9223


 k-point     1 :       0.0000    0.0000    0.0000
  band No.  band energies     occupation 
      1      -7.3472      2.00000
      2      -4.0500      2.00000
      3      -4.0500      2.00000
      4       3.4732      2.00000
      5       3.7912      2.00000
      6       3.7912      2.00000
      7       4.6666      2.00000
      8       4.6666      2.00000
      9       5.3308      2.00000
     10       7.3642      0.00000
     11       7.3642      0.00000
     12       8.0452      0.00000
     13      11.3008      0.00000
     14      11.3009      0.00000

 k-point     2 :       0.1111    0.0000    0.0000
  band No.  band energies     occupation 
      1      -7.2525      2.00000
      2      -4.0640      2.00000
      3      -4.0209      2.00000
      4       2.7070      2.00000
      5       3.2555      2.00000
      6       3.5048      2.00000
      7       5.0453      2.00000
      8       5.2674      2.00000
      9       5.7749      2.00000
     10       6.9741      0.00000
     11       7.2632      0.00000
     12       7.8393      0.00000
     13      10.9733      0.00000
     14      11.2842      0.00000

 k-point     3 :       0.2222    0.0000    0.0000
  band No.  band energies     occupation 
      1      -6.9781      2.00000
      2      -4.1620      2.00000
      3      -3.9391      2.00000
      4       1.8024      2.00000
      5       2.5721      2.00000
      6       3.0552      2.00000
      7       5.1110      2.00000
      8       5.4712      2.00000
      9       5.6082      2.00000
     10       7.0899      0.00000
     11       7.3483      0.00000
     12       7.9135      0.00000
     13      10.1314      0.00000
     14      11.6027      0.00000

 k-point     4 :       0.3333   -0.0000    0.0000
  band No.  band energies     occupation 
      1      -6.5629      2.00000
      2      -4.4385      2.00000
      3      -3.8330      2.00000
      4       1.3907      2.00000
      5       2.0404      2.00000
      6       2.6924      2.00000
      7       3.8645      2.00000
      8       5.6152      2.00000
      9       5.6337      2.00000
     10       7.0021      0.00000
     11       7.2026      0.00000
     12       9.0998      0.00000
     13       9.4384      0.00000
     14      12.5094      0.00000

 k-point     5 :       0.4444    0.0000    0.0000
  band No.  band energies     occupation 
      1      -6.1412      2.00000
      2      -4.8123      2.00000
      3      -3.7561      2.00000
      4       1.4044      2.00000
      5       1.8389      2.00000
      6       2.5185      2.00000
      7       2.8556      2.00000
      8       5.5497      2.00000
      9       5.6636      2.00000
     10       6.9920      0.00000
     11       7.0548      0.00000
     12       9.0658      0.00000
     13       9.9501      0.00000
     14      13.7512      0.00000

 k-point     6 :       0.1111    0.1111    0.0000
  band No.  band energies     occupation 
      1      -7.0677      2.00000
      2      -4.0999      2.00000
      3      -3.9868      2.00000
      4       2.1064      2.00000
      5       2.4215      2.00000
      6       3.6057      2.00000
      7       4.6917      2.00000
      8       5.7366      2.00000
      9       5.7368      2.00000
     10       6.9713      0.00000
     11       7.2879      0.00000
     12       7.9208      0.00000
     13      10.7809      0.00000
     14      10.8109      0.00000

 k-point     7 :       0.2222    0.1111    0.0000
  band No.  band energies     occupation 
      1      -6.7201      2.00000
      2      -4.2558      2.00000
      3      -3.9371      2.00000
      4       1.5552      2.00000
      5       1.9416      2.00000
      6       3.2024      2.00000
      7       4.4738      2.00000
      8       4.7966      2.00000
      9       5.3807      2.00000
     10       7.4480      0.00000
     11       7.9179      0.00000
     12       8.4032      0.00000
     13      10.0806      0.00000
     14      11.2239      0.00000

 k-point     8 :       0.3333    0.1111    0.0000
  band No.  band energies     occupation 
      1      -6.2806      2.00000
      2      -4.5916      2.00000
      3      -3.8813      2.00000
      4       1.4303      2.00000
      5       1.7832      2.00000
      6       2.7286      2.00000
      7       3.3664      2.00000
      8       4.7899      2.00000
      9       5.0683      2.00000
     10       7.6232      0.00000
     11       7.8842      0.00000
     12       9.4938      0.00000
     13       9.6265      0.00000
     14      12.2896      0.00000

 k-point     9 :       0.4444    0.1111    0.0000
  band No.  band energies     occupation 
      1      -6.0118      2.00000
      2      -4.8376      2.00000
      3      -3.8567      2.00000
      4       1.4976      2.00000
      5       1.8549      2.00000
      6       2.6123      2.00000
      7       2.6731      2.00000
      8       4.8783      2.00000
      9       4.8795      2.00000
     10       7.6679      0.00000
     11       7.8464      0.00000
     12       9.4455      0.00000
     13       9.9939      0.00000
     14      13.4549      0.00000

 k-point    10 :       0.2222    0.2222    0.0000
  band No.  band energies     occupation 
      1      -6.3369      2.00000
      2      -4.3958      2.00000
      3      -4.0470      2.00000
      4       1.5387      2.00000
      5       1.6291      2.00000
      6       3.1445      2.00000
      7       3.8889      2.00000
      8       4.2304      2.00000
      9       4.2488      2.00000
     10       8.4476      0.00000
     11       8.6398      0.00000
     12       8.7706      0.00000
     13      10.6089      0.00000
     14      10.8716      0.00000

 k-point    11 :       0.3333    0.2222    0.0000
  band No.  band energies     occupation 
      1      -5.9662      2.00000
      2      -4.6294      2.00000
      3      -4.1365      2.00000
      4       1.6656      2.00000
      5       1.7982      2.00000
      6       2.8148      2.00000
      7       3.0977      2.00000
      8       3.8633      2.00000
      9       3.9515      2.00000
     10       8.6686      0.00000
     11       8.8886      0.00000
     12       9.6210      0.00000
     13      10.4821      0.00000
     14      11.9653      0.00000

 k-point    12 :       0.3333    0.3333    0.0000
  band No.  band energies     occupation 
      1      -5.8147      2.00000
      2      -4.4616      2.00000
      3      -4.4616      2.00000
      4       1.8877      2.00000
      5       1.8877      2.00000
      6       3.0835      2.00000
      7       3.0835      2.00000
      8       3.2285      2.00000
      9       3.3066      2.00000
     10       9.3279      0.00000
     11       9.3279      0.00000
     12       9.5311      0.00000
     13      11.3749      0.00000
     14      12.1338      0.00000

 k-point    13 :       0.0000    0.0000    0.2500
  band No.  band energies     occupation 
      1      -7.1242      2.00000
      2      -5.4101      2.00000
      3      -2.6280      2.00000
      4       2.9591      2.00000
      5       3.5685      2.00000
      6       3.9331      2.00000
      7       4.8862      2.00000
      8       5.0973      2.00000
      9       5.4107      2.00000
     10       6.9659      0.00000
     11       7.0247      0.00000
     12       7.4935      0.00000
     13      10.5294      0.00000
     14      11.8048      0.00000

 k-point    14 :       0.1111    0.0000    0.2500
  band No.  band energies     occupation 
      1      -7.0333      2.00000
      2      -5.3478      2.00000
      3      -2.7346      2.00000
      4       2.6190      2.00000
      5       3.4275      2.00000
      6       3.8369      2.00000
      7       4.5005      2.00000
      8       4.9833      2.00000
      9       5.1635      2.00000
     10       7.2443      0.00000
     11       7.4556      0.00000
     12       7.9204      0.00000
     13      10.6809      0.00000
     14      11.7970      0.00000

 k-point    15 :       0.2222    0.0000    0.2500
  band No.  band energies     occupation 
      1      -6.7752      2.00000
      2      -5.1644      2.00000
      3      -3.0934      2.00000
      4       2.2569      2.00000
      5       2.9896      2.00000
      6       3.4214      2.00000
      7       3.8349      2.00000
      8       4.4700      2.00000
      9       4.8910      2.00000
     10       7.7614      0.00000
     11       8.3010      0.00000
     12       8.7002      0.00000
     13      11.0703      0.00000
     14      11.4856      0.00000

 k-point    16 :       0.3333   -0.0000    0.2500
  band No.  band energies     occupation 
      1      -6.3979      2.00000
      2      -4.9165      2.00000
      3      -3.6304      2.00000
      4       1.9292      2.00000
      5       2.3226      2.00000
      6       3.0164      2.00000
      7       3.2693      2.00000
      8       4.4970      2.00000
      9       4.8002      2.00000
     10       7.7918      0.00000
     11       8.4037      0.00000
     12       9.5269      0.00000
     13      10.4389      0.00000
     14      11.9571      0.00000

 k-point    17 :       0.4444    0.0000    0.2500
  band No.  band energies     occupation 
      1      -6.0222      2.00000
      2      -4.8780      2.00000
      3      -3.9285      2.00000
      4       1.1916      2.00000
      5       1.9845      2.00000
      6       2.7420      2.00000
      7       3.7201      2.00000
      8       4.5572      2.00000
      9       4.7621      2.00000
     10       7.6477      0.00000
     11       8.3171      0.00000
     12       9.2523      0.00000
     13       9.9115      0.00000
     14      12.4025      0.00000

 k-point    18 :      -0.4444   -0.0000    0.2500
  band No.  band energies     occupation 
      1      -5.9633      2.00000
      2      -5.1034      2.00000
      3      -3.6676      2.00000
      4       0.7989      2.00000
      5       1.8328      2.00000
      6       2.7095      2.00000
      7       4.5775      2.00000
      8       4.7150      2.00000
      9       4.8729      2.00000
     10       7.4839      0.00000
     11       8.1076      0.00000
     12       8.4194      0.00000
     13       9.6091      0.00000
     14      13.0448      0.00000

 k-point    19 :      -0.3333    0.0000    0.2500
  band No.  band energies     occupation 
      1      -6.3504      2.00000
      2      -5.1465      2.00000
      3      -3.2698      2.00000
      4       1.0243      2.00000
      5       1.9015      2.00000
      6       2.8704      2.00000
      7       4.9331      2.00000
      8       5.0525      2.00000
      9       5.7539      2.00000
     10       7.1387      0.00000
     11       7.5440      0.00000
     12       7.8766      0.00000
     13       9.5557      0.00000
     14      13.2072      0.00000

 k-point    20 :      -0.2222   -0.0000    0.2500
  band No.  band energies     occupation 
      1      -6.7609      2.00000
      2      -5.2377      2.00000
      3      -2.9302      2.00000
      4       1.8413      2.00000
      5       2.2136      2.00000
      6       3.1901      2.00000
      7       5.2502      2.00000
      8       5.3950      2.00000
      9       5.9332      2.00000
     10       6.8732      0.00000
     11       7.3386      0.00000
     12       7.5011      0.00000
     13       9.8325      0.00000
     14      12.4886      0.00000

 k-point    21 :      -0.1111   -0.0000    0.2500
  band No.  band energies     occupation 
      1      -7.0315      2.00000
      2      -5.3567      2.00000
      3      -2.7096      2.00000
      4       2.6509      2.00000
      5       3.0166      2.00000
      6       3.6261      2.00000
      7       4.9829      2.00000
      8       5.4159      2.00000
      9       5.6259      2.00000
     10       6.8395      0.00000
     11       6.8742      0.00000
     12       7.8942      0.00000
     13      10.3594      0.00000
     14      11.7794      0.00000

 k-point    22 :       0.1111    0.1111    0.2500
  band No.  band energies     occupation 
      1      -6.8541      2.00000
      2      -5.2474      2.00000
      3      -2.9155      2.00000
      4       2.2694      2.00000
      5       2.5573      2.00000
      6       3.4727      2.00000
      7       4.4875      2.00000
      8       5.0855      2.00000
      9       5.4201      2.00000
     10       7.2556      0.00000
     11       7.8212      0.00000
     12       7.9906      0.00000
     13      10.4309      0.00000
     14      11.8801      0.00000

 k-point    23 :       0.2222    0.1111    0.2500
  band No.  band energies     occupation 
      1      -6.5308      2.00000
      2      -5.0382      2.00000
      3      -3.3685      2.00000
      4       1.8911      2.00000
      5       2.3146      2.00000
      6       3.1732      2.00000
      7       3.4471      2.00000
      8       4.5177      2.00000
      9       5.5780      2.00000
     10       7.3910      0.00000
     11       8.1891      0.00000
     12       9.1756      0.00000
     13      10.8551      0.00000
     14      11.2741      0.00000

 k-point    24 :       0.3333    0.1111    0.2500
  band No.  band energies     occupation 
      1      -6.1381      2.00000
      2      -4.8466      2.00000
      3      -3.8646      2.00000
      4       1.5454      2.00000
      5       1.7881      2.00000
      6       2.8947      2.00000
      7       3.4368      2.00000
      8       4.0747      2.00000
      9       5.6727      2.00000
     10       7.2156      0.00000
     11       8.5651      0.00000
     12       9.4744      0.00000
     13      10.3385      0.00000
     14      12.1037      0.00000

 k-point    25 :       0.4444    0.1111    0.2500
  band No.  band energies     occupation 
      1      -5.8767      2.00000
      2      -4.9783      2.00000
      3      -3.8981      2.00000
      4       0.9815      2.00000
      5       1.6722      2.00000
      6       2.8316      2.00000
      7       3.6545      2.00000
      8       4.2582      2.00000
      9       5.7464      2.00000
     10       7.0800      0.00000
     11       8.6080      0.00000
     12       8.8649      0.00000
     13      10.0448      0.00000
     14      12.8449      0.00000

 k-point    26 :      -0.4444    0.1111    0.2500
  band No.  band energies     occupation 
      1      -6.0855      2.00000
      2      -5.0800      2.00000
      3      -3.5682      2.00000
      4       0.8795      2.00000
      5       1.8238      2.00000
      6       2.8161      2.00000
      7       3.7234      2.00000
      8       5.2108      2.00000
      9       5.8075      2.00000
     10       6.9857      0.00000
     11       7.8487      0.00000
     12       8.6180      0.00000
     13       9.9457      0.00000
     14      12.8486      0.00000

 k-point    27 :      -0.3333    0.1111    0.2500
  band No.  band energies     occupation 
      1      -6.5127      2.00000
      2      -5.1289      2.00000
      3      -3.2067      2.00000
      4       1.4044      2.00000
      5       2.0909      2.00000
      6       3.0295      2.00000
      7       4.0100      2.00000
      8       5.5722      2.00000
      9       6.1237      2.00000
     10       6.7717      0.00000
     11       7.4033      0.00000
     12       8.4389      0.00000
     13      10.0377      0.00000
     14      12.0848      0.00000

 k-point    28 :       0.2222    0.2222    0.2500
  band No.  band energies     occupation 
      1      -6.1610      2.00000
      2      -4.9574      2.00000
      3      -3.6741      2.00000
      4       1.1943      2.00000
      5       1.9924      2.00000
      6       2.7410      2.00000
      7       3.2025      2.00000
      8       4.9553      2.00000
      9       5.9385      2.00000
     10       7.0833      0.00000
     11       8.0169      0.00000
     12       9.2779      0.00000
     13      10.8067      0.00000
     14      11.3635      0.00000

 k-point    29 :       0.3333    0.2222    0.2500
  band No.  band energies     occupation 
      1      -5.8315      2.00000
      2      -4.8663      2.00000
      3      -4.0392      2.00000
      4       1.1956      2.00000
      5       1.5092      2.00000
      6       2.3693      2.00000
      7       3.5602      2.00000
      8       4.4072      2.00000
      9       5.6769      2.00000
     10       7.3671      0.00000
     11       8.6775      0.00000
     12       9.1690      0.00000
     13      10.8393      0.00000
     14      12.0620      0.00000

 k-point    30 :       0.4444    0.2222    0.2500
  band No.  band energies     occupation 
      1      -5.8113      2.00000
      2      -4.9465      2.00000
      3      -3.9570      2.00000
      4       0.9955      2.00000
      5       1.6223      2.00000
      6       2.3936      2.00000
      7       3.4645      2.00000
      8       4.8104      2.00000
      9       5.4745      2.00000
     10       7.5856      0.00000
     11       8.2685      0.00000
     12       9.1266      0.00000
     13      10.7296      0.00000
     14      12.3393      0.00000

 k-point    31 :       0.3333    0.3333    0.2500
  band No.  band energies     occupation 
      1      -5.6788      2.00000
      2      -4.8716      2.00000
      3      -4.1481      2.00000
      4       1.1542      2.00000
      5       1.5187      2.00000
      6       1.9072      2.00000
      7       3.8243      2.00000
      8       4.6863      2.00000
      9       5.0249      2.00000
     10       8.1638      0.00000
     11       8.6539      0.00000
     12       8.7594      0.00000
     13      11.7732      0.00000
     14      12.0737      0.00000

 k-point    32 :       0.0000    0.0000    0.5000
  band No.  band energies     occupation 
      1      -6.4657      2.00000
      2      -6.4657      2.00000
      3      -1.8757      2.00000
      4       2.3731      2.00000
      5       3.7701      2.00000
      6       3.7701      2.00000
      7       5.1272      2.00000
      8       5.5289      2.00000
      9       5.5289      2.00000
     10       6.6892      0.00000
     11       6.7508      0.00000
     12       6.7508      0.00000
     13      10.1819      0.00000
     14      11.5355      0.00000

 k-point    33 :       0.1111    0.0000    0.5000
  band No.  band energies     occupation 
      1      -6.3919      2.00000
      2      -6.3767      2.00000
      3      -2.0670      2.00000
      4       2.3733      2.00000
      5       3.5802      2.00000
      6       3.6988      2.00000
      7       4.4307      2.00000
      8       4.9592      2.00000
      9       5.2072      2.00000
     10       7.0169      0.00000
     11       7.3049      0.00000
     12       7.7958      0.00000
     13      10.4447      0.00000
     14      11.2174      0.00000

 k-point    34 :       0.2222    0.0000    0.5000
  band No.  band energies     occupation 
      1      -6.1910      2.00000
      2      -6.1171      2.00000
      3      -2.5716      2.00000
      4       2.0833      2.00000
      5       2.8602      2.00000
      6       3.4209      2.00000
      7       4.1989      2.00000
      8       4.4191      2.00000
      9       4.8434      2.00000
     10       7.6010      0.00000
     11       8.1181      0.00000
     12       8.5881      0.00000
     13      10.5745      0.00000
     14      11.5801      0.00000

 k-point    35 :       0.3333   -0.0000    0.5000
  band No.  band energies     occupation 
      1      -5.9319      2.00000
      2      -5.7189      2.00000
      3      -3.2285      2.00000
      4       1.1810      2.00000
      5       2.6850      2.00000
      6       3.1093      2.00000
      7       3.9580      2.00000
      8       4.1723      2.00000
      9       5.1071      2.00000
     10       7.9031      0.00000
     11       8.2512      0.00000
     12       8.7250      0.00000
     13      10.5732      0.00000
     14      11.8143      0.00000

 k-point    36 :       0.4444    0.0000    0.5000
  band No.  band energies     occupation 
      1      -5.7386      2.00000
      2      -5.3064      2.00000
      3      -3.8004      2.00000
      4       0.5683      2.00000
      5       2.7177      2.00000
      6       2.8617      2.00000
      7       3.7559      2.00000
      8       4.0254      2.00000
      9       5.8445      2.00000
     10       7.0986      0.00000
     11       8.3303      0.00000
     12       8.9694      0.00000
     13      10.7022      0.00000
     14      11.3274      0.00000

 k-point    37 :       0.1111    0.1111    0.5000
  band No.  band energies     occupation 
      1      -6.2496      2.00000
      2      -6.2069      2.00000
      3      -2.4115      2.00000
      4       2.2666      2.00000
      5       3.1486      2.00000
      6       3.2737      2.00000
      7       4.1162      2.00000
      8       4.3300      2.00000
      9       5.5826      2.00000
     10       6.8539      0.00000
     11       8.3094      0.00000
     12       8.3981      0.00000
     13      10.9004      0.00000
     14      10.9398      0.00000

 k-point    38 :       0.2222    0.1111    0.5000
  band No.  band energies     occupation 
      1      -6.0051      2.00000
      2      -5.8880      2.00000
      3      -2.9786      2.00000
      4       1.6707      2.00000
      5       2.4835      2.00000
      6       2.7376      2.00000
      7       4.1227      2.00000
      8       4.5629      2.00000
      9       5.4355      2.00000
     10       7.3036      0.00000
     11       8.4906      0.00000
     12       8.6585      0.00000
     13      10.7296      0.00000
     14      11.7224      0.00000

 k-point    39 :       0.3333    0.1111    0.5000
  band No.  band energies     occupation 
      1      -5.7590      2.00000
      2      -5.4783      2.00000
      3      -3.5893      2.00000
      4       0.8760      2.00000
      5       2.2222      2.00000
      6       2.4006      2.00000
      7       4.2588      2.00000
      8       4.7573      2.00000
      9       5.5448      2.00000
     10       7.5321      0.00000
     11       7.9828      0.00000
     12       8.7039      0.00000
     13      10.7692      0.00000
     14      11.7540      0.00000

 k-point    40 :       0.4444    0.1111    0.5000
  band No.  band energies     occupation 
      1      -5.6512      2.00000
      2      -5.2244      2.00000
      3      -3.9188      2.00000
      4       0.5595      2.00000
      5       2.1536      2.00000
      6       2.2699      2.00000
      7       4.4640      2.00000
      8       4.5246      2.00000
      9       6.1366      2.00000
     10       6.8497      0.00000
     11       8.1220      0.00000
     12       8.6747      0.00000
     13      10.9232      0.00000
     14      11.3665      0.00000

 k-point    41 :       0.2222    0.2222    0.5000
  band No.  band energies     occupation 
      1      -5.7367      2.00000
      2      -5.5803      2.00000
      3      -3.4842      2.00000
      4       1.2885      2.00000
      5       1.6906      2.00000
      6       2.0792      2.00000
      7       4.6500      2.00000
      8       4.9911      2.00000
      9       5.9739      2.00000
     10       7.0568      0.00000
     11       8.2471      0.00000
     12       8.2646      0.00000
     13      11.1434      0.00000
     14      12.0007      0.00000

 k-point    42 :       0.3333    0.2222    0.5000
  band No.  band energies     occupation 
      1      -5.5244      2.00000
      2      -5.2957      2.00000
      3      -3.8980      2.00000
      4       0.8504      2.00000
      5       1.4548      2.00000
      6       1.6617      2.00000
      7       5.1042      2.00000
      8       5.5037      2.00000
      9       6.0929      2.00000
     10       7.0544      0.00000
     11       7.5758      0.00000
     12       7.9922      0.00000
     13      11.5185      0.00000
     14      12.0934      0.00000

 k-point    43 :       0.3333    0.3333    0.5000
  band No.  band energies     occupation 
      1      -5.3205      2.00000
      2      -5.3205      2.00000
      3      -4.0168      2.00000
      4       1.0901      2.00000
      5       1.1489      2.00000
      6       1.1489      2.00000
      7       5.5032      2.00000
      8       6.3871      1.54995
      9       6.3871      1.54994
     10       6.4183      0.90012
     11       7.3832      0.00000
     12       7.3832      0.00000
     13      12.4308      0.00000
     14      12.7815      0.00000


--------------------------------------------------------------------------------------------------------


 soft charge-density along one line, spin component           1
         0         1         2         3         4         5         6         7         8         9
 total charge-density along one line
 
 pseudopotential strength for first ion, spin component:           1
 51.492  56.024  -0.000  -0.000  -0.041  -0.000  -0.000  -0.060
 56.024  60.959  -0.000  -0.000  -0.045  -0.000  -0.000  -0.065
 -0.000  -0.000  12.684   0.008   0.000  18.282   0.012   0.000
 -0.000  -0.000   0.008  12.698   0.000   0.012  18.302   0.000
 -0.041  -0.045   0.000   0.000  12.697   0.000   0.000  18.302
 -0.000  -0.000  18.282   0.012   0.000  26.362   0.017   0.000
 -0.000  -0.000   0.012  18.302   0.000   0.017  26.391   0.000
 -0.060  -0.065   0.000   0.000  18.302   0.000   0.000  26.390
  0.000   0.000  -0.008   0.000   0.000  -0.012   0.000   0.000
  0.013   0.014   0.000  -0.000   0.000   0.000  -0.000   0.000
  0.006   0.007  -0.000  -0.000   0.005  -0.000  -0.000   0.007
  0.000   0.000   0.000  -0.007  -0.000   0.000  -0.011  -0.000
  0.010   0.011   0.000  -0.000  -0.008   0.000  -0.000  -0.011
 total augmentation occupancy for first ion, spin component:           1
 13.946 -10.281   0.000   0.000   1.744   0.000  -0.000  -0.433   0.000  -0.151  -0.105   0.000  -0.111
-10.281   8.853   0.000  -0.000  -1.461   0.000  -0.000   0.368   0.000   0.135   0.092   0.000   0.099
  0.000   0.000   2.578   0.171   0.000  -0.524  -0.155   0.000  -0.043   0.000   0.000  -0.043   0.000
  0.000   0.000   0.171   2.886   0.000  -0.155  -0.800   0.000  -0.042  -0.000   0.000  -0.099  -0.000
  1.744  -1.461   0.000   0.000   2.778   0.000   0.000  -0.733   0.000  -0.047  -0.013   0.000  -0.043
  0.000   0.000  -0.524  -0.155   0.000   0.193   0.056   0.000   0.010   0.000   0.000   0.015   0.000
  0.000   0.000  -0.155  -0.800   0.000   0.056   0.293   0.000   0.015   0.000   0.000   0.028   0.000
 -0.433   0.368   0.000   0.000  -0.733   0.000   0.000   0.260   0.000   0.013   0.003   0.000   0.010
  0.000  -0.000  -0.043  -0.042   0.000   0.010   0.015   0.000   0.010   0.000  -0.000   0.011   0.000
 -0.151   0.135   0.000  -0.000  -0.047   0.000   0.000   0.013   0.000   0.016   0.003   0.000   0.005
 -0.105   0.092   0.000   0.000  -0.013   0.000   0.000   0.003  -0.000   0.003   0.007  -0.000  -0.000
  0.000   0.000  -0.043  -0.099   0.000   0.015   0.028   0.000   0.011   0.000   0.000   0.028   0.000
 -0.111   0.099   0.000  -0.000  -0.043   0.000   0.000   0.010   0.000   0.005  -0.000   0.000   0.010


------------------------ aborting loop because EDIFF is reached ----------------------------------------


    CHARGE:  cpu time    0.0336: real time    0.0336
    FORLOC:  cpu time    0.0013: real time    0.0013
    FORNL :  cpu time    0.1242: real time    0.1245
    STRESS:  cpu time    0.2713: real time    0.2719
    FORCOR:  cpu time    0.0217: real time    0.0218
    FORHAR:  cpu time    0.0053: real time    0.0053
    MIXING:  cpu time    0.0010: real time    0.0010
    OFIELD:  cpu time    0.0000: real time    0.0000

 ---------------------------------------------------------------------------------------------

         DFTD3 V3.0 Rev 1        
 Edisp (eV)   -1.33817

 E6    (eV) :    -0.7235
 E8    (eV) :    -0.6146
 % E8        : 45.93
    FORVDW:  cpu time    0.0078: real time    0.0079

  FORCE on cell =-STRESS in cart. coord.  units (eV):
  Direction    XX          YY          ZZ          XY          YZ          ZX
  --------------------------------------------------------------------------------------
  Alpha Z     2.37416     2.37416     2.37416
  Ewald    -239.78108  -239.78107  -206.29000    -0.00000    -0.00000     0.00000
  Hartree    10.34960    10.34960    18.39541     0.00000     0.00000    -0.00000
  E(xc)     -70.44309   -70.44309   -69.96098    -0.00000     0.00000     0.00000
  Local    -108.61816  -108.61821  -141.84916    -0.00004     0.00000    -0.00000
  n-local   332.10687   332.85265   328.29118    -1.41294    -0.69552    -1.27076
  augment   -81.09917   -81.09913   -78.98097     0.00004    -0.00000     0.00000
  Kinetic   151.99398   159.26635   148.81006    -7.82492     0.03257     1.52253
  Fock        0.00000     0.00000     0.00000     0.00000     0.00000     0.00000
  vdW        -1.41975    -1.41975    -1.40940    -0.00000     0.00000    -0.00000
  -------------------------------------------------------------------------------------
  Total      -0.52755    -0.52755    -0.61970     0.00000     0.00000     0.00000
  in kB      -8.58482    -8.58482   -10.08429     0.00000     0.00000     0.00000
  external pressure =       -9.08 kB  Pullay stress =        0.00 kB


 VOLUME and BASIS-vectors are now :
 -----------------------------------------------------------------------------
  energy-cutoff  :      520.00
  volume of cell :       98.46
      direct lattice vectors                 reciprocal lattice vectors
     4.357382797  0.000000000 -0.000000000     0.229495559  0.132499323  0.000000000
    -2.178691398  3.773604196  0.000000000     0.000000000  0.264998645  0.000000000
     0.000000000 -0.000000000  5.987751651     0.000000000  0.000000000  0.167007595

  length of vectors
     4.357382797  4.357382797  5.987751651     0.264998645  0.264998645  0.167007595


 FORCES acting on ions
    electron-ion (+dipol)            ewald-force                    non-local-force                 convergence-correction
 -----------------------------------------------------------------------------------------------
   -.835E+01 0.106E-04 -.805E-06   0.125E+02 0.155E-05 0.130E-05   -.419E+01 -.274E-16 0.000E+00   0.139E-01 0.916E-07 -.452E-08
   0.418E+01 -.723E+01 -.189E-04   -.626E+01 0.108E+02 -.837E-05   0.209E+01 -.363E+01 -.555E-16   -.694E-02 0.120E-01 0.102E-07
   0.418E+01 0.723E+01 0.194E-04   -.626E+01 -.108E+02 0.707E-05   0.209E+01 0.363E+01 0.000E+00   -.694E-02 -.120E-01 -.573E-08
 -----------------------------------------------------------------------------------------------
   0.260E-04 -.853E-05 -.334E-06   0.000E+00 0.178E-14 -.348E-17   -.444E-15 0.000E+00 -.555E-16   0.313E-07 0.692E-07 -.629E-10
 
 
 POSITION                                       TOTAL-FORCE (eV/Angst)
 -----------------------------------------------------------------------------------
      1.22783     -0.00000      1.99592        -0.005797     -0.000000      0.000000
     -0.61392      1.06333      3.99183         0.002898     -0.005020     -0.000000
      1.56478      2.71027     -0.00000         0.002898      0.005020     -0.000000
 -----------------------------------------------------------------------------------
    total drift:                                0.000026     -0.000008     -0.000000


--------------------------------------------------------------------------------------------------------



  FREE ENERGIE OF THE ION-ELECTRON SYSTEM (eV)
  ---------------------------------------------------
  free  energy   TOTEN  =       -10.73533520 eV

  energy  without entropy=      -10.73490060  energy(sigma->0) =      -10.73511790
 
 d Force =-0.3313562E-03[-0.376E-03,-0.287E-03]  d Energy = 0.1763201E-01-0.180E-01
 d Force = 0.8577072E+00[ 0.811E+00, 0.904E+00]  d Ewald  = 0.6801370E+01-0.594E+01


--------------------------------------------------------------------------------------------------------


    POTLOK:  cpu time    0.0242: real time    0.0243


--------------------------------------------------------------------------------------------------------




--------------------------------------------------------------------------------------------------------


    WAVPRE:  cpu time    0.0047: real time    0.0070
    FEWALD:  cpu time    0.0002: real time    0.0002
    GENKIN:  cpu time    0.0070: real time    0.0070
    ORTHCH:  cpu time    0.0240: real time    0.0241
     LOOP+:  cpu time    3.1620: real time    3.1996


--------------------------------------- Iteration      7(   1)  ---------------------------------------


    POTLOK:  cpu time    0.0211: real time    0.0223
    SETDIJ:  cpu time    0.0029: real time    0.0029
     EDDAV:  cpu time    0.4451: real time    0.4482
       DOS:  cpu time    0.0008: real time    0.0008
    CHARGE:  cpu time    0.0334: real time    0.0336
    MIXING:  cpu time    0.0009: real time    0.0009
    --------------------------------------------
      LOOP:  cpu time    0.5043: real time    0.5088

 eigenvalue-minimisations  :  1204
 total energy-change (2. order) :-0.1634336E-01  (-0.5812337E+00)
 number of electron      17.9999998 magnetization 
 augmentation part       -3.5637264 magnetization 

 Broyden mixing:
  rms(total) = 0.15797E+00    rms(broyden)= 0.15796E+00
  rms(prec ) = 0.27650E+00
  weight for this iteration     100.00

 Free energy of the ion-electron system (eV)
  ---------------------------------------------------
  alpha Z        PSCENC =         2.49972331
  Ewald energy   TEWEN  =      -699.49742721
  -Hartree energ DENC   =       -38.70806137
  -exchange      EXHF   =         0.00000000
  -V(xc)+E(xc)   XCENC  =       -83.73217219
  PAW double counting   =      1558.46805100    -1443.10576743
  entropy T*S    EENTRO =        -0.00049913
  eigenvalues    EBANDS =        24.84833766
  atomic energy  EATOM  =       669.81430600
  Solvation  Ediel_sol  =         0.00000000
  ---------------------------------------------------
  free energy    TOTEN  =        -9.41350936 eV

  energy without entropy =       -9.41301024  energy(sigma->0) =       -9.41325980


--------------------------------------------------------------------------------------------------------




--------------------------------------- Iteration      7(   2)  ---------------------------------------


    POTLOK:  cpu time    0.0211: real time    0.0212
    SETDIJ:  cpu time    0.0029: real time    0.0029
     EDDAV:  cpu time    0.4788: real time    0.4822
       DOS:  cpu time    0.0008: real time    0.0008
    CHARGE:  cpu time    0.0333: real time    0.0334
    MIXING:  cpu time    0.0010: real time    0.0010
    --------------------------------------------
      LOOP:  cpu time    0.5379: real time    0.5416

 eigenvalue-minimisations  :  1330
 total energy-change (2. order) : 0.5588578E-01  (-0.2325915E-01)
 number of electron      17.9999998 magnetization 
 augmentation part       -3.5700465 magnetization 

 Broyden mixing:
  rms(total) = 0.95770E-01    rms(broyden)= 0.95770E-01
  rms(prec ) = 0.16415E+00
  weight for this iteration     100.00

 eigenvalues of (default mixing * dielectric matrix)
  average eigenvalue GAMMA=   1.2177
  1.2177

 Free energy of the ion-electron system (eV)
  ---------------------------------------------------
  alpha Z        PSCENC =         2.49972331
  Ewald energy   TEWEN  =      -699.49742721
  -Hartree energ DENC   =       -37.09361302
  -exchange      EXHF   =         0.00000000
  -V(xc)+E(xc)   XCENC  =       -83.68251002
  PAW double counting   =      1587.30276846    -1471.92219676
  entropy T*S    EENTRO =        -0.00048497
  eigenvalues    EBANDS =        23.22181064
  atomic energy  EATOM  =       669.81430600
  Solvation  Ediel_sol  =         0.00000000
  ---------------------------------------------------
  free energy    TOTEN  =        -9.35762358 eV

  energy without entropy =       -9.35713861  energy(sigma->0) =       -9.35738109


--------------------------------------------------------------------------------------------------------




--------------------------------------- Iteration      7(   3)  ---------------------------------------


    POTLOK:  cpu time    0.0211: real time    0.0212
    SETDIJ:  cpu time    0.0030: real time    0.0030
     EDDAV:  cpu time    0.4787: real time    0.4821
       DOS:  cpu time    0.0008: real time    0.0008
    CHARGE:  cpu time    0.0333: real time    0.0335
    MIXING:  cpu time    0.0011: real time    0.0011
    --------------------------------------------
      LOOP:  cpu time    0.5379: real time    0.5417

 eigenvalue-minimisations  :  1318
 total energy-change (2. order) : 0.3601216E-01  (-0.6216531E-02)
 number of electron      17.9999998 magnetization 
 augmentation part       -3.6054446 magnetization 

 Broyden mixing:
  rms(total) = 0.68693E-01    rms(broyden)= 0.68693E-01
  rms(prec ) = 0.73887E-01
  weight for this iteration     100.00

 eigenvalues of (default mixing * dielectric matrix)
  average eigenvalue GAMMA=   1.1728
  1.7120  0.6336

 Free energy of the ion-electron system (eV)
  ---------------------------------------------------
  alpha Z        PSCENC =         2.49972331
  Ewald energy   TEWEN  =      -699.49742721
  -Hartree energ DENC   =       -35.53495826
  -exchange      EXHF   =         0.00000000
  -V(xc)+E(xc)   XCENC  =       -83.59800747
  PAW double counting   =      1620.64960357    -1505.26736430
  entropy T*S    EENTRO =        -0.00047375
  eigenvalues    EBANDS =        21.61298669
  atomic energy  EATOM  =       669.81430600
  Solvation  Ediel_sol  =         0.00000000
  ---------------------------------------------------
  free energy    TOTEN  =        -9.32161142 eV

  energy without entropy =       -9.32113767  energy(sigma->0) =       -9.32137454


--------------------------------------------------------------------------------------------------------




--------------------------------------- Iteration      7(   4)  ---------------------------------------


    POTLOK:  cpu time    0.0211: real time    0.0213
    SETDIJ:  cpu time    0.0030: real time    0.0030
     EDDAV:  cpu time    0.5039: real time    0.5074
       DOS:  cpu time    0.0008: real time    0.0008
    CHARGE:  cpu time    0.0337: real time    0.0339
    MIXING:  cpu time    0.0011: real time    0.0011
    --------------------------------------------
      LOOP:  cpu time    0.5636: real time    0.5676

 eigenvalue-minimisations  :  1406
 total energy-change (2. order) : 0.1397425E-02  (-0.4050711E-03)
 number of electron      17.9999998 magnetization 
 augmentation part       -3.6153875 magnetization 

 Broyden mixing:
  rms(total) = 0.95087E-01    rms(broyden)= 0.95087E-01
  rms(prec ) = 0.95345E-01
  weight for this iteration     100.00

 eigenvalues of (default mixing * dielectric matrix)
  average eigenvalue GAMMA=   1.1131
  1.7614  0.8321  0.7457

 Free energy of the ion-electron system (eV)
  ---------------------------------------------------
  alpha Z        PSCENC =         2.49972331
  Ewald energy   TEWEN  =      -699.49742721
  -Hartree energ DENC   =       -35.23971573
  -exchange      EXHF   =         0.00000000
  -V(xc)+E(xc)   XCENC  =       -83.57742421
  PAW double counting   =      1630.04651835    -1514.67574400
  entropy T*S    EENTRO =        -0.00047324
  eigenvalues    EBANDS =        21.31002275
  atomic energy  EATOM  =       669.81430600
  Solvation  Ediel_sol  =         0.00000000
  ---------------------------------------------------
  free energy    TOTEN  =        -9.32021399 eV

  energy without entropy =       -9.31974075  energy(sigma->0) =       -9.31997737


--------------------------------------------------------------------------------------------------------




--------------------------------------- Iteration      7(   5)  ---------------------------------------


    POTLOK:  cpu time    0.0211: real time    0.0215
    SETDIJ:  cpu time    0.0030: real time    0.0030
     EDDAV:  cpu time    0.5395: real time    0.5432
       DOS:  cpu time    0.0008: real time    0.0008
    --------------------------------------------
      LOOP:  cpu time    0.5644: real time    0.5685

 eigenvalue-minimisations  :  1548
 total energy-change (2. order) :-0.4984299E-05  (-0.8628429E-05)
 number of electron      17.9999998 magnetization 
 augmentation part       -3.6153875 magnetization 

 Free energy of the ion-electron system (eV)
  ---------------------------------------------------
  alpha Z        PSCENC =         2.49972331
  Ewald energy   TEWEN  =      -699.49742721
  -Hartree energ DENC   =       -35.23869135
  -exchange      EXHF   =         0.00000000
  -V(xc)+E(xc)   XCENC  =       -83.57740982
  PAW double counting   =      1630.55852329    -1515.18836964
  entropy T*S    EENTRO =        -0.00047328
  eigenvalues    EBANDS =        21.30959972
  atomic energy  EATOM  =       669.81430600
  Solvation  Ediel_sol  =         0.00000000
  ---------------------------------------------------
  free energy    TOTEN  =        -9.32021898 eV

  energy without entropy =       -9.31974570  energy(sigma->0) =       -9.31998234


--------------------------------------------------------------------------------------------------------




 average (electrostatic) potential at core
  the test charge radii are     1.1897
  (the norm of the test charge is              1.0000)
       1 -88.0667       2 -88.0667       3 -88.0667
 
 
 
 E-fermi :   7.1169     XC(G=0):  -9.4810     alpha+bet :-11.4999


 k-point     1 :       0.0000    0.0000    0.0000
  band No.  band energies     occupation 
      1      -6.9894      2.00000
      2      -3.5254      2.00000
      3      -3.5254      2.00000
      4       4.1747      2.00000
      5       4.5480      2.00000
      6       4.5480      2.00000
      7       5.2394      2.00000
      8       5.2394      2.00000
      9       5.7705      2.00000
     10       8.1082      0.00000
     11       8.1082      0.00000
     12       8.8151      0.00000
     13      11.9034      0.00000
     14      11.9034      0.00000

 k-point     2 :       0.1111    0.0000    0.0000
  band No.  band energies     occupation 
      1      -6.8839      2.00000
      2      -3.5285      2.00000
      3      -3.4881      2.00000
      4       3.2656      2.00000
      5       3.8905      2.00000
      6       4.1153      2.00000
      7       5.7260      2.00000
      8       5.8791      2.00000
      9       6.5258      2.00000
     10       7.6016      0.00000
     11       7.9712      0.00000
     12       8.5412      0.00000
     13      11.4926      0.00000
     14      11.8843      0.00000

 k-point     3 :       0.2222    0.0000    0.0000
  band No.  band energies     occupation 
      1      -6.5754      2.00000
      2      -3.6118      2.00000
      3      -3.3811      2.00000
      4       2.2328      2.00000
      5       3.0945      2.00000
      6       3.5830      2.00000
      7       5.7583      2.00000
      8       6.1591      2.00000
      9       6.3552      2.00000
     10       7.7153      0.00000
     11       8.0469      0.00000
     12       8.5922      0.00000
     13      10.5584      0.00000
     14      12.2589      0.00000

 k-point     4 :       0.3333   -0.0000    0.0000
  band No.  band energies     occupation 
      1      -6.0971      2.00000
      2      -3.9151      2.00000
      3      -3.2395      2.00000
      4       1.7787      2.00000
      5       2.4707      2.00000
      6       3.1707      2.00000
      7       4.3555      2.00000
      8       6.3358      2.00000
      9       6.4361      2.00000
     10       7.5559      0.00000
     11       7.7974      0.00000
     12       9.7879      0.00000
     13       9.9368      0.00000
     14      13.2778      0.00000

 k-point     5 :       0.4444    0.0000    0.0000
  band No.  band energies     occupation 
      1      -5.5715      2.00000
      2      -4.3853      2.00000
      3      -3.1347      2.00000
      4       1.8346      2.00000
      5       2.2452      2.00000
      6       2.9322      2.00000
      7       3.2351      2.00000
      8       6.3416      2.00000
      9       6.4168      2.00000
     10       7.5197      0.00000
     11       7.6068      0.00000
     12       9.4125      0.00000
     13      10.8073      0.00000
     14      14.6647      0.00000

 k-point     6 :       0.1111    0.1111    0.0000
  band No.  band energies     occupation 
      1      -6.6766      2.00000
      2      -3.5455      2.00000
      3      -3.4431      2.00000
      4       2.5912      2.00000
      5       2.8915      2.00000
      6       4.2921      2.00000
      7       5.2057      2.00000
      8       6.4963      2.00000
      9       6.5059      2.00000
     10       7.6159      0.00000
     11       7.8841      0.00000
     12       8.6657      0.00000
     13      11.3073      0.00000
     14      11.3082      0.00000

 k-point     7 :       0.2222    0.1111    0.0000
  band No.  band energies     occupation 
      1      -6.2809      2.00000
      2      -3.6999      2.00000
      3      -3.3722      2.00000
      4       1.9552      2.00000
      5       2.3618      2.00000
      6       3.7767      2.00000
      7       5.0367      2.00000
      8       5.3558      2.00000
      9       6.0660      2.00000
     10       8.1131      0.00000
     11       8.6901      0.00000
     12       9.1544      0.00000
     13      10.5244      0.00000
     14      11.8076      0.00000

 k-point     8 :       0.3333    0.1111    0.0000
  band No.  band energies     occupation 
      1      -5.7576      2.00000
      2      -4.1003      2.00000
      3      -3.2911      2.00000
      4       1.8409      2.00000
      5       2.1831      2.00000
      6       3.1978      2.00000
      7       3.8005      2.00000
      8       5.3724      2.00000
      9       5.7057      2.00000
     10       8.3118      0.00000
     11       8.5994      0.00000
     12      10.0049      0.00000
     13      10.3637      0.00000
     14      12.9957      0.00000

 k-point     9 :       0.4444    0.1111    0.0000
  band No.  band energies     occupation 
      1      -5.3961      2.00000
      2      -4.4384      2.00000
      3      -3.2554      2.00000
      4       1.9417      2.00000
      5       2.3254      2.00000
      6       2.9310      2.00000
      7       3.0767      2.00000
      8       5.4601      2.00000
      9       5.5091      2.00000
     10       8.3785      0.00000
     11       8.5258      0.00000
     12       9.8444      0.00000
     13      10.8598      0.00000
     14      14.3426      0.00000

 k-point    10 :       0.2222    0.2222    0.0000
  band No.  band energies     occupation 
      1      -5.8300      2.00000
      2      -3.8476      2.00000
      3      -3.5059      2.00000
      4       1.9414      2.00000
      5       2.0256      2.00000
      6       3.7272      2.00000
      7       4.3526      2.00000
      8       4.7098      2.00000
      9       4.7703      2.00000
     10       9.2892      0.00000
     11       9.4361      0.00000
     12       9.5322      0.00000
     13      11.1782      0.00000
     14      11.3645      0.00000

 k-point    11 :       0.3333    0.2222    0.0000
  band No.  band energies     occupation 
      1      -5.3529      2.00000
      2      -4.1730      2.00000
      3      -3.6024      2.00000
      4       2.1295      2.00000
      5       2.2653      2.00000
      6       3.2441      2.00000
      7       3.4925      2.00000
      8       4.3033      2.00000
      9       4.4415      2.00000
     10       9.5043      0.00000
     11       9.6849      0.00000
     12      10.4757      0.00000
     13      11.0064      0.00000
     14      12.6242      0.00000

 k-point    12 :       0.3333    0.3333    0.0000
  band No.  band energies     occupation 
      1      -5.1384      2.00000
      2      -4.0008      2.00000
      3      -4.0008      2.00000
      4       2.4312      2.00000
      5       2.4312      2.00000
      6       3.4954      2.00000
      7       3.4954      2.00000
      8       3.5888      2.00000
      9       3.6465      2.00000
     10      10.2134      0.00000
     11      10.2134      0.00000
     12      10.3630      0.00000
     13      12.1021      0.00000
     14      12.7233      0.00000

 k-point    13 :       0.0000    0.0000    0.2500
  band No.  band energies     occupation 
      1      -6.7578      2.00000
      2      -4.9667      2.00000
      3      -1.9768      2.00000
      4       3.5993      2.00000
      5       4.2404      2.00000
      6       4.5471      2.00000
      7       5.5033      2.00000
      8       5.8859      2.00000
      9       5.9297      2.00000
     10       7.6235      0.00000
     11       7.6770      0.00000
     12       8.2343      0.00000
     13      10.9893      0.00000
     14      12.3855      0.00000

 k-point    14 :       0.1111    0.0000    0.2500
  band No.  band energies     occupation 
      1      -6.6560      2.00000
      2      -4.8928      2.00000
      3      -2.0879      2.00000
      4       3.1706      2.00000
      5       4.1254      2.00000
      6       4.5187      2.00000
      7       5.0255      2.00000
      8       5.4588      2.00000
      9       5.8604      2.00000
     10       7.9189      0.00000
     11       8.2109      0.00000
     12       8.7099      0.00000
     13      11.1844      0.00000
     14      12.3783      0.00000

 k-point    15 :       0.2222    0.0000    0.2500
  band No.  band energies     occupation 
      1      -6.3649      2.00000
      2      -4.6722      2.00000
      3      -2.4865      2.00000
      4       2.7803      2.00000
      5       3.6424      2.00000
      6       3.9671      2.00000
      7       4.3258      2.00000
      8       5.0320      2.00000
      9       5.3695      2.00000
     10       8.5631      0.00000
     11       9.1018      0.00000
     12       9.5413      0.00000
     13      11.6440      0.00000
     14      12.0565      0.00000

 k-point    16 :       0.3333   -0.0000    0.2500
  band No.  band energies     occupation 
      1      -5.9304      2.00000
      2      -4.3555      2.00000
      3      -3.1220      2.00000
      4       2.4538      2.00000
      5       2.8721      2.00000
      6       3.4835      2.00000
      7       3.6666      2.00000
      8       5.0847      2.00000
      9       5.2950      2.00000
     10       8.5779      0.00000
     11       9.1713      0.00000
     12      10.3844      0.00000
     13      10.8658      0.00000
     14      12.5419      0.00000

 k-point    17 :       0.4444    0.0000    0.2500
  band No.  band energies     occupation 
      1      -5.4720      2.00000
      2      -4.3101      2.00000
      3      -3.4720      2.00000
      4       1.5610      2.00000
      5       2.5088      2.00000
      6       3.2193      2.00000
      7       4.1337      2.00000
      8       5.1472      2.00000
      9       5.2992      2.00000
     10       8.3928      0.00000
     11       9.0581      0.00000
     12      10.0092      0.00000
     13      10.2890      0.00000
     14      13.0265      0.00000

 k-point    18 :      -0.4444   -0.0000    0.2500
  band No.  band energies     occupation 
      1      -5.3801      2.00000
      2      -4.6398      2.00000
      3      -3.1045      2.00000
      4       1.1039      2.00000
      5       2.2978      2.00000
      6       3.1849      2.00000
      7       5.1161      2.00000
      8       5.2947      2.00000
      9       5.4577      2.00000
     10       8.1952      0.00000
     11       8.8397      0.00000
     12       9.0927      0.00000
     13       9.9676      0.00000
     14      13.7641      0.00000

 k-point    19 :      -0.3333    0.0000    0.2500
  band No.  band energies     occupation 
      1      -5.8712      2.00000
      2      -4.6525      2.00000
      3      -2.6424      2.00000
      4       1.3580      2.00000
      5       2.3442      2.00000
      6       3.3569      2.00000
      7       5.5506      2.00000
      8       5.7487      2.00000
      9       6.3804      2.00000
     10       7.8321      0.00000
     11       8.1238      0.00000
     12       8.6010      0.00000
     13       9.9254      0.00000
     14      14.0289      0.00000

 k-point    20 :      -0.2222   -0.0000    0.2500
  band No.  band energies     occupation 
      1      -6.3485      2.00000
      2      -4.7586      2.00000
      3      -2.2781      2.00000
      4       2.2882      2.00000
      5       2.6861      2.00000
      6       3.7038      2.00000
      7       5.9453      2.00000
      8       6.1453      2.00000
      9       6.6341      2.00000
     10       7.5153      0.00000
     11       8.0007      0.00000
     12       8.1063      0.00000
     13      10.2471      0.00000
     14      13.1577      0.00000

 k-point    21 :      -0.1111   -0.0000    0.2500
  band No.  band energies     occupation 
      1      -6.6541      2.00000
      2      -4.9028      2.00000
      3      -2.0567      2.00000
      4       3.2166      2.00000
      5       3.6133      2.00000
      6       4.1941      2.00000
      7       5.5604      2.00000
      8       6.1881      2.00000
      9       6.4062      2.00000
     10       7.4236      0.00000
     11       7.4523      0.00000
     12       8.6686      0.00000
     13      10.8254      0.00000
     14      12.3219      0.00000

 k-point    22 :       0.1111    0.1111    0.2500
  band No.  band energies     occupation 
      1      -6.4543      2.00000
      2      -4.7717      2.00000
      3      -2.2771      2.00000
      4       2.7927      2.00000
      5       3.0615      2.00000
      6       4.0418      2.00000
      7       5.0830      2.00000
      8       5.7241      2.00000
      9       6.0343      2.00000
     10       7.9756      0.00000
     11       8.5595      0.00000
     12       8.7386      0.00000
     13      10.9227      0.00000
     14      12.5010      0.00000

 k-point    23 :       0.2222    0.1111    0.2500
  band No.  band energies     occupation 
      1      -6.0851      2.00000
      2      -4.5148      2.00000
      3      -2.7975      2.00000
      4       2.3867      2.00000
      5       2.8281      2.00000
      6       3.6070      2.00000
      7       3.9830      2.00000
      8       5.0360      2.00000
      9       6.2248      2.00000
     10       8.0863      0.00000
     11       8.9600      0.00000
     12      10.0435      0.00000
     13      11.3996      0.00000
     14      11.7985      0.00000

 k-point    24 :       0.3333    0.1111    0.2500
  band No.  band energies     occupation 
      1      -5.6207      2.00000
      2      -4.2545      2.00000
      3      -3.4067      2.00000
      4       1.9984      2.00000
      5       2.2225      2.00000
      6       3.3964      2.00000
      7       3.9182      2.00000
      8       4.4982      2.00000
      9       6.3647      2.00000
     10       7.8400      0.00000
     11       9.3770      0.00000
     12      10.2895      0.00000
     13      10.7887      0.00000
     14      12.7439      0.00000

 k-point    25 :       0.4444    0.1111    0.2500
  band No.  band energies     occupation 
      1      -5.2752      2.00000
      2      -4.4770      2.00000
      3      -3.4000      2.00000
      4       1.3183      2.00000
      5       2.1073      2.00000
      6       3.3821      2.00000
      7       4.1020      2.00000
      8       4.7064      2.00000
      9       6.4891      2.00000
     10       7.6580      0.00000
     11       9.3887      0.00000
     12       9.5827      0.00000
     13      10.4944      0.00000
     14      13.5318      0.00000

 k-point    26 :      -0.4444    0.1111    0.2500
  band No.  band energies     occupation 
      1      -5.5477      2.00000
      2      -4.5852      2.00000
      3      -2.9904      2.00000
      4       1.1959      2.00000
      5       2.2728      2.00000
      6       3.3153      2.00000
      7       4.1958      2.00000
      8       5.7961      2.00000
      9       6.5748      2.00000
     10       7.5630      0.00000
     11       8.4801      0.00000
     12       9.3825      0.00000
     13      10.4027      0.00000
     14      13.5741      0.00000

 k-point    27 :      -0.3333    0.1111    0.2500
  band No.  band energies     occupation 
      1      -6.0635      2.00000
      2      -4.6269      2.00000
      3      -2.5865      2.00000
      4       1.7959      2.00000
      5       2.5599      2.00000
      6       3.5250      2.00000
      7       4.5377      2.00000
      8       6.3285      2.00000
      9       6.8580      2.00000
     10       7.3793      0.00000
     11       7.9460      0.00000
     12       9.2413      0.00000
     13      10.4871      0.00000
     14      12.7070      0.00000

 k-point    28 :       0.2222    0.2222    0.2500
  band No.  band energies     occupation 
      1      -5.6484      2.00000
      2      -4.4139      2.00000
      3      -3.1424      2.00000
      4       1.5647      2.00000
      5       2.5051      2.00000
      6       3.1764      2.00000
      7       3.6230      2.00000
      8       5.5585      2.00000
      9       6.6175      2.00000
     10       7.6936      0.00000
     11       8.7353      0.00000
     12      10.1293      0.00000
     13      11.3630      0.00000
     14      11.9059      0.00000

 k-point    29 :       0.3333    0.2222    0.2500
  band No.  band energies     occupation 
      1      -5.2305      2.00000
      2      -4.2957      2.00000
      3      -3.6061      2.00000
      4       1.5904      2.00000
      5       1.9005      2.00000
      6       2.7886      2.00000
      7       4.0848      2.00000
      8       4.8763      2.00000
      9       6.3081      2.00000
     10       8.0179      0.00000
     11       9.4917      0.00000
     12       9.9516      0.00000
     13      11.3755      0.00000
     14      12.7199      0.00000

 k-point    30 :       0.4444    0.2222    0.2500
  band No.  band energies     occupation 
      1      -5.1951      2.00000
      2      -4.4306      2.00000
      3      -3.4758      2.00000
      4       1.3412      2.00000
      5       2.0490      2.00000
      6       2.8185      2.00000
      7       3.9488      2.00000
      8       5.3550      2.00000
      9       6.0632      2.00000
     10       8.3046      0.00000
     11       8.9525      0.00000
     12       9.9571      0.00000
     13      11.2566      0.00000
     14      13.0198      0.00000

 k-point    31 :       0.3333    0.3333    0.2500
  band No.  band energies     occupation 
      1      -5.0129      2.00000
      2      -4.3213      2.00000
      3      -3.7476      2.00000
      4       1.5647      2.00000
      5       1.9316      2.00000
      6       2.2148      2.00000
      7       4.4367      2.00000
      8       5.2057      2.00000
      9       5.4787      2.00000
     10       8.9844      0.00000
     11       9.3912      0.00000
     12       9.4958      0.00000
     13      12.4736      0.00000
     14      12.7653      0.00000

 k-point    32 :       0.0000    0.0000    0.5000
  band No.  band energies     occupation 
      1      -6.0721      2.00000
      2      -6.0721      2.00000
      3      -1.1139      2.00000
      4       2.8809      2.00000
      5       4.3837      2.00000
      6       4.3837      2.00000
      7       5.8452      2.00000
      8       6.2912      2.00000
      9       6.2912      2.00000
     10       7.2155      0.00530
     11       7.3630      0.00000
     12       7.3630      0.00000
     13      10.6462      0.00000
     14      12.0693      0.00000

 k-point    33 :       0.1111    0.0000    0.5000
  band No.  band energies     occupation 
      1      -5.9865      2.00000
      2      -5.9728      2.00000
      3      -1.3316      2.00000
      4       2.9097      2.00000
      5       4.1931      2.00000
      6       4.3319      2.00000
      7       4.9375      2.00000
      8       5.5834      2.00000
      9       5.8637      2.00000
     10       7.6502      0.00000
     11       8.0357      0.00000
     12       8.5835      0.00000
     13      10.9334      0.00000
     14      11.7320      0.00000

 k-point    34 :       0.2222    0.0000    0.5000
  band No.  band energies     occupation 
      1      -5.7517      2.00000
      2      -5.6803      2.00000
      3      -1.9072      2.00000
      4       2.6539      2.00000
      5       3.3312      2.00000
      6       4.0507      2.00000
      7       4.7093      2.00000
      8       4.9445      2.00000
      9       5.3634      2.00000
     10       8.3608      0.00000
     11       8.9252      0.00000
     12       9.4061      0.00000
     13      10.9973      0.00000
     14      12.2384      0.00000

 k-point    35 :       0.3333   -0.0000    0.5000
  band No.  band energies     occupation 
      1      -5.4428      2.00000
      2      -5.2195      2.00000
      3      -2.6665      2.00000
      4       1.5857      2.00000
      5       3.2299      2.00000
      6       3.7435      2.00000
      7       4.4441      2.00000
      8       4.6175      2.00000
      9       5.6108      2.00000
     10       8.6968      0.00000
     11       8.9723      0.00000
     12       9.5538      0.00000
     13      10.9872      0.00000
     14      12.4192      0.00000

 k-point    36 :       0.4444    0.0000    0.5000
  band No.  band energies     occupation 
      1      -5.2066      2.00000
      2      -4.6993      2.00000
      3      -3.3703      2.00000
      4       0.8805      2.00000
      5       3.3134      2.00000
      6       3.4901      2.00000
      7       4.2001      2.00000
      8       4.4245      2.00000
      9       6.4299      2.00000
     10       7.6711      0.00000
     11       9.1625      0.00000
     12       9.7937      0.00000
     13      11.1714      0.00000
     14      11.7505      0.00000

 k-point    37 :       0.1111    0.1111    0.5000
  band No.  band energies     occupation 
      1      -5.8206      2.00000
      2      -5.7821      2.00000
      3      -1.7236      2.00000
      4       2.8486      2.00000
      5       3.6933      2.00000
      6       3.8594      2.00000
      7       4.5654      2.00000
      8       4.8125      2.00000
      9       6.3575      2.00000
     10       7.4226      0.00000
     11       9.1626      0.00000
     12       9.2183      0.00000
     13      11.4220      0.00000
     14      11.4324      0.00000

 k-point    38 :       0.2222    0.1111    0.5000
  band No.  band energies     occupation 
      1      -5.5317      2.00000
      2      -5.4178      2.00000
      3      -2.3724      2.00000
      4       2.1676      2.00000
      5       2.9596      2.00000
      6       3.2507      2.00000
      7       4.5798      2.00000
      8       5.1013      2.00000
      9       6.0985      2.00000
     10       7.9951      0.00000
     11       9.2603      0.00000
     12       9.4785      0.00000
     13      11.1978      0.00000
     14      12.3466      0.00000

 k-point    39 :       0.3333    0.1111    0.5000
  band No.  band energies     occupation 
      1      -5.2346      2.00000
      2      -4.9255      2.00000
      3      -3.0938      2.00000
      4       1.2314      2.00000
      5       2.7018      2.00000
      6       2.8911      2.00000
      7       4.7583      2.00000
      8       5.3732      2.00000
      9       6.0895      2.00000
     10       8.2281      0.00000
     11       8.6973      0.00000
     12       9.4901      0.00000
     13      11.2356      0.00000
     14      12.2771      0.00000

 k-point    40 :       0.4444    0.1111    0.5000
  band No.  band energies     occupation 
      1      -5.1015      2.00000
      2      -4.5783      2.00000
      3      -3.5272      2.00000
      4       0.8648      2.00000
      5       2.6228      2.00000
      6       2.7587      2.00000
      7       5.0287      2.00000
      8       5.0674      2.00000
      9       6.7960      2.00000
     10       7.3546      0.00000
     11       8.9236      0.00000
     12       9.4277      0.00000
     13      11.4489      0.00000
     14      11.7711      0.00000

 k-point    41 :       0.2222    0.2222    0.5000
  band No.  band energies     occupation 
      1      -5.2081      2.00000
      2      -5.0539      2.00000
      3      -2.9592      2.00000
      4       1.7368      2.00000
      5       2.0638      2.00000
      6       2.5043      2.00000
      7       5.1861      2.00000
      8       5.5674      2.00000
      9       6.7470      2.00000
     10       7.6600      0.00000
     11       8.9339      0.00000
     12       8.9846      0.00000
     13      11.7124      0.00000
     14      12.5930      0.00000

 k-point    42 :       0.3333    0.2222    0.5000
  band No.  band energies     occupation 
      1      -4.9487      2.00000
      2      -4.6788      2.00000
      3      -3.4776      2.00000
      4       1.1882      2.00000
      5       1.8307      2.00000
      6       2.0581      2.00000
      7       5.7410      2.00000
      8       6.1757      2.00000
      9       6.7246      2.00000
     10       7.7292      0.00000
     11       8.1698      0.00000
     12       8.6283      0.00000
     13      12.1043      0.00000
     14      12.6405      0.00000

 k-point    43 :       0.3333    0.3333    0.5000
  band No.  band energies     occupation 
      1      -4.6933      2.00000
      2      -4.6933      2.00000
      3      -3.6356      2.00000
      4       1.4733      2.00000
      5       1.4735      2.00000
      6       1.4735      2.00000
      7       6.2727      2.00000
      8       7.0943      1.47828
      9       7.1052      1.25954
     10       7.1052      1.25953
     11       7.8556      0.00000
     12       7.8556      0.00000
     13      13.1810      0.00000
     14      13.3997      0.00000


--------------------------------------------------------------------------------------------------------


 soft charge-density along one line, spin component           1
         0         1         2         3         4         5         6         7         8         9
 total charge-density along one line
 
 pseudopotential strength for first ion, spin component:           1
 51.240  55.751   0.000  -0.000  -0.035   0.000  -0.000  -0.051
 55.751  60.662   0.000  -0.000  -0.038   0.000  -0.000  -0.055
  0.000   0.000  12.632   0.007   0.000  18.208   0.010   0.000
 -0.000  -0.000   0.007  12.645   0.000   0.010  18.226   0.000
 -0.035  -0.038   0.000   0.000  12.644   0.000   0.000  18.224
  0.000   0.000  18.208   0.010   0.000  26.254   0.015   0.000
 -0.000  -0.000   0.010  18.226   0.000   0.015  26.279   0.000
 -0.051  -0.055   0.000   0.000  18.224   0.000   0.000  26.278
  0.000   0.000  -0.007   0.000   0.000  -0.010   0.000   0.000
  0.011   0.012  -0.000  -0.000   0.000  -0.000  -0.000   0.000
  0.006   0.006  -0.000   0.000   0.004  -0.000   0.000   0.006
  0.000   0.000   0.000  -0.006  -0.000   0.000  -0.009  -0.000
  0.009   0.010   0.000  -0.000  -0.007   0.000  -0.000  -0.010
 total augmentation occupancy for first ion, spin component:           1
 14.933 -11.181   0.000  -0.000   1.449   0.000   0.000  -0.347   0.000  -0.142  -0.113   0.000  -0.106
-11.181   9.678   0.000  -0.000  -1.214   0.000  -0.000   0.295   0.000   0.126   0.098   0.000   0.094
  0.000   0.000   2.698   0.139   0.000  -0.597  -0.128   0.000  -0.036   0.000   0.000  -0.038   0.000
 -0.000  -0.000   0.139   2.981   0.000  -0.128  -0.849   0.000  -0.037   0.000   0.000  -0.083   0.000
  1.449  -1.214   0.000   0.000   2.875   0.000  -0.000  -0.777  -0.000  -0.041  -0.011   0.000  -0.037
  0.000   0.000  -0.597  -0.128   0.000   0.225   0.045   0.000   0.008   0.000  -0.000   0.013   0.000
  0.000   0.000  -0.128  -0.849   0.000   0.045   0.319   0.000   0.013   0.000  -0.000   0.023   0.000
 -0.347   0.295   0.000  -0.000  -0.777   0.000   0.000   0.283   0.000   0.012   0.003  -0.000   0.008
  0.000   0.000  -0.036  -0.037  -0.000   0.008   0.013   0.000   0.011   0.000  -0.000   0.013  -0.000
 -0.142   0.126   0.000   0.000  -0.041   0.000   0.000   0.012   0.000   0.019   0.003   0.000   0.007
 -0.113   0.098   0.000   0.000  -0.011   0.000   0.000   0.003  -0.000   0.003   0.008   0.000   0.000
  0.000   0.000  -0.038  -0.083   0.000   0.013   0.023   0.000   0.013   0.000   0.000   0.031   0.000
 -0.106   0.094  -0.000   0.000  -0.037  -0.000   0.000   0.008   0.000   0.007   0.000   0.000   0.011


------------------------ aborting loop because EDIFF is reached ----------------------------------------


    CHARGE:  cpu time    0.0336: real time    0.0338
    FORLOC:  cpu time    0.0013: real time    0.0014
    FORNL :  cpu time    0.1264: real time    0.1269
    STRESS:  cpu time    0.2738: real time    0.2752
    FORCOR:  cpu time    0.0224: real time    0.0224
    FORHAR:  cpu time    0.0054: real time    0.0054
    MIXING:  cpu time    0.0011: real time    0.0011
    OFIELD:  cpu time    0.0000: real time    0.0000

 ---------------------------------------------------------------------------------------------

         DFTD3 V3.0 Rev 1        
 Edisp (eV)   -1.41283

 E6    (eV) :    -0.7638
 E8    (eV) :    -0.6490
 % E8        : 45.94
    FORVDW:  cpu time    0.0076: real time    0.0077

  FORCE on cell =-STRESS in cart. coord.  units (eV):
  Direction    XX          YY          ZZ          XY          YZ          ZX
  --------------------------------------------------------------------------------------
  Alpha Z     2.49972     2.49972     2.49972
  Ewald    -243.18937  -243.18937  -213.11933    -0.00000    -0.00000     0.00000
  Hartree     9.44813     9.44813    16.23901     0.00000     0.00000    -0.00000
  E(xc)     -70.72906   -70.72906   -70.25477    -0.00000     0.00000     0.00000
  Local    -104.69141  -104.69145  -133.85392    -0.00003     0.00000    -0.00000
  n-local   332.97284   333.66258   329.25098    -1.53078    -0.62590    -1.22352
  augment   -81.08717   -81.08712   -79.07030     0.00004    -0.00000    -0.00000
  Kinetic   152.32814   160.32917   150.35028    -8.37334    -0.01107     1.61387
  Fock        0.00000     0.00000     0.00000     0.00000     0.00000     0.00000
  vdW        -1.47601    -1.47601    -1.47950    -0.00000     0.00000    -0.00000
  -------------------------------------------------------------------------------------
  Total       0.42121     0.42121     0.56217     0.00000    -0.00000     0.00000
  in kB       7.21673     7.21673     9.63192     0.00000    -0.00000     0.00000
  external pressure =        8.02 kB  Pullay stress =        0.00 kB


 VOLUME and BASIS-vectors are now :
 -----------------------------------------------------------------------------
  energy-cutoff  :      520.00
  volume of cell :       93.51
      direct lattice vectors                 reciprocal lattice vectors
     4.262514002  0.000000000 -0.000000000     0.234603335  0.135448299 -0.000000000
    -2.131257001  3.691445409  0.000000000     0.000000000  0.270896597  0.000000000
     0.000000000 -0.000000000  5.942953000     0.000000000  0.000000000  0.168266517

  length of vectors
     4.262514002  4.262514002  5.942953000     0.270896597  0.270896597  0.168266517


 FORCES acting on ions
    electron-ion (+dipol)            ewald-force                    non-local-force                 convergence-correction
 -----------------------------------------------------------------------------------------------
   -.631E+01 0.967E-05 -.569E-06   0.972E+01 0.159E-05 0.108E-05   -.346E+01 0.441E-18 0.555E-16   0.291E-01 0.147E-06 -.809E-08
   0.315E+01 -.546E+01 -.189E-04   -.486E+01 0.842E+01 -.845E-05   0.173E+01 -.300E+01 -.555E-16   -.145E-01 0.252E-01 0.208E-07
   0.315E+01 0.546E+01 0.192E-04   -.486E+01 -.842E+01 0.737E-05   0.173E+01 0.300E+01 0.000E+00   -.145E-01 -.252E-01 -.128E-07
 -----------------------------------------------------------------------------------------------
   0.255E-04 -.964E-05 -.335E-06   0.888E-15 0.000E+00 -.521E-17   -.222E-15 -.444E-15 0.000E+00   0.726E-07 0.154E-06 -.126E-09
 
 
 POSITION                                       TOTAL-FORCE (eV/Angst)
 -----------------------------------------------------------------------------------
      1.24383     -0.00000      1.98098        -0.018809      0.000000      0.000000
     -0.62191      1.07719      3.96197         0.009404     -0.016289     -0.000000
      1.50934      2.61426     -0.00000         0.009404      0.016289     -0.000000
 -----------------------------------------------------------------------------------
    total drift:                                0.000026     -0.000009     -0.000000


--------------------------------------------------------------------------------------------------------



  FREE ENERGIE OF THE ION-ELECTRON SYSTEM (eV)
  ---------------------------------------------------
  free  energy   TOTEN  =       -10.73304750 eV

  energy  without entropy=      -10.73257422  energy(sigma->0) =      -10.73281086
 
 d Force =-0.1577145E-02[-0.241E-02,-0.743E-03]  d Energy =-0.2287703E-02 0.711E-03
 d Force = 0.1425751E+01[ 0.125E+01, 0.160E+01]  d Ewald  = 0.1364602E+02-0.122E+02


--------------------------------------------------------------------------------------------------------


    POTLOK:  cpu time    0.0249: real time    0.0250


--------------------------------------------------------------------------------------------------------




--------------------------------------------------------------------------------------------------------


    WAVPRE:  cpu time    0.0047: real time    0.0067
    FEWALD:  cpu time    0.0002: real time    0.0002
    GENKIN:  cpu time    0.0073: real time    0.0073
    ORTHCH:  cpu time    0.0245: real time    0.0245
     LOOP+:  cpu time    3.2529: real time    3.2800


--------------------------------------- Iteration      8(   1)  ---------------------------------------


    POTLOK:  cpu time    0.0219: real time    0.0230
    SETDIJ:  cpu time    0.0028: real time    0.0028
     EDDAV:  cpu time    0.4526: real time    0.4556
       DOS:  cpu time    0.0008: real time    0.0008
    CHARGE:  cpu time    0.0336: real time    0.0338
    MIXING:  cpu time    0.0009: real time    0.0009
    --------------------------------------------
      LOOP:  cpu time    0.5127: real time    0.5171

 eigenvalue-minimisations  :  1204
 total energy-change (2. order) :-0.6199233E-01  (-0.1279234E+00)
 number of electron      18.0000002 magnetization 
 augmentation part       -3.6329206 magnetization 

 Broyden mixing:
  rms(total) = 0.11136E+00    rms(broyden)= 0.11136E+00
  rms(prec ) = 0.14920E+00
  weight for this iteration     100.00

 Free energy of the ion-electron system (eV)
  ---------------------------------------------------
  alpha Z        PSCENC =         2.43799040
  Ewald energy   TEWEN  =      -692.88785547
  -Hartree energ DENC   =       -35.44247621
  -exchange      EXHF   =         0.00000000
  -V(xc)+E(xc)   XCENC  =       -83.64778361
  PAW double counting   =      1625.63769599    -1510.26750957
  entropy T*S    EENTRO =        -0.00046798
  eigenvalues    EBANDS =        14.97389413
  atomic energy  EATOM  =       669.81430600
  Solvation  Ediel_sol  =         0.00000000
  ---------------------------------------------------
  free energy    TOTEN  =        -9.38220632 eV

  energy without entropy =       -9.38173835  energy(sigma->0) =       -9.38197233


--------------------------------------------------------------------------------------------------------




--------------------------------------- Iteration      8(   2)  ---------------------------------------


    POTLOK:  cpu time    0.0211: real time    0.0213
    SETDIJ:  cpu time    0.0028: real time    0.0028
     EDDAV:  cpu time    0.4819: real time    0.4852
       DOS:  cpu time    0.0008: real time    0.0008
    CHARGE:  cpu time    0.0337: real time    0.0339
    MIXING:  cpu time    0.0010: real time    0.0010
    --------------------------------------------
      LOOP:  cpu time    0.5413: real time    0.5451

 eigenvalue-minimisations  :  1318
 total energy-change (2. order) : 0.9522920E-02  (-0.5534991E-02)
 number of electron      18.0000002 magnetization 
 augmentation part       -3.6370249 magnetization 

 Broyden mixing:
  rms(total) = 0.10705E+00    rms(broyden)= 0.10705E+00
  rms(prec ) = 0.12298E+00
  weight for this iteration     100.00

 eigenvalues of (default mixing * dielectric matrix)
  average eigenvalue GAMMA=   0.6539
  0.6539

 Free energy of the ion-electron system (eV)
  ---------------------------------------------------
  alpha Z        PSCENC =         2.43799040
  Ewald energy   TEWEN  =      -692.88785547
  -Hartree energ DENC   =       -36.12466379
  -exchange      EXHF   =         0.00000000
  -V(xc)+E(xc)   XCENC  =       -83.66753706
  PAW double counting   =      1624.42500448    -1509.07566344
  entropy T*S    EENTRO =        -0.00047131
  eigenvalues    EBANDS =        15.70620678
  atomic energy  EATOM  =       669.81430600
  Solvation  Ediel_sol  =         0.00000000
  ---------------------------------------------------
  free energy    TOTEN  =        -9.37268340 eV

  energy without entropy =       -9.37221209  energy(sigma->0) =       -9.37244775


--------------------------------------------------------------------------------------------------------




--------------------------------------- Iteration      8(   3)  ---------------------------------------


    POTLOK:  cpu time    0.0214: real time    0.0216
    SETDIJ:  cpu time    0.0027: real time    0.0027
     EDDAV:  cpu time    0.5010: real time    0.5046
       DOS:  cpu time    0.0007: real time    0.0007
    CHARGE:  cpu time    0.0334: real time    0.0336
    MIXING:  cpu time    0.0011: real time    0.0011
    --------------------------------------------
      LOOP:  cpu time    0.5603: real time    0.5642

 eigenvalue-minimisations  :  1396
 total energy-change (2. order) : 0.6732138E-02  (-0.8495737E-03)
 number of electron      18.0000002 magnetization 
 augmentation part       -3.6246787 magnetization 

 Broyden mixing:
  rms(total) = 0.20725E-01    rms(broyden)= 0.20725E-01
  rms(prec ) = 0.30286E-01
  weight for this iteration     100.00

 eigenvalues of (default mixing * dielectric matrix)
  average eigenvalue GAMMA=   1.3652
  0.9398  1.7906

 Free energy of the ion-electron system (eV)
  ---------------------------------------------------
  alpha Z        PSCENC =         2.43799040
  Ewald energy   TEWEN  =      -692.88785547
  -Hartree energ DENC   =       -36.68840867
  -exchange      EXHF   =         0.00000000
  -V(xc)+E(xc)   XCENC  =       -83.69660009
  PAW double counting   =      1620.37129796    -1505.03462744
  entropy T*S    EENTRO =        -0.00047185
  eigenvalues    EBANDS =        16.31841789
  atomic energy  EATOM  =       669.81430600
  Solvation  Ediel_sol  =         0.00000000
  ---------------------------------------------------
  free energy    TOTEN  =        -9.36595126 eV

  energy without entropy =       -9.36547942  energy(sigma->0) =       -9.36571534


--------------------------------------------------------------------------------------------------------




--------------------------------------- Iteration      8(   4)  ---------------------------------------


    POTLOK:  cpu time    0.0212: real time    0.0214
    SETDIJ:  cpu time    0.0028: real time    0.0028
     EDDAV:  cpu time    0.4722: real time    0.4756
       DOS:  cpu time    0.0008: real time    0.0008
    CHARGE:  cpu time    0.0333: real time    0.0335
    MIXING:  cpu time    0.0011: real time    0.0011
    --------------------------------------------
      LOOP:  cpu time    0.5314: real time    0.5352

 eigenvalue-minimisations  :  1288
 total energy-change (2. order) : 0.1059170E-02  (-0.2120933E-03)
 number of electron      18.0000002 magnetization 
 augmentation part       -3.6174455 magnetization 

 Broyden mixing:
  rms(total) = 0.29527E-01    rms(broyden)= 0.29527E-01
  rms(prec ) = 0.29673E-01
  weight for this iteration     100.00

 eigenvalues of (default mixing * dielectric matrix)
  average eigenvalue GAMMA=   1.0314
  1.7055  0.8141  0.5746

 Free energy of the ion-electron system (eV)
  ---------------------------------------------------
  alpha Z        PSCENC =         2.43799040
  Ewald energy   TEWEN  =      -692.88785547
  -Hartree energ DENC   =       -36.97031352
  -exchange      EXHF   =         0.00000000
  -V(xc)+E(xc)   XCENC  =       -83.71326239
  PAW double counting   =      1616.67422775    -1501.33712855
  entropy T*S    EENTRO =        -0.00047244
  eigenvalues    EBANDS =        16.61761611
  atomic energy  EATOM  =       669.81430600
  Solvation  Ediel_sol  =         0.00000000
  ---------------------------------------------------
  free energy    TOTEN  =        -9.36489209 eV

  energy without entropy =       -9.36441966  energy(sigma->0) =       -9.36465588


--------------------------------------------------------------------------------------------------------




--------------------------------------- Iteration      8(   5)  ---------------------------------------


    POTLOK:  cpu time    0.0213: real time    0.0215
    SETDIJ:  cpu time    0.0028: real time    0.0028
     EDDAV:  cpu time    0.4803: real time    0.4836
       DOS:  cpu time    0.0008: real time    0.0008
    --------------------------------------------
      LOOP:  cpu time    0.5052: real time    0.5087

 eigenvalue-minimisations  :  1332
 total energy-change (2. order) : 0.2223266E-05  (-0.5165558E-05)
 number of electron      18.0000002 magnetization 
 augmentation part       -3.6174455 magnetization 

 Free energy of the ion-electron system (eV)
  ---------------------------------------------------
  alpha Z        PSCENC =         2.43799040
  Ewald energy   TEWEN  =      -692.88785547
  -Hartree energ DENC   =       -36.97219464
  -exchange      EXHF   =         0.00000000
  -V(xc)+E(xc)   XCENC  =       -83.71384125
  PAW double counting   =      1614.68048966    -1499.34020041
  entropy T*S    EENTRO =        -0.00047253
  eigenvalues    EBANDS =        16.61688836
  atomic energy  EATOM  =       669.81430600
  Solvation  Ediel_sol  =         0.00000000
  ---------------------------------------------------
  free energy    TOTEN  =        -9.36488987 eV

  energy without entropy =       -9.36441734  energy(sigma->0) =       -9.36465361


--------------------------------------------------------------------------------------------------------




 average (electrostatic) potential at core
  the test charge radii are     1.1897
  (the norm of the test charge is              1.0000)
       1 -88.3742       2 -88.3742       3 -88.3742
 
 
 
 E-fermi :   6.7685     XC(G=0):  -9.3693     alpha+bet :-11.2159


 k-point     1 :       0.0000    0.0000    0.0000
  band No.  band energies     occupation 
      1      -7.1684      2.00000
      2      -3.7883      2.00000
      3      -3.7883      2.00000
      4       3.8232      2.00000
      5       4.1715      2.00000
      6       4.1715      2.00000
      7       4.9536      2.00000
      8       4.9536      2.00000
      9       5.5538      2.00000
     10       7.7386      0.00000
     11       7.7386      0.00000
     12       8.4309      0.00000
     13      11.6072      0.00000
     14      11.6072      0.00000

 k-point     2 :       0.1111    0.0000    0.0000
  band No.  band energies     occupation 
      1      -7.0681      2.00000
      2      -3.7972      2.00000
      3      -3.7552      2.00000
      4       2.9878      2.00000
      5       3.5753      2.00000
      6       3.8134      2.00000
      7       5.3914      2.00000
      8       5.5718      2.00000
      9       6.1482      2.00000
     10       7.2900      0.00000
     11       7.6192      0.00000
     12       8.1901      0.00000
     13      11.2366      0.00000
     14      11.5893      0.00000

 k-point     3 :       0.2222    0.0000    0.0000
  band No.  band energies     occupation 
      1      -6.7762      2.00000
      2      -3.8890      2.00000
      3      -3.6615      2.00000
      4       2.0195      2.00000
      5       2.8355      2.00000
      6       3.3210      2.00000
      7       5.4398      2.00000
      8       5.8221      2.00000
      9       5.9783      2.00000
     10       7.4042      0.00000
     11       7.6984      0.00000
     12       8.2500      0.00000
     13      10.3465      0.00000
     14      11.9346      0.00000

 k-point     4 :       0.3333   -0.0000    0.0000
  band No.  band energies     occupation 
      1      -6.3287      2.00000
      2      -4.1801      2.00000
      3      -3.5386      2.00000
      4       1.5875      2.00000
      5       2.2585      2.00000
      6       2.9322      2.00000
      7       4.1120      2.00000
      8       5.9876      2.00000
      9       6.0284      2.00000
     10       7.2805      0.00000
     11       7.4994      0.00000
     12       9.4976      0.00000
     13       9.6361      0.00000
     14      12.8967      0.00000

 k-point     5 :       0.4444    0.0000    0.0000
  band No.  band energies     occupation 
      1      -5.8552      2.00000
      2      -4.6019      2.00000
      3      -3.4487      2.00000
      4       1.6221      2.00000
      5       2.0472      2.00000
      6       2.7246      2.00000
      7       3.0462      2.00000
      8       5.9505      2.00000
      9       6.0413      2.00000
     10       7.2573      0.00000
     11       7.3299      0.00000
     12       9.2396      0.00000
     13      10.3825      0.00000
     14      14.2118      0.00000

 k-point     6 :       0.1111    0.1111    0.0000
  band No.  band energies     occupation 
      1      -6.8718      2.00000
      2      -3.8244      2.00000
      3      -3.7160      2.00000
      4       2.3498      2.00000
      5       2.6593      2.00000
      6       3.9494      2.00000
      7       4.9521      2.00000
      8       6.1220      2.00000
      9       6.1233      2.00000
     10       7.2913      0.00000
     11       7.5878      0.00000
     12       8.2921      0.00000
     13      11.0473      0.00000
     14      11.0619      0.00000

 k-point     7 :       0.2222    0.1111    0.0000
  band No.  band energies     occupation 
      1      -6.4994      2.00000
      2      -3.9809      2.00000
      3      -3.6566      2.00000
      4       1.7575      2.00000
      5       2.1541      2.00000
      6       3.4915      2.00000
      7       4.7572      2.00000
      8       5.0790      2.00000
      9       5.7280      2.00000
     10       7.7797      0.00000
     11       8.3054      0.00000
     12       8.7780      0.00000
     13      10.3038      0.00000
     14      11.5180      0.00000

 k-point     8 :       0.3333    0.1111    0.0000
  band No.  band energies     occupation 
      1      -6.0173      2.00000
      2      -4.3497      2.00000
      3      -3.5890      2.00000
      4       1.6385      2.00000
      5       1.9871      2.00000
      6       2.9635      2.00000
      7       3.5849      2.00000
      8       5.0838      2.00000
      9       5.3909      2.00000
     10       7.9676      0.00000
     11       8.2416      0.00000
     12       9.7920      0.00000
     13       9.9559      0.00000
     14      12.6456      0.00000

 k-point     9 :       0.4444    0.1111    0.0000
  band No.  band energies     occupation 
      1      -5.7042      2.00000
      2      -4.6396      2.00000
      3      -3.5593      2.00000
      4       1.7230      2.00000
      5       2.0924      2.00000
      6       2.7736      2.00000
      7       2.8755      2.00000
      8       5.1712      2.00000
      9       5.1989      2.00000
     10       8.0235      0.00000
     11       8.1855      0.00000
     12       9.6455      0.00000
     13      10.4308      0.00000
     14      13.9015      0.00000

 k-point    10 :       0.2222    0.2222    0.0000
  band No.  band energies     occupation 
      1      -6.0817      2.00000
      2      -4.1264      2.00000
      3      -3.7782      2.00000
      4       1.7433      2.00000
      5       1.8305      2.00000
      6       3.4355      2.00000
      7       4.1239      2.00000
      8       4.4716      2.00000
      9       4.5122      2.00000
     10       8.8703      0.00000
     11       9.0401      0.00000
     12       9.1512      0.00000
     13      10.8950      0.00000
     14      11.1194      0.00000

 k-point    11 :       0.3333    0.2222    0.0000
  band No.  band energies     occupation 
      1      -5.6586      2.00000
      2      -4.4044      2.00000
      3      -3.8720      2.00000
      4       1.9012      2.00000
      5       2.0356      2.00000
      6       3.0300      2.00000
      7       3.2966      2.00000
      8       4.0840      2.00000
      9       4.1982      2.00000
     10       9.0885      0.00000
     11       9.2883      0.00000
     12      10.0515      0.00000
     13      10.7458      0.00000
     14      12.2964      0.00000

 k-point    12 :       0.3333    0.3333    0.0000
  band No.  band energies     occupation 
      1      -5.4780      2.00000
      2      -4.2328      2.00000
      3      -4.2328      2.00000
      4       2.1612      2.00000
      5       2.1612      2.00000
      6       3.2914      2.00000
      7       3.2914      2.00000
      8       3.4390      2.00000
      9       3.4496      2.00000
     10       9.7737      0.00000
     11       9.7737      0.00000
     12       9.9488      0.00000
     13      11.7399      0.00000
     14      12.4305      0.00000

 k-point    13 :       0.0000    0.0000    0.2500
  band No.  band energies     occupation 
      1      -6.9410      2.00000
      2      -5.1886      2.00000
      3      -2.3045      2.00000
      4       3.2831      2.00000
      5       3.9051      2.00000
      6       4.2439      2.00000
      7       5.1959      2.00000
      8       5.4899      2.00000
      9       5.6738      2.00000
     10       7.2961      0.00000
     11       7.3535      0.00000
     12       7.8622      0.00000
     13      10.7625      0.00000
     14      12.0995      0.00000

 k-point    14 :       0.1111    0.0000    0.2500
  band No.  band energies     occupation 
      1      -6.8446      2.00000
      2      -5.1205      2.00000
      3      -2.4140      2.00000
      4       2.8994      2.00000
      5       3.7766      2.00000
      6       4.1787      2.00000
      7       4.7641      2.00000
      8       5.2233      2.00000
      9       5.5164      2.00000
     10       7.5795      0.00000
     11       7.8358      0.00000
     12       8.3160      0.00000
     13      10.9351      0.00000
     14      12.0931      0.00000

 k-point    15 :       0.2222    0.0000    0.2500
  band No.  band energies     occupation 
      1      -6.5696      2.00000
      2      -4.9185      2.00000
      3      -2.7938      2.00000
      4       2.5240      2.00000
      5       3.3177      2.00000
      6       3.6960      2.00000
      7       4.0817      2.00000
      8       4.7504      2.00000
      9       5.1315      2.00000
     10       8.1657      0.00000
     11       8.7037      0.00000
     12       9.1209      0.00000
     13      11.3613      0.00000
     14      11.7732      0.00000

 k-point    16 :       0.3333   -0.0000    0.2500
  band No.  band energies     occupation 
      1      -6.1632      2.00000
      2      -4.6367      2.00000
      3      -3.3803      2.00000
      4       2.1947      2.00000
      5       2.6000      2.00000
      6       3.2529      2.00000
      7       3.4683      2.00000
      8       4.7916      2.00000
      9       5.0476      2.00000
     10       8.1877      0.00000
     11       8.7898      0.00000
     12       9.9598      0.00000
     13      10.6551      0.00000
     14      12.2561      0.00000

 k-point    17 :       0.4444    0.0000    0.2500
  band No.  band energies     occupation 
      1      -5.7460      2.00000
      2      -4.5956      2.00000
      3      -3.7043      2.00000
      4       1.3786      2.00000
      5       2.2492      2.00000
      6       2.9818      2.00000
      7       3.9305      2.00000
      8       4.8562      2.00000
      9       5.0281      2.00000
     10       8.0221      0.00000
     11       8.6897      0.00000
     12       9.6365      0.00000
     13      10.1008      0.00000
     14      12.7230      0.00000

 k-point    18 :      -0.4444   -0.0000    0.2500
  band No.  band energies     occupation 
      1      -5.6716      2.00000
      2      -4.8712      2.00000
      3      -3.3918      2.00000
      4       0.9530      2.00000
      5       2.0692      2.00000
      6       2.9485      2.00000
      7       4.8541      2.00000
      8       5.0123      2.00000
      9       5.1578      2.00000
     10       7.8408      0.00000
     11       8.4748      0.00000
     12       8.7587      0.00000
     13       9.7892      0.00000
     14      13.4151      0.00000

 k-point    19 :      -0.3333    0.0000    0.2500
  band No.  band energies     occupation 
      1      -6.1095      2.00000
      2      -4.9009      2.00000
      3      -2.9613      2.00000
      4       1.1925      2.00000
      5       2.1273      2.00000
      6       3.1150      2.00000
      7       5.2463      2.00000
      8       5.4025      2.00000
      9       6.0713      2.00000
     10       7.4879      0.00000
     11       7.8327      0.00000
     12       8.2378      0.00000
     13       9.7414      0.00000
     14      13.6244      0.00000

 k-point    20 :      -0.2222   -0.0000    0.2500
  band No.  band energies     occupation 
      1      -6.5541      2.00000
      2      -4.9988      2.00000
      3      -2.6082      2.00000
      4       2.0665      2.00000
      5       2.4538      2.00000
      6       3.4487      2.00000
      7       5.6026      2.00000
      8       5.7719      2.00000
      9       6.2868      2.00000
     10       7.1957      0.00000
     11       7.6728      0.00000
     12       7.7986      0.00000
     13      10.0409      0.00000
     14      12.8297      0.00000

 k-point    21 :      -0.1111   -0.0000    0.2500
  band No.  band energies     occupation 
      1      -6.8428      2.00000
      2      -5.1300      2.00000
      3      -2.3859      2.00000
      4       2.9384      2.00000
      5       3.3156      2.00000
      6       3.9134      2.00000
      7       5.2719      2.00000
      8       5.8072      2.00000
      9       6.0137      2.00000
     10       7.1326      0.00000
     11       7.1634      0.00000
     12       8.2834      0.00000
     13      10.5943      0.00000
     14      12.0563      0.00000

 k-point    22 :       0.1111    0.1111    0.2500
  band No.  band energies     occupation 
      1      -6.6539      2.00000
      2      -5.0099      2.00000
      3      -2.5999      2.00000
      4       2.5350      2.00000
      5       2.8123      2.00000
      6       3.7593      2.00000
      7       4.7873      2.00000
      8       5.4061      2.00000
      9       5.7289      2.00000
     10       7.6173      0.00000
     11       8.1937      0.00000
     12       8.3621      0.00000
     13      10.6784      0.00000
     14      12.1967      0.00000

 k-point    23 :       0.2222    0.1111    0.2500
  band No.  band energies     occupation 
      1      -6.3072      2.00000
      2      -4.7770      2.00000
      3      -3.0874      2.00000
      4       2.1413      2.00000
      5       2.5761      2.00000
      6       3.3939      2.00000
      7       3.7135      2.00000
      8       4.7773      2.00000
      9       5.9033      2.00000
     10       7.7420      0.00000
     11       8.5754      0.00000
     12       9.6113      0.00000
     13      11.1315      0.00000
     14      11.5375      0.00000

 k-point    24 :       0.3333    0.1111    0.2500
  band No.  band energies     occupation 
      1      -5.8781      2.00000
      2      -4.5528      2.00000
      3      -3.6390      2.00000
      4       1.7741      2.00000
      5       2.0086      2.00000
      6       3.1491      2.00000
      7       3.6762      2.00000
      8       4.2875      2.00000
      9       6.0212      2.00000
     10       7.5298      0.00000
     11       8.9731      0.00000
     12       9.8869      0.00000
     13      10.5651      0.00000
     14      12.4282      0.00000

 k-point    25 :       0.4444    0.1111    0.2500
  band No.  band energies     occupation 
      1      -5.5759      2.00000
      2      -4.7270      2.00000
      3      -3.6548      2.00000
      4       1.1519      2.00000
      5       1.8930      2.00000
      6       3.1074      2.00000
      7       3.8808      2.00000
      8       4.4842      2.00000
      9       6.1197      2.00000
     10       7.3708      0.00000
     11       9.0030      0.00000
     12       9.2277      0.00000
     13      10.2682      0.00000
     14      13.1973      0.00000

 k-point    26 :      -0.4444    0.1111    0.2500
  band No.  band energies     occupation 
      1      -5.8153      2.00000
      2      -4.8337      2.00000
      3      -3.2849      2.00000
      4       1.0393      2.00000
      5       2.0526      2.00000
      6       3.0675      2.00000
      7       3.9605      2.00000
      8       5.5092      2.00000
      9       6.1906      2.00000
     10       7.2776      0.00000
     11       8.1652      0.00000
     12       9.0048      0.00000
     13      10.1719      0.00000
     14      13.2162      0.00000

 k-point    27 :      -0.3333    0.1111    0.2500
  band No.  band energies     occupation 
      1      -6.2871      2.00000
      2      -4.8788      2.00000
      3      -2.9014      2.00000
      4       1.6017      2.00000
      5       2.3302      2.00000
      6       3.2789      2.00000
      7       4.2752      2.00000
      8       5.9529      2.00000
      9       6.4939      2.00000
     10       7.0772      0.00000
     11       7.6756      0.00000
     12       8.8407      0.00000
     13      10.2630      0.00000
     14      12.4001      0.00000

 k-point    28 :       0.2222    0.2222    0.2500
  band No.  band energies     occupation 
      1      -5.9032      2.00000
      2      -4.6869      2.00000
      3      -3.4132      2.00000
      4       1.3813      2.00000
      5       2.2520      2.00000
      6       2.9623      2.00000
      7       3.4126      2.00000
      8       5.2587      2.00000
      9       6.2829      2.00000
     10       7.3901      0.00000
     11       8.3756      0.00000
     12       9.7063      0.00000
     13      11.0872      0.00000
     14      11.6367      0.00000

 k-point    29 :       0.3333    0.2222    0.2500
  band No.  band energies     occupation 
      1      -5.5301      2.00000
      2      -4.5833      2.00000
      3      -3.8263      2.00000
      4       1.3947      2.00000
      5       1.7086      2.00000
      6       2.5804      2.00000
      7       3.8237      2.00000
      8       4.6436      2.00000
      9       5.9968      2.00000
     10       7.6932      0.00000
     11       9.0862      0.00000
     12       9.5638      0.00000
     13      11.1099      0.00000
     14      12.3930      0.00000

 k-point    30 :       0.4444    0.2222    0.2500
  band No.  band energies     occupation 
      1      -5.5030      2.00000
      2      -4.6885      2.00000
      3      -3.7219      2.00000
      4       1.1703      2.00000
      5       1.8394      2.00000
      6       2.6075      2.00000
      7       3.7078      2.00000
      8       5.0863      2.00000
      9       5.7717      2.00000
     10       7.9466      0.00000
     11       8.6122      0.00000
     12       9.5441      0.00000
     13      10.9951      0.00000
     14      12.6827      0.00000

 k-point    31 :       0.3333    0.3333    0.2500
  band No.  band energies     occupation 
      1      -5.3473      2.00000
      2      -4.5974      2.00000
      3      -3.9508      2.00000
      4       1.3598      2.00000
      5       1.7297      2.00000
      6       2.0623      2.00000
      7       4.1309      2.00000
      8       4.9497      2.00000
      9       5.2550      2.00000
     10       8.5774      0.00000
     11       9.0242      0.00000
     12       9.1302      0.00000
     13      12.1245      0.00000
     14      12.4235      0.00000

 k-point    32 :       0.0000    0.0000    0.5000
  band No.  band energies     occupation 
      1      -6.2690      2.00000
      2      -6.2690      2.00000
      3      -1.5001      2.00000
      4       2.6349      2.00000
      5       4.0790      2.00000
      6       4.0790      2.00000
      7       5.4849      2.00000
      8       5.9139      2.00000
      9       5.9139      2.00000
     10       6.9570      0.00000
     11       7.0536      0.00000
     12       7.0536      0.00000
     13      10.4177      0.00000
     14      11.8054      0.00000

 k-point    33 :       0.1111    0.0000    0.5000
  band No.  band energies     occupation 
      1      -6.1892      2.00000
      2      -6.1747      2.00000
      3      -1.7046      2.00000
      4       2.6494      2.00000
      5       3.8880      2.00000
      6       4.0178      2.00000
      7       4.6854      2.00000
      8       5.2750      2.00000
      9       5.5354      2.00000
     10       7.3354      0.00000
     11       7.6683      0.00000
     12       8.1904      0.00000
     13      10.6929      0.00000
     14      11.4769      0.00000

 k-point    34 :       0.2222    0.0000    0.5000
  band No.  band energies     occupation 
      1      -5.9713      2.00000
      2      -5.8983      2.00000
      3      -2.2447      2.00000
      4       2.3720      2.00000
      5       3.1011      2.00000
      6       3.7396      2.00000
      7       4.4523      2.00000
      8       4.6831      2.00000
      9       5.1041      2.00000
     10       7.9834      0.00000
     11       8.5220      0.00000
     12       9.0006      0.00000
     13      10.7887      0.00000
     14      11.9128      0.00000

 k-point    35 :       0.3333   -0.0000    0.5000
  band No.  band energies     occupation 
      1      -5.6875      2.00000
      2      -5.4681      2.00000
      3      -2.9531      2.00000
      4       1.3857      2.00000
      5       2.9611      2.00000
      6       3.4292      2.00000
      7       4.2006      2.00000
      8       4.3948      2.00000
      9       5.3616      2.00000
     10       8.3084      0.00000
     11       8.6098      0.00000
     12       9.1416      0.00000
     13      10.7839      0.00000
     14      12.1233      0.00000

 k-point    36 :       0.4444    0.0000    0.5000
  band No.  band energies     occupation 
      1      -5.4731      2.00000
      2      -5.0022      2.00000
      3      -3.5902      2.00000
      4       0.7261      2.00000
      5       3.0176      2.00000
      6       3.1775      2.00000
      7       3.9784      2.00000
      8       4.2262      2.00000
      9       6.1419      2.00000
     10       7.3885      0.00000
     11       8.7476      0.00000
     12       9.3841      0.00000
     13      10.9427      0.00000
     14      11.5414      0.00000

 k-point    37 :       0.1111    0.1111    0.5000
  band No.  band energies     occupation 
      1      -6.0351      2.00000
      2      -5.9942      2.00000
      3      -2.0729      2.00000
      4       2.5637      2.00000
      5       3.4229      2.00000
      6       3.5697      2.00000
      7       4.3412      2.00000
      8       4.5717      2.00000
      9       5.9701      2.00000
     10       7.1403      0.00000
     11       8.7388      0.00000
     12       8.8098      0.00000
     13      11.1656      0.00000
     14      11.1884      0.00000

 k-point    38 :       0.2222    0.1111    0.5000
  band No.  band energies     occupation 
      1      -5.7684      2.00000
      2      -5.6521      2.00000
      3      -2.6811      2.00000
      4       1.9223      2.00000
      5       2.7245      2.00000
      6       2.9972      2.00000
      7       4.3519      2.00000
      8       4.8333      2.00000
      9       5.7686      2.00000
     10       7.6504      0.00000
     11       8.8804      0.00000
     12       9.0705      0.00000
     13      10.9669      0.00000
     14      12.0387      0.00000

 k-point    39 :       0.3333    0.1111    0.5000
  band No.  band energies     occupation 
      1      -5.4971      2.00000
      2      -5.2006      2.00000
      3      -3.3474      2.00000
      4       1.0557      2.00000
      5       2.4638      2.00000
      6       2.6494      2.00000
      7       4.5093      2.00000
      8       5.0654      2.00000
      9       5.8211      2.00000
     10       7.8882      0.00000
     11       8.3372      0.00000
     12       9.0997      0.00000
     13      11.0070      0.00000
     14      12.0201      0.00000

 k-point    40 :       0.4444    0.1111    0.5000
  band No.  band energies     occupation 
      1      -5.3769      2.00000
      2      -4.9024      2.00000
      3      -3.7264      2.00000
      4       0.7139      2.00000
      5       2.3894      2.00000
      6       2.5184      2.00000
      7       4.7469      2.00000
      8       4.7966      2.00000
      9       6.4697      2.00000
     10       7.1072      0.00000
     11       8.5236      0.00000
     12       9.0538      0.00000
     13      11.1909      0.00000
     14      11.5718      0.00000

 k-point    41 :       0.2222    0.2222    0.5000
  band No.  band energies     occupation 
      1      -5.4726      2.00000
      2      -5.3157      2.00000
      3      -3.2278      2.00000
      4       1.5147      2.00000
      5       1.8784      2.00000
      6       2.2949      2.00000
      7       4.9212      2.00000
      8       5.2807      2.00000
      9       6.3613      2.00000
     10       7.3624      0.00000
     11       8.5925      0.00000
     12       8.6284      0.00000
     13      11.4307      0.00000
     14      12.3017      0.00000

 k-point    42 :       0.3333    0.2222    0.5000
  band No.  band energies     occupation 
      1      -5.2371      2.00000
      2      -4.9871      2.00000
      3      -3.6928      2.00000
      4       1.0216      2.00000
      5       1.6435      2.00000
      6       1.8625      2.00000
      7       5.4264      2.00000
      8       5.8409      2.00000
      9       6.4141      2.00000
     10       7.3987      0.00000
     11       7.8707      0.00000
     12       8.3112      0.00000
     13      11.8164      0.00000
     14      12.3692      0.00000

 k-point    43 :       0.3333    0.3333    0.5000
  band No.  band energies     occupation 
      1      -5.0081      2.00000
      2      -5.0081      2.00000
      3      -3.8297      2.00000
      4       1.2858      2.00000
      5       1.3118      2.00000
      6       1.3118      2.00000
      7       5.8895      2.00000
      8       6.7501      1.39680
      9       6.7501      1.39679
     10       6.7592      1.20641
     11       7.6217      0.00000
     12       7.6217      0.00000
     13      12.8107      0.00000
     14      13.0909      0.00000


--------------------------------------------------------------------------------------------------------


 soft charge-density along one line, spin component           1
         0         1         2         3         4         5         6         7         8         9
 total charge-density along one line
 
 pseudopotential strength for first ion, spin component:           1
 51.374  55.897  -0.000  -0.000  -0.038  -0.000  -0.000  -0.054
 55.897  60.821  -0.000  -0.000  -0.041  -0.000  -0.000  -0.059
 -0.000  -0.000  12.662   0.008  -0.000  18.251   0.011  -0.000
 -0.000  -0.000   0.008  12.675   0.000   0.011  18.270   0.000
 -0.038  -0.041  -0.000   0.000  12.674  -0.000   0.000  18.269
 -0.000  -0.000  18.251   0.011  -0.000  26.316   0.016  -0.000
 -0.000  -0.000   0.011  18.270   0.000   0.016  26.343   0.000
 -0.054  -0.059  -0.000   0.000  18.269  -0.000   0.000  26.342
 -0.000  -0.000  -0.007   0.000  -0.000  -0.011   0.000  -0.000
  0.012   0.013   0.000  -0.000   0.000   0.000  -0.000   0.000
  0.006   0.007   0.000  -0.000   0.004   0.000  -0.000   0.007
  0.000   0.000   0.000  -0.007  -0.000   0.000  -0.010  -0.000
  0.010   0.010   0.000  -0.000  -0.007   0.000  -0.000  -0.010
 total augmentation occupancy for first ion, spin component:           1
 14.714 -10.904   0.000   0.000   1.591   0.000   0.000  -0.383   0.000  -0.148  -0.109   0.000  -0.109
-10.904   9.353   0.000  -0.000  -1.336   0.000   0.000   0.327   0.000   0.132   0.096   0.000   0.097
  0.000   0.000   2.622   0.156   0.000  -0.554  -0.142   0.000  -0.039   0.000   0.000  -0.041   0.000
 -0.000   0.000   0.156   2.913   0.000  -0.142  -0.815  -0.000  -0.039   0.000   0.000  -0.090   0.000
  1.591  -1.336  -0.000   0.000   2.813   0.000  -0.000  -0.749  -0.000  -0.044  -0.012   0.000  -0.040
  0.000  -0.000  -0.554  -0.142   0.000   0.207   0.050   0.000   0.009   0.000  -0.000   0.014   0.000
 -0.000   0.000  -0.142  -0.815  -0.000   0.050   0.303  -0.000   0.014   0.000  -0.000   0.025  -0.000
 -0.383   0.327   0.000  -0.000  -0.749   0.000   0.000   0.269   0.000   0.013   0.003   0.000   0.009
  0.000  -0.000  -0.039  -0.039  -0.000   0.009   0.014   0.000   0.011   0.000  -0.000   0.012   0.000
 -0.148   0.132   0.000  -0.000  -0.044   0.000   0.000   0.013   0.000   0.017   0.003   0.000   0.006
 -0.109   0.096   0.000   0.000  -0.012   0.000   0.000   0.003  -0.000   0.003   0.008  -0.000  -0.000
  0.000   0.000  -0.041  -0.090   0.000   0.014   0.025  -0.000   0.012   0.000   0.000   0.029   0.000
 -0.109   0.097   0.000   0.000  -0.040   0.000   0.000   0.009   0.000   0.006  -0.000   0.000   0.011


------------------------ aborting loop because EDIFF is reached ----------------------------------------


    CHARGE:  cpu time    0.0334: real time    0.0336
    FORLOC:  cpu time    0.0013: real time    0.0013
    FORNL :  cpu time    0.1259: real time    0.1263
    STRESS:  cpu time    0.2732: real time    0.2740
    FORCOR:  cpu time    0.0222: real time    0.0222
    FORHAR:  cpu time    0.0053: real time    0.0053
    MIXING:  cpu time    0.0011: real time    0.0011
    OFIELD:  cpu time    0.0000: real time    0.0000

 ---------------------------------------------------------------------------------------------

         DFTD3 V3.0 Rev 1        
 Edisp (eV)   -1.37625

 E6    (eV) :    -0.7440
 E8    (eV) :    -0.6322
 % E8        : 45.94
    FORVDW:  cpu time    0.0073: real time    0.0073

  FORCE on cell =-STRESS in cart. coord.  units (eV):
  Direction    XX          YY          ZZ          XY          YZ          ZX
  --------------------------------------------------------------------------------------
  Alpha Z     2.43799     2.43799     2.43799
  Ewald    -241.49021  -241.49020  -209.90793    -0.00000    -0.00000     0.00000
  Hartree     9.89171     9.89171    17.23907     0.00000     0.00000    -0.00000
  E(xc)     -70.54904   -70.54904   -70.07891     0.00000     0.00000     0.00000
  Local    -106.61678  -106.61682  -137.58985    -0.00004     0.00000    -0.00000
  n-local   332.65596   333.37790   328.91917    -1.47325    -0.66507    -1.25296
  augment   -81.18776   -81.18772   -79.12631     0.00003    -0.00000     0.00000
  Kinetic   152.20338   159.84904   149.66151    -8.10884     0.01286     1.57623
  Fock        0.00000     0.00000     0.00000     0.00000     0.00000     0.00000
  vdW        -1.44826    -1.44826    -1.44504    -0.00000     0.00000    -0.00000
  -------------------------------------------------------------------------------------
  Total       0.08081     0.08081     0.10969     0.00000    -0.00000     0.00000
  in kB       1.35031     1.35031     1.83301     0.00000    -0.00000     0.00000
  external pressure =        1.51 kB  Pullay stress =        0.00 kB


 VOLUME and BASIS-vectors are now :
 -----------------------------------------------------------------------------
  energy-cutoff  :      520.00
  volume of cell :       95.88
      direct lattice vectors                 reciprocal lattice vectors
     4.308310942  0.000000000 -0.000000000     0.232109524  0.134008496 -0.000000000
    -2.154155471  3.731106723  0.000000000     0.000000000  0.268016992  0.000000000
     0.000000000 -0.000000000  5.964579090     0.000000000  0.000000000  0.167656424

  length of vectors
     4.308310942  4.308310942  5.964579090     0.268016992  0.268016992  0.167656424


 FORCES acting on ions
    electron-ion (+dipol)            ewald-force                    non-local-force                 convergence-correction
 -----------------------------------------------------------------------------------------------
   -.723E+01 0.103E-04 -.695E-06   0.111E+02 0.157E-05 0.119E-05   -.386E+01 0.281E-16 0.000E+00   -.278E-02 -.970E-07 0.200E-08
   0.362E+01 -.626E+01 -.189E-04   -.554E+01 0.960E+01 -.840E-05   0.193E+01 -.335E+01 0.000E+00   0.139E-02 -.241E-02 -.168E-08
   0.362E+01 0.626E+01 0.193E-04   -.554E+01 -.960E+01 0.722E-05   0.193E+01 0.335E+01 0.000E+00   0.139E-02 0.241E-02 -.247E-09
 -----------------------------------------------------------------------------------------------
   0.258E-04 -.904E-05 -.335E-06   -.888E-15 -.178E-14 -.521E-17   0.444E-15 -.444E-15 0.000E+00   -.136E-07 -.277E-07 0.720E-10
 
 
 POSITION                                       TOTAL-FORCE (eV/Angst)
 -----------------------------------------------------------------------------------
      1.23588     -0.00000      1.98819        -0.011376      0.000000      0.000000
     -0.61794      1.07030      3.97639         0.005688     -0.009852     -0.000000
      1.53622      2.66080     -0.00000         0.005688      0.009852     -0.000000
 -----------------------------------------------------------------------------------
    total drift:                                0.000026     -0.000009     -0.000000


--------------------------------------------------------------------------------------------------------



  FREE ENERGIE OF THE ION-ELECTRON SYSTEM (eV)
  ---------------------------------------------------
  free  energy   TOTEN  =       -10.74114047 eV

  energy  without entropy=      -10.74066794  energy(sigma->0) =      -10.74090420
 
 d Force = 0.9650500E-03[ 0.727E-03, 0.120E-02]  d Energy = 0.8092970E-02-0.713E-02
 d Force =-0.6653659E+00[-0.709E+00,-0.622E+00]  d Ewald  =-0.6609572E+01 0.594E+01


--------------------------------------------------------------------------------------------------------


    POTLOK:  cpu time    0.0243: real time    0.0244


--------------------------------------------------------------------------------------------------------




--------------------------------------------------------------------------------------------------------


    WAVPRE:  cpu time    0.0046: real time    0.0069
    FEWALD:  cpu time    0.0002: real time    0.0002
    GENKIN:  cpu time    0.0069: real time    0.0069
    ORTHCH:  cpu time    0.0244: real time    0.0246
     LOOP+:  cpu time    3.1927: real time    3.2189


--------------------------------------- Iteration      9(   1)  ---------------------------------------


    POTLOK:  cpu time    0.0226: real time    0.0239
    SETDIJ:  cpu time    0.0028: real time    0.0028
     EDDAV:  cpu time    0.4489: real time    0.4522
       DOS:  cpu time    0.0008: real time    0.0008
    CHARGE:  cpu time    0.0332: real time    0.0333
    MIXING:  cpu time    0.0009: real time    0.0009
    --------------------------------------------
      LOOP:  cpu time    0.5092: real time    0.5139

 eigenvalue-minimisations  :  1204
 total energy-change (2. order) :-0.1013549E-01  (-0.7916838E-02)
 number of electron      18.0000003 magnetization 
 augmentation part       -3.6208566 magnetization 

 Broyden mixing:
  rms(total) = 0.17898E-01    rms(broyden)= 0.17897E-01
  rms(prec ) = 0.31561E-01
  weight for this iteration     100.00

 Free energy of the ion-electron system (eV)
  ---------------------------------------------------
  alpha Z        PSCENC =         2.42287544
  Ewald energy   TEWEN  =      -691.23767459
  -Hartree energ DENC   =       -37.07523247
  -exchange      EXHF   =         0.00000000
  -V(xc)+E(xc)   XCENC  =       -83.73260723
  PAW double counting   =      1604.03583384    -1488.68633595
  entropy T*S    EENTRO =        -0.00046642
  eigenvalues    EBANDS =        15.08427380
  atomic energy  EATOM  =       669.81430600
  Solvation  Ediel_sol  =         0.00000000
  ---------------------------------------------------
  free energy    TOTEN  =        -9.37502759 eV

  energy without entropy =       -9.37456117  energy(sigma->0) =       -9.37479438


--------------------------------------------------------------------------------------------------------




--------------------------------------- Iteration      9(   2)  ---------------------------------------


    POTLOK:  cpu time    0.0210: real time    0.0212
    SETDIJ:  cpu time    0.0029: real time    0.0029
     EDDAV:  cpu time    0.4851: real time    0.4884
       DOS:  cpu time    0.0008: real time    0.0008
    CHARGE:  cpu time    0.0334: real time    0.0336
    MIXING:  cpu time    0.0010: real time    0.0010
    --------------------------------------------
      LOOP:  cpu time    0.5442: real time    0.5479

 eigenvalue-minimisations  :  1360
 total energy-change (2. order) : 0.7117512E-03  (-0.3330141E-03)
 number of electron      18.0000003 magnetization 
 augmentation part       -3.6212537 magnetization 

 Broyden mixing:
  rms(total) = 0.14603E-01    rms(broyden)= 0.14603E-01
  rms(prec ) = 0.21483E-01
  weight for this iteration     100.00

 eigenvalues of (default mixing * dielectric matrix)
  average eigenvalue GAMMA=   0.7492
  0.7492

 Free energy of the ion-electron system (eV)
  ---------------------------------------------------
  alpha Z        PSCENC =         2.42287544
  Ewald energy   TEWEN  =      -691.23767459
  -Hartree energ DENC   =       -37.25694918
  -exchange      EXHF   =         0.00000000
  -V(xc)+E(xc)   XCENC  =       -83.73838235
  PAW double counting   =      1602.42069314    -1487.07308989
  entropy T*S    EENTRO =        -0.00046738
  eigenvalues    EBANDS =        15.27437299
  atomic energy  EATOM  =       669.81430600
  Solvation  Ediel_sol  =         0.00000000
  ---------------------------------------------------
  free energy    TOTEN  =        -9.37431583 eV

  energy without entropy =       -9.37384845  energy(sigma->0) =       -9.37408214


--------------------------------------------------------------------------------------------------------




--------------------------------------- Iteration      9(   3)  ---------------------------------------


    POTLOK:  cpu time    0.0211: real time    0.0213
    SETDIJ:  cpu time    0.0029: real time    0.0029
     EDDAV:  cpu time    0.4866: real time    0.4899
       DOS:  cpu time    0.0008: real time    0.0008
    CHARGE:  cpu time    0.0329: real time    0.0331
    MIXING:  cpu time    0.0011: real time    0.0011
    --------------------------------------------
      LOOP:  cpu time    0.5453: real time    0.5490

 eigenvalue-minimisations  :  1378
 total energy-change (2. order) : 0.4653594E-03  (-0.5645174E-04)
 number of electron      18.0000003 magnetization 
 augmentation part       -3.6179032 magnetization 

 Broyden mixing:
  rms(total) = 0.52176E-02    rms(broyden)= 0.52176E-02
  rms(prec ) = 0.77862E-02
  weight for this iteration     100.00

 eigenvalues of (default mixing * dielectric matrix)
  average eigenvalue GAMMA=   1.2289
  0.7503  1.7075

 Free energy of the ion-electron system (eV)
  ---------------------------------------------------
  alpha Z        PSCENC =         2.42287544
  Ewald energy   TEWEN  =      -691.23767459
  -Hartree energ DENC   =       -37.40522889
  -exchange      EXHF   =         0.00000000
  -V(xc)+E(xc)   XCENC  =       -83.74616206
  PAW double counting   =      1599.72173316    -1484.37446345
  entropy T*S    EENTRO =        -0.00046742
  eigenvalues    EBANDS =        15.43123135
  atomic energy  EATOM  =       669.81430600
  Solvation  Ediel_sol  =         0.00000000
  ---------------------------------------------------
  free energy    TOTEN  =        -9.37385047 eV

  energy without entropy =       -9.37338306  energy(sigma->0) =       -9.37361677


--------------------------------------------------------------------------------------------------------




--------------------------------------- Iteration      9(   4)  ---------------------------------------


    POTLOK:  cpu time    0.0210: real time    0.0212
    SETDIJ:  cpu time    0.0029: real time    0.0029
     EDDAV:  cpu time    0.4742: real time    0.4776
       DOS:  cpu time    0.0008: real time    0.0008
    CHARGE:  cpu time    0.0332: real time    0.0334
    MIXING:  cpu time    0.0011: real time    0.0011
    --------------------------------------------
      LOOP:  cpu time    0.5333: real time    0.5371

 eigenvalue-minimisations  :  1306
 total energy-change (2. order) : 0.7566471E-04  (-0.1549212E-04)
 number of electron      18.0000003 magnetization 
 augmentation part       -3.6158789 magnetization 

 Broyden mixing:
  rms(total) = 0.11119E-01    rms(broyden)= 0.11119E-01
  rms(prec ) = 0.11142E-01
  weight for this iteration     100.00

 eigenvalues of (default mixing * dielectric matrix)
  average eigenvalue GAMMA=   1.2321
  1.4702  1.1131  1.1131

 Free energy of the ion-electron system (eV)
  ---------------------------------------------------
  alpha Z        PSCENC =         2.42287544
  Ewald energy   TEWEN  =      -691.23767459
  -Hartree energ DENC   =       -37.48192466
  -exchange      EXHF   =         0.00000000
  -V(xc)+E(xc)   XCENC  =       -83.75060432
  PAW double counting   =      1597.62925757    -1482.28054491
  entropy T*S    EENTRO =        -0.00046756
  eigenvalues    EBANDS =        15.51100223
  atomic energy  EATOM  =       669.81430600
  Solvation  Ediel_sol  =         0.00000000
  ---------------------------------------------------
  free energy    TOTEN  =        -9.37377481 eV

  energy without entropy =       -9.37330725  energy(sigma->0) =       -9.37354103


--------------------------------------------------------------------------------------------------------




--------------------------------------- Iteration      9(   5)  ---------------------------------------


    POTLOK:  cpu time    0.0212: real time    0.0214
    SETDIJ:  cpu time    0.0028: real time    0.0029
     EDDAV:  cpu time    0.3070: real time    0.3091
       DOS:  cpu time    0.0008: real time    0.0008
    --------------------------------------------
      LOOP:  cpu time    0.3317: real time    0.3340

 eigenvalue-minimisations  :   626
 total energy-change (2. order) :-0.5572308E-06  (-0.3947245E-06)
 number of electron      18.0000003 magnetization 
 augmentation part       -3.6158789 magnetization 

 Free energy of the ion-electron system (eV)
  ---------------------------------------------------
  alpha Z        PSCENC =         2.42287544
  Ewald energy   TEWEN  =      -691.23767459
  -Hartree energ DENC   =       -37.48366299
  -exchange      EXHF   =         0.00000000
  -V(xc)+E(xc)   XCENC  =       -83.75070167
  PAW double counting   =      1596.07617973    -1480.72563620
  entropy T*S    EENTRO =        -0.00046764
  eigenvalues    EBANDS =        15.51100655
  atomic energy  EATOM  =       669.81430600
  Solvation  Ediel_sol  =         0.00000000
  ---------------------------------------------------
  free energy    TOTEN  =        -9.37377537 eV

  energy without entropy =       -9.37330772  energy(sigma->0) =       -9.37354155


--------------------------------------------------------------------------------------------------------




 average (electrostatic) potential at core
  the test charge radii are     1.1897
  (the norm of the test charge is              1.0000)
       1 -88.4411       2 -88.4411       3 -88.4411
 
 
 
 E-fermi :   6.6851     XC(G=0):  -9.3394     alpha+bet :-11.1464


 k-point     1 :       0.0000    0.0000    0.0000
  band No.  band energies     occupation 
      1      -7.2095      2.00000
      2      -3.8488      2.00000
      3      -3.8488      2.00000
      4       3.7398      2.00000
      5       4.0818      2.00000
      6       4.0818      2.00000
      7       4.8862      2.00000
      8       4.8862      2.00000
      9       5.5024      2.00000
     10       7.6502      0.00000
     11       7.6502      0.00000
     12       8.3398      0.00000
     13      11.5348      0.00000
     14      11.5348      0.00000

 k-point     2 :       0.1111    0.0000    0.0000
  band No.  band energies     occupation 
      1      -7.1105      2.00000
      2      -3.8590      2.00000
      3      -3.8167      2.00000
      4       2.9216      2.00000
      5       3.5002      2.00000
      6       3.7410      2.00000
      7       5.3104      2.00000
      8       5.5003      2.00000
      9       6.0593      2.00000
     10       7.2159      0.00000
     11       7.5351      0.00000
     12       8.1072      0.00000
     13      11.1745      0.00000
     14      11.5173      0.00000

 k-point     3 :       0.2222    0.0000    0.0000
  band No.  band energies     occupation 
      1      -6.8227      2.00000
      2      -3.9525      2.00000
      3      -3.7259      2.00000
      4       1.9686      2.00000
      5       2.7738      2.00000
      6       3.2585      2.00000
      7       5.3629      2.00000
      8       5.7404      2.00000
      9       5.8900      2.00000
     10       7.3303      0.00000
     11       7.6159      0.00000
     12       8.1704      0.00000
     13      10.2956      0.00000
     14      11.8560      0.00000

 k-point     4 :       0.3333   -0.0000    0.0000
  band No.  band energies     occupation 
      1      -6.3828      2.00000
      2      -4.2403      2.00000
      3      -3.6071      2.00000
      4       1.5414      2.00000
      5       2.2078      2.00000
      6       2.8757      2.00000
      7       4.0540      2.00000
      8       5.9039      2.00000
      9       5.9309      2.00000
     10       7.2154      0.00000
     11       7.4296      0.00000
     12       9.4063      0.00000
     13       9.5870      0.00000
     14      12.8048      0.00000

 k-point     5 :       0.4444    0.0000    0.0000
  band No.  band energies     occupation 
      1      -5.9219      2.00000
      2      -4.6504      2.00000
      3      -3.5204      2.00000
      4       1.5709      2.00000
      5       1.9990      2.00000
      6       2.6760      2.00000
      7       3.0017      2.00000
      8       5.8557      2.00000
      9       5.9518      2.00000
     10       7.1956      0.00000
     11       7.2651      0.00000
     12       9.1984      0.00000
     13      10.2811      0.00000
     14      14.1024      0.00000

 k-point     6 :       0.1111    0.1111    0.0000
  band No.  band energies     occupation 
      1      -6.9169      2.00000
      2      -3.8885      2.00000
      3      -3.7787      2.00000
      4       2.2924      2.00000
      5       2.6039      2.00000
      6       3.8681      2.00000
      7       4.8917      2.00000
      8       6.0314      2.00000
      9       6.0316      2.00000
     10       7.2157      0.00000
     11       7.5179      0.00000
     12       8.2039      0.00000
     13      10.9842      0.00000
     14      11.0026      0.00000

 k-point     7 :       0.2222    0.1111    0.0000
  band No.  band energies     occupation 
      1      -6.5503      2.00000
      2      -4.0450      2.00000
      3      -3.7217      2.00000
      4       1.7102      2.00000
      5       2.1045      2.00000
      6       3.4235      2.00000
      7       4.6906      2.00000
      8       5.0129      2.00000
      9       5.6463      2.00000
     10       7.7015      0.00000
     11       8.2138      0.00000
     12       8.6894      0.00000
     13      10.2510      0.00000
     14      11.4482      0.00000

 k-point     8 :       0.3333    0.1111    0.0000
  band No.  band energies     occupation 
      1      -6.0784      2.00000
      2      -4.4060      2.00000
      3      -3.6570      2.00000
      4       1.5897      2.00000
      5       1.9398      2.00000
      6       2.9082      2.00000
      7       3.5337      2.00000
      8       5.0149      2.00000
      9       5.3151      2.00000
     10       7.8863      0.00000
     11       8.1570      0.00000
     12       9.7365      0.00000
     13       9.8636      0.00000
     14      12.5611      0.00000

 k-point     9 :       0.4444    0.1111    0.0000
  band No.  band energies     occupation 
      1      -5.7763      2.00000
      2      -4.6849      2.00000
      3      -3.6286      2.00000
      4       1.6701      2.00000
      5       2.0365      2.00000
      6       2.7363      2.00000
      7       2.8282      2.00000
      8       5.1023      2.00000
      9       5.1241      2.00000
     10       7.9393      0.00000
     11       8.1054      0.00000
     12       9.5983      0.00000
     13      10.3282      0.00000
     14      13.7952      0.00000

 k-point    10 :       0.2222    0.2222    0.0000
  band No.  band energies     occupation 
      1      -6.1408      2.00000
      2      -4.1894      2.00000
      3      -3.8404      2.00000
      4       1.6955      2.00000
      5       1.7835      2.00000
      6       3.3666      2.00000
      7       4.0692      2.00000
      8       4.4149      2.00000
      9       4.4507      2.00000
     10       8.7703      0.00000
     11       8.9459      0.00000
     12       9.0613      0.00000
     13      10.8271      0.00000
     14      11.0609      0.00000

 k-point    11 :       0.3333    0.2222    0.0000
  band No.  band energies     occupation 
      1      -5.7305      2.00000
      2      -4.4564      2.00000
      3      -3.9333      2.00000
      4       1.8459      2.00000
      5       1.9799      2.00000
      6       2.9795      2.00000
      7       3.2502      2.00000
      8       4.0324      2.00000
      9       4.1404      2.00000
     10       8.9892      0.00000
     11       9.1941      0.00000
     12       9.9502      0.00000
     13      10.6835      0.00000
     14      12.2178      0.00000

 k-point    12 :       0.3333    0.3333    0.0000
  band No.  band energies     occupation 
      1      -5.5574      2.00000
      2      -4.2854      2.00000
      3      -4.2854      2.00000
      4       2.0964      2.00000
      5       2.0964      2.00000
      6       3.2429      2.00000
      7       3.2429      2.00000
      8       3.3901      2.00000
      9       3.4168      2.00000
     10       9.6686      0.00000
     11       9.6686      0.00000
     12       9.8505      0.00000
     13      11.6527      0.00000
     14      12.3604      0.00000

 k-point    13 :       0.0000    0.0000    0.2500
  band No.  band energies     occupation 
      1      -6.9831      2.00000
      2      -5.2397      2.00000
      3      -2.3797      2.00000
      4       3.2073      2.00000
      5       3.8253      2.00000
      6       4.1713      2.00000
      7       5.1228      2.00000
      8       5.3966      2.00000
      9       5.6128      2.00000
     10       7.2183      0.00000
     11       7.2762      0.00000
     12       7.7747      0.00000
     13      10.7073      0.00000
     14      12.0297      0.00000

 k-point    14 :       0.1111    0.0000    0.2500
  band No.  band energies     occupation 
      1      -6.8880      2.00000
      2      -5.1730      2.00000
      3      -2.4886      2.00000
      4       2.8340      2.00000
      5       3.6937      2.00000
      6       4.0980      2.00000
      7       4.7023      2.00000
      8       5.1676      2.00000
      9       5.4334      2.00000
     10       7.5003      0.00000
     11       7.7461      0.00000
     12       8.2224      0.00000
     13      10.8748      0.00000
     14      12.0232      0.00000

 k-point    15 :       0.2222    0.0000    0.2500
  band No.  band energies     occupation 
      1      -6.6170      2.00000
      2      -4.9754      2.00000
      3      -2.8636      2.00000
      4       2.4615      2.00000
      5       3.2400      2.00000
      6       3.6317      2.00000
      7       4.0238      2.00000
      8       4.6842      2.00000
      9       5.0755      2.00000
     10       8.0703      0.00000
     11       8.6087      0.00000
     12       9.0215      0.00000
     13      11.2926      0.00000
     14      11.7051      0.00000

 k-point    16 :       0.3333   -0.0000    0.2500
  band No.  band energies     occupation 
      1      -6.2174      2.00000
      2      -4.7018      2.00000
      3      -3.4383      2.00000
      4       2.1322      2.00000
      5       2.5346      2.00000
      6       3.1977      2.00000
      7       3.4219      2.00000
      8       4.7222      2.00000
      9       4.9896      2.00000
     10       8.0941      0.00000
     11       8.6988      0.00000
     12       9.8581      0.00000
     13      10.6044      0.00000
     14      12.1857      0.00000

 k-point    17 :       0.4444    0.0000    0.2500
  band No.  band energies     occupation 
      1      -5.8102      2.00000
      2      -4.6614      2.00000
      3      -3.7561      2.00000
      4       1.3349      2.00000
      5       2.1869      2.00000
      6       2.9254      2.00000
      7       3.8818      2.00000
      8       4.7862      2.00000
      9       4.9651      2.00000
     10       7.9333      0.00000
     11       8.6020      0.00000
     12       9.5466      0.00000
     13      10.0564      0.00000
     14      12.6477      0.00000

 k-point    18 :      -0.4444   -0.0000    0.2500
  band No.  band energies     occupation 
      1      -5.7398      2.00000
      2      -4.9245      2.00000
      3      -3.4563      2.00000
      4       0.9172      2.00000
      5       2.0139      2.00000
      6       2.8924      2.00000
      7       4.7900      2.00000
      8       4.9434      2.00000
      9       5.0891      2.00000
     10       7.7562      0.00000
     11       8.3883      0.00000
     12       8.6792      0.00000
     13       9.7470      0.00000
     14      13.3282      0.00000

 k-point    19 :      -0.3333    0.0000    0.2500
  band No.  band energies     occupation 
      1      -6.1652      2.00000
      2      -4.9578      2.00000
      3      -3.0335      2.00000
      4       1.1532      2.00000
      5       2.0747      2.00000
      6       3.0576      2.00000
      7       5.1728      2.00000
      8       5.3199      2.00000
      9       5.9969      2.00000
     10       7.4057      0.00000
     11       7.7647      0.00000
     12       8.1525      0.00000
     13       9.6976      0.00000
     14      13.5256      0.00000

 k-point    20 :      -0.2222   -0.0000    0.2500
  band No.  band energies     occupation 
      1      -6.6018      2.00000
      2      -5.0541      2.00000
      3      -2.6834      2.00000
      4       2.0137      2.00000
      5       2.3977      2.00000
      6       3.3881      2.00000
      7       5.5197      2.00000
      8       5.6827      2.00000
      9       6.2039      2.00000
     10       7.1198      0.00000
     11       7.5946      0.00000
     12       7.7280      0.00000
     13       9.9915      0.00000
     14      12.7492      0.00000

 k-point    21 :      -0.1111   -0.0000    0.2500
  band No.  band energies     occupation 
      1      -6.8862      2.00000
      2      -5.1823      2.00000
      3      -2.4612      2.00000
      4       2.8713      2.00000
      5       3.2448      2.00000
      6       3.8463      2.00000
      7       5.2040      2.00000
      8       5.7151      2.00000
      9       5.9211      2.00000
     10       7.0639      0.00000
     11       7.0956      0.00000
     12       8.1915      0.00000
     13      10.5386      0.00000
     14      11.9911      0.00000

 k-point    22 :       0.1111    0.1111    0.2500
  band No.  band energies     occupation 
      1      -6.7000      2.00000
      2      -5.0648      2.00000
      3      -2.6735      2.00000
      4       2.4728      2.00000
      5       2.7526      2.00000
      6       3.6920      2.00000
      7       4.7166      2.00000
      8       5.3306      2.00000
      9       5.6565      2.00000
     10       7.5319      0.00000
     11       8.1061      0.00000
     12       8.2740      0.00000
     13      10.6197      0.00000
     14      12.1221      0.00000

 k-point    23 :       0.2222    0.1111    0.2500
  band No.  band energies     occupation 
      1      -6.3588      2.00000
      2      -4.8376      2.00000
      3      -3.1529      2.00000
      4       2.0824      2.00000
      5       2.5150      2.00000
      6       3.3428      2.00000
      7       3.6503      2.00000
      8       4.7164      2.00000
      9       5.8269      2.00000
     10       7.6595      0.00000
     11       8.4840      0.00000
     12       9.5085      0.00000
     13      11.0662      0.00000
     14      11.4752      0.00000

 k-point    24 :       0.3333    0.1111    0.2500
  band No.  band energies     occupation 
      1      -5.9384      2.00000
      2      -4.6216      2.00000
      3      -3.6909      2.00000
      4       1.7203      2.00000
      5       1.9572      2.00000
      6       3.0895      2.00000
      7       3.6197      2.00000
      8       4.2380      2.00000
      9       5.9392      2.00000
     10       7.4559      0.00000
     11       8.8767      0.00000
     12       9.7902      0.00000
     13      10.5116      0.00000
     14      12.3515      0.00000

 k-point    25 :       0.4444    0.1111    0.2500
  band No.  band energies     occupation 
      1      -5.6463      2.00000
      2      -4.7848      2.00000
      3      -3.7114      2.00000
      4       1.1121      2.00000
      5       1.8414      2.00000
      6       3.0422      2.00000
      7       3.8280      2.00000
      8       4.4315      2.00000
      9       6.0314      2.00000
     10       7.3027      0.00000
     11       8.9100      0.00000
     12       9.1427      0.00000
     13      10.2153      0.00000
     14      13.1145      0.00000

 k-point    26 :      -0.4444    0.1111    0.2500
  band No.  band energies     occupation 
      1      -5.8780      2.00000
      2      -4.8907      2.00000
      3      -3.3511      2.00000
      4       1.0020      2.00000
      5       1.9992      2.00000
      6       3.0085      2.00000
      7       3.9048      2.00000
      8       5.4397      2.00000
      9       6.0995      2.00000
     10       7.2095      0.00000
     11       8.0909      0.00000
     12       8.9137      0.00000
     13      10.1182      0.00000
     14      13.1291      0.00000

 k-point    27 :      -0.3333    0.1111    0.2500
  band No.  band energies     occupation 
      1      -6.3392      2.00000
      2      -4.9368      2.00000
      3      -2.9727      2.00000
      4       1.5555      2.00000
      5       2.2744      2.00000
      6       3.2204      2.00000
      7       4.2128      2.00000
      8       5.8630      2.00000
      9       6.4067      2.00000
     10       7.0054      0.00000
     11       7.6120      0.00000
     12       8.7456      0.00000
     13      10.2097      0.00000
     14      12.3255      0.00000

 k-point    28 :       0.2222    0.2222    0.2500
  band No.  band energies     occupation 
      1      -5.9630      2.00000
      2      -4.7498      2.00000
      3      -3.4740      2.00000
      4       1.3376      2.00000
      5       2.1910      2.00000
      6       2.9109      2.00000
      7       3.3632      2.00000
      8       5.1874      2.00000
      9       6.2021      2.00000
     10       7.3183      0.00000
     11       8.2908      0.00000
     12       9.6052      0.00000
     13      11.0209      0.00000
     14      11.5719      0.00000

 k-point    29 :       0.3333    0.2222    0.2500
  band No.  band energies     occupation 
      1      -5.6004      2.00000
      2      -4.6494      2.00000
      3      -3.8752      2.00000
      4       1.3479      2.00000
      5       1.6623      2.00000
      6       2.5310      2.00000
      7       3.7615      2.00000
      8       4.5885      2.00000
      9       5.9219      2.00000
     10       7.6165      0.00000
     11       8.9897      0.00000
     12       9.4711      0.00000
     13      11.0459      0.00000
     14      12.3144      0.00000

 k-point    30 :       0.4444    0.2222    0.2500
  band No.  band energies     occupation 
      1      -5.5751      2.00000
      2      -4.7480      2.00000
      3      -3.7765      2.00000
      4       1.1294      2.00000
      5       1.7887      2.00000
      6       2.5574      2.00000
      7       3.6505      2.00000
      8       5.0218      2.00000
      9       5.7021      2.00000
     10       7.8615      0.00000
     11       8.5315      0.00000
     12       9.4455      0.00000
     13      10.9324      0.00000
     14      12.6012      0.00000

 k-point    31 :       0.3333    0.3333    0.2500
  band No.  band energies     occupation 
      1      -5.4253      2.00000
      2      -4.6611      2.00000
      3      -3.9958      2.00000
      4       1.3111      2.00000
      5       1.6807      2.00000
      6       2.0264      2.00000
      7       4.0580      2.00000
      8       4.8884      2.00000
      9       5.2018      2.00000
     10       8.4799      0.00000
     11       8.9371      0.00000
     12       9.0431      0.00000
     13      12.0406      0.00000
     14      12.3406      0.00000

 k-point    32 :       0.0000    0.0000    0.5000
  band No.  band energies     occupation 
      1      -6.3143      2.00000
      2      -6.3143      2.00000
      3      -1.5879      2.00000
      4       2.5743      2.00000
      5       4.0063      2.00000
      6       4.0063      2.00000
      7       5.3995      2.00000
      8       5.8231      2.00000
      9       5.8231      2.00000
     10       6.8950      0.00000
     11       6.9820      0.00000
     12       6.9820      0.00000
     13      10.3619      0.00000
     14      11.7414      0.00000

 k-point    33 :       0.1111    0.0000    0.5000
  band No.  band energies     occupation 
      1      -6.2359      2.00000
      2      -6.2213      2.00000
      3      -1.7893      2.00000
      4       2.5853      2.00000
      5       3.8153      2.00000
      6       3.9427      2.00000
      7       4.6257      2.00000
      8       5.2009      2.00000
      9       5.4579      2.00000
     10       7.2606      0.00000
     11       7.5821      0.00000
     12       8.0971      0.00000
     13      10.6341      0.00000
     14      11.4153      0.00000

 k-point    34 :       0.2222    0.0000    0.5000
  band No.  band energies     occupation 
      1      -6.0221      2.00000
      2      -5.9487      2.00000
      3      -2.3211      2.00000
      4       2.3039      2.00000
      5       3.0453      2.00000
      6       3.6648      2.00000
      7       4.3923      2.00000
      8       4.6210      2.00000
      9       5.0432      2.00000
     10       7.8931      0.00000
     11       8.4265      0.00000
     12       8.9035      0.00000
     13      10.7383      0.00000
     14      11.8338      0.00000

 k-point    35 :       0.3333   -0.0000    0.5000
  band No.  band energies     occupation 
      1      -5.7441      2.00000
      2      -5.5261      2.00000
      3      -3.0173      2.00000
      4       1.3377      2.00000
      5       2.8964      2.00000
      6       3.3538      2.00000
      7       4.1434      2.00000
      8       4.3426      2.00000
      9       5.3024      2.00000
     10       8.2135      0.00000
     11       8.5247      0.00000
     12       9.0434      0.00000
     13      10.7347      0.00000
     14      12.0505      0.00000

 k-point    36 :       0.4444    0.0000    0.5000
  band No.  band energies     occupation 
      1      -5.5348      2.00000
      2      -5.0731      2.00000
      3      -3.6387      2.00000
      4       0.6893      2.00000
      5       2.9469      2.00000
      6       3.1029      2.00000
      7       3.9262      2.00000
      8       4.1795      2.00000
      9       6.0726      2.00000
     10       7.3208      0.00000
     11       8.6485      0.00000
     12       9.2863      0.00000
     13      10.8866      0.00000
     14      11.4911      0.00000

 k-point    37 :       0.1111    0.1111    0.5000
  band No.  band energies     occupation 
      1      -6.0846      2.00000
      2      -6.0432      2.00000
      3      -2.1521      2.00000
      4       2.4941      2.00000
      5       3.3584      2.00000
      6       3.5002      2.00000
      7       4.2885      2.00000
      8       4.5151      2.00000
      9       5.8780      2.00000
     10       7.0734      0.00000
     11       8.6373      0.00000
     12       8.7126      0.00000
     13      11.1029      0.00000
     14      11.1295      0.00000

 k-point    38 :       0.2222    0.1111    0.5000
  band No.  band energies     occupation 
      1      -5.8232      2.00000
      2      -5.7065      2.00000
      3      -2.7506      2.00000
      4       1.8631      2.00000
      5       2.6681      2.00000
      6       2.9365      2.00000
      7       4.2982      2.00000
      8       4.7698      2.00000
      9       5.6901      2.00000
     10       7.5687      0.00000
     11       8.7890      0.00000
     12       8.9731      0.00000
     13      10.9109      0.00000
     14      11.9638      0.00000

 k-point    39 :       0.3333    0.1111    0.5000
  band No.  band energies     occupation 
      1      -5.5579      2.00000
      2      -5.2650      2.00000
      3      -3.4037      2.00000
      4       1.0137      2.00000
      5       2.4071      2.00000
      6       2.5913      2.00000
      7       4.4504      2.00000
      8       4.9925      2.00000
      9       5.7569      2.00000
     10       7.8053      0.00000
     11       8.2529      0.00000
     12       9.0064      0.00000
     13      10.9513      0.00000
     14      11.9574      0.00000

 k-point    40 :       0.4444    0.1111    0.5000
  band No.  band energies     occupation 
      1      -5.4407      2.00000
      2      -4.9779      2.00000
      3      -3.7703      2.00000
      4       0.6779      2.00000
      5       2.3339      2.00000
      6       2.4604      2.00000
      7       4.6803      2.00000
      8       4.7325      2.00000
      9       6.3916      2.00000
     10       7.0477      0.00000
     11       8.4283      0.00000
     12       8.9647      0.00000
     13      11.1278      0.00000
     14      11.5237      0.00000

 k-point    41 :       0.2222    0.2222    0.5000
  band No.  band energies     occupation 
      1      -5.5340      2.00000
      2      -5.3769      2.00000
      3      -3.2876      2.00000
      4       1.4614      2.00000
      5       1.8346      2.00000
      6       2.2446      2.00000
      7       4.8577      2.00000
      8       5.2127      2.00000
      9       6.2696      2.00000
     10       7.2913      0.00000
     11       8.5112      0.00000
     12       8.5430      0.00000
     13      11.3627      0.00000
     14      12.2305      0.00000

 k-point    42 :       0.3333    0.2222    0.5000
  band No.  band energies     occupation 
      1      -5.3041      2.00000
      2      -5.0592      2.00000
      3      -3.7400      2.00000
      4       0.9817      2.00000
      5       1.5992      2.00000
      6       1.8156      2.00000
      7       5.3507      2.00000
      8       5.7613      2.00000
      9       6.3393      2.00000
     10       7.3185      0.00000
     11       7.8010      0.00000
     12       8.2363      0.00000
     13      11.7461      0.00000
     14      12.3038      0.00000

 k-point    43 :       0.3333    0.3333    0.5000
  band No.  band energies     occupation 
      1      -5.0813      2.00000
      2      -5.0813      2.00000
      3      -3.8723      2.00000
      4       1.2403      2.00000
      5       1.2736      2.00000
      6       1.2736      2.00000
      7       5.7977      2.00000
      8       6.6650      1.43103
      9       6.6650      1.43102
     10       6.6790      1.13794
     11       7.5665      0.00000
     12       7.5665      0.00000
     13      12.7207      0.00000
     14      13.0173      0.00000


--------------------------------------------------------------------------------------------------------


 soft charge-density along one line, spin component           1
         0         1         2         3         4         5         6         7         8         9
 total charge-density along one line
 
 pseudopotential strength for first ion, spin component:           1
 51.401  55.926  -0.000  -0.000  -0.038  -0.000  -0.000  -0.056
 55.926  60.852  -0.000  -0.000  -0.042  -0.000  -0.000  -0.061
 -0.000  -0.000  12.667   0.008  -0.000  18.258   0.011  -0.000
 -0.000  -0.000   0.008  12.680   0.000   0.011  18.277   0.000
 -0.038  -0.042  -0.000   0.000  12.679  -0.000   0.000  18.276
 -0.000  -0.000  18.258   0.011  -0.000  26.326   0.016  -0.000
 -0.000  -0.000   0.011  18.277   0.000   0.016  26.354   0.000
 -0.056  -0.061  -0.000   0.000  18.276  -0.000   0.000  26.352
 -0.000  -0.000  -0.008   0.000  -0.000  -0.011   0.000  -0.000
  0.012   0.013   0.000  -0.000   0.000   0.000  -0.000   0.000
  0.006   0.007   0.000  -0.000   0.005   0.000  -0.000   0.007
  0.000   0.000   0.000  -0.007  -0.000   0.000  -0.010  -0.000
  0.010   0.011   0.000  -0.000  -0.007   0.000  -0.000  -0.011
 total augmentation occupancy for first ion, spin component:           1
 14.498 -10.732   0.000   0.000   1.628   0.000  -0.000  -0.395   0.000  -0.148  -0.108   0.000  -0.110
-10.732   9.220   0.000  -0.000  -1.366   0.000   0.000   0.337   0.000   0.133   0.095   0.000   0.098
  0.000   0.000   2.614   0.160  -0.000  -0.548  -0.145   0.000  -0.040   0.000   0.000  -0.041   0.000
 -0.000  -0.000   0.160   2.910   0.000  -0.145  -0.813  -0.000  -0.040   0.000   0.000  -0.093  -0.000
  1.628  -1.366  -0.000   0.000   2.807   0.000  -0.000  -0.746  -0.000  -0.045  -0.013   0.000  -0.041
  0.000   0.000  -0.548  -0.145   0.000   0.204   0.051   0.000   0.009   0.000   0.000   0.014   0.000
  0.000   0.000  -0.145  -0.813  -0.000   0.051   0.301  -0.000   0.014  -0.000   0.000   0.026   0.000
 -0.395   0.337   0.000  -0.000  -0.746   0.000   0.000   0.267   0.000   0.013   0.003   0.000   0.009
  0.000   0.000  -0.040  -0.040  -0.000   0.009   0.014   0.000   0.010   0.000   0.000   0.012   0.000
 -0.148   0.133   0.000   0.000  -0.045   0.000   0.000   0.013   0.000   0.017   0.003   0.000   0.006
 -0.108   0.095   0.000   0.000  -0.013   0.000   0.000   0.003  -0.000   0.003   0.007  -0.000  -0.000
  0.000   0.000  -0.041  -0.093   0.000   0.014   0.026   0.000   0.012   0.000  -0.000   0.029   0.000
 -0.110   0.098   0.000   0.000  -0.041   0.000   0.000   0.009   0.000   0.006  -0.000   0.000   0.011


------------------------ aborting loop because EDIFF is reached ----------------------------------------


    CHARGE:  cpu time    0.0334: real time    0.0336
    FORLOC:  cpu time    0.0013: real time    0.0014
    FORNL :  cpu time    0.1256: real time    0.1261
    STRESS:  cpu time    0.2813: real time    0.2821
    FORCOR:  cpu time    0.0238: real time    0.0239
    FORHAR:  cpu time    0.0056: real time    0.0056
    MIXING:  cpu time    0.0011: real time    0.0011
    OFIELD:  cpu time    0.0000: real time    0.0000

 ---------------------------------------------------------------------------------------------

         DFTD3 V3.0 Rev 1        
 Edisp (eV)   -1.36726

 E6    (eV) :    -0.7392
 E8    (eV) :    -0.6281
 % E8        : 45.94
    FORVDW:  cpu time    0.0074: real time    0.0074

  FORCE on cell =-STRESS in cart. coord.  units (eV):
  Direction    XX          YY          ZZ          XY          YZ          ZX
  --------------------------------------------------------------------------------------
  Alpha Z     2.42288     2.42288     2.42288
  Ewald    -241.08399  -241.08398  -209.07034    -0.00000    -0.00000     0.00000
  Hartree     9.99700     9.99700    17.49973     0.00000     0.00000    -0.00000
  E(xc)     -70.52650   -70.52650   -70.05342    -0.00000     0.00000    -0.00000
  Local    -107.08191  -107.08195  -138.55682    -0.00004     0.00000    -0.00000
  n-local   332.49759   333.22619   328.74219    -1.45964    -0.67300    -1.25780
  augment   -81.15670   -81.15666   -79.08252     0.00003     0.00000     0.00000
  Kinetic   152.13956   159.69781   149.45008    -8.04355     0.01845     1.56495
  Fock        0.00000     0.00000     0.00000     0.00000     0.00000     0.00000
  vdW        -1.44150    -1.44150    -1.43660    -0.00000     0.00000    -0.00000
  -------------------------------------------------------------------------------------
  Total      -0.09014    -0.09014    -0.08482     0.00000     0.00000     0.00000
  in kB      -1.49689    -1.49689    -1.40861     0.00000     0.00000     0.00000
  external pressure =       -1.47 kB  Pullay stress =        0.00 kB


 VOLUME and BASIS-vectors are now :
 -----------------------------------------------------------------------------
  energy-cutoff  :      520.00
  volume of cell :       96.48
      direct lattice vectors                 reciprocal lattice vectors
     4.319769646  0.000000000 -0.000000000     0.231493825  0.133653022 -0.000000000
    -2.159884823  3.741030252  0.000000000     0.000000000  0.267306045  0.000000000
     0.000000000 -0.000000000  5.969990084     0.000000000  0.000000000  0.167504466

  length of vectors
     4.319769646  4.319769646  5.969990084     0.267306045  0.267306045  0.167504466


 FORCES acting on ions
    electron-ion (+dipol)            ewald-force                    non-local-force                 convergence-correction
 -----------------------------------------------------------------------------------------------
   -.749E+01 0.103E-04 -.729E-06   0.114E+02 0.157E-05 0.121E-05   -.394E+01 -.274E-16 -.278E-16   -.697E-03 -.179E-07 0.553E-09
   0.375E+01 -.649E+01 -.189E-04   -.571E+01 0.990E+01 -.839E-05   0.197E+01 -.342E+01 0.555E-16   0.349E-03 -.604E-03 -.154E-08
   0.375E+01 0.649E+01 0.193E-04   -.571E+01 -.990E+01 0.718E-05   0.197E+01 0.342E+01 0.000E+00   0.349E-03 0.604E-03 0.100E-08
 -----------------------------------------------------------------------------------------------
   0.259E-04 -.895E-05 -.333E-06   -.888E-15 -.178E-14 -.348E-17   0.444E-15 0.000E+00 0.278E-16   -.366E-08 -.850E-08 0.137E-10
 
 
 POSITION                                       TOTAL-FORCE (eV/Angst)
 -----------------------------------------------------------------------------------
      1.23388     -0.00000      1.99000        -0.009011     -0.000000      0.000000
     -0.61694      1.06857      3.97999         0.004506     -0.007804     -0.000000
      1.54295      2.67246     -0.00000         0.004506      0.007804     -0.000000
 -----------------------------------------------------------------------------------
    total drift:                                0.000026     -0.000009     -0.000000


--------------------------------------------------------------------------------------------------------



  FREE ENERGIE OF THE ION-ELECTRON SYSTEM (eV)
  ---------------------------------------------------
  free  energy   TOTEN  =       -10.74103341 eV

  energy  without entropy=      -10.74056577  energy(sigma->0) =      -10.74079959
 
 d Force = 0.1617820E-03[ 0.143E-03, 0.181E-03]  d Energy =-0.1070520E-03 0.269E-03
 d Force =-0.1786807E+00[-0.181E+00,-0.176E+00]  d Ewald  =-0.1650181E+01 0.147E+01


--------------------------------------------------------------------------------------------------------


    POTLOK:  cpu time    0.0265: real time    0.0266


--------------------------------------------------------------------------------------------------------




--------------------------------------------------------------------------------------------------------


    WAVPRE:  cpu time    0.0047: real time    0.0067
    FEWALD:  cpu time    0.0002: real time    0.0002
    GENKIN:  cpu time    0.0072: real time    0.0072
    ORTHCH:  cpu time    0.0245: real time    0.0246
     LOOP+:  cpu time    3.0178: real time    3.0428


--------------------------------------- Iteration     10(   1)  ---------------------------------------


    POTLOK:  cpu time    0.0216: real time    0.0230
    SETDIJ:  cpu time    0.0029: real time    0.0029
     EDDAV:  cpu time    0.4454: real time    0.4485
       DOS:  cpu time    0.0007: real time    0.0008
    CHARGE:  cpu time    0.0335: real time    0.0337
    MIXING:  cpu time    0.0009: real time    0.0009
    --------------------------------------------
      LOOP:  cpu time    0.5050: real time    0.5097

 eigenvalue-minimisations  :  1204
 total energy-change (2. order) : 0.2970269E-02  (-0.1112369E-02)
 number of electron      18.0000003 magnetization 
 augmentation part       -3.6136507 magnetization 

 Broyden mixing:
  rms(total) = 0.68003E-02    rms(broyden)= 0.68002E-02
  rms(prec ) = 0.12062E-01
  weight for this iteration     100.00

 Free energy of the ion-electron system (eV)
  ---------------------------------------------------
  alpha Z        PSCENC =         2.42837671
  Ewald energy   TEWEN  =      -691.83968051
  -Hartree energ DENC   =       -37.47474490
  -exchange      EXHF   =         0.00000000
  -V(xc)+E(xc)   XCENC  =       -83.74534881
  PAW double counting   =      1594.00901859    -1478.65614503
  entropy T*S    EENTRO =        -0.00047007
  eigenvalues    EBANDS =        16.09388348
  atomic energy  EATOM  =       669.81430600
  Solvation  Ediel_sol  =         0.00000000
  ---------------------------------------------------
  free energy    TOTEN  =        -9.37080454 eV

  energy without entropy =       -9.37033447  energy(sigma->0) =       -9.37056951


--------------------------------------------------------------------------------------------------------




--------------------------------------- Iteration     10(   2)  ---------------------------------------


    POTLOK:  cpu time    0.0211: real time    0.0213
    SETDIJ:  cpu time    0.0027: real time    0.0028
     EDDAV:  cpu time    0.4725: real time    0.4758
       DOS:  cpu time    0.0008: real time    0.0008
    CHARGE:  cpu time    0.0345: real time    0.0347
    MIXING:  cpu time    0.0010: real time    0.0010
    --------------------------------------------
      LOOP:  cpu time    0.5327: real time    0.5364

 eigenvalue-minimisations  :  1312
 total energy-change (2. order) : 0.1065862E-03  (-0.4672734E-04)
 number of electron      18.0000003 magnetization 
 augmentation part       -3.6136171 magnetization 

 Broyden mixing:
  rms(total) = 0.44622E-02    rms(broyden)= 0.44622E-02
  rms(prec ) = 0.74452E-02
  weight for this iteration     100.00

 eigenvalues of (default mixing * dielectric matrix)
  average eigenvalue GAMMA=   0.8929
  0.8929

 Free energy of the ion-electron system (eV)
  ---------------------------------------------------
  alpha Z        PSCENC =         2.42837671
  Ewald energy   TEWEN  =      -691.83968051
  -Hartree energ DENC   =       -37.40470841
  -exchange      EXHF   =         0.00000000
  -V(xc)+E(xc)   XCENC  =       -83.74320260
  PAW double counting   =      1594.94903723    -1479.59540139
  entropy T*S    EENTRO =        -0.00046984
  eigenvalues    EBANDS =        16.02104487
  atomic energy  EATOM  =       669.81430600
  Solvation  Ediel_sol  =         0.00000000
  ---------------------------------------------------
  free energy    TOTEN  =        -9.37069795 eV

  energy without entropy =       -9.37022811  energy(sigma->0) =       -9.37046303


--------------------------------------------------------------------------------------------------------




--------------------------------------- Iteration     10(   3)  ---------------------------------------


    POTLOK:  cpu time    0.0215: real time    0.0217
    SETDIJ:  cpu time    0.0028: real time    0.0028
     EDDAV:  cpu time    0.4876: real time    0.4910
       DOS:  cpu time    0.0008: real time    0.0008
    CHARGE:  cpu time    0.0338: real time    0.0340
    MIXING:  cpu time    0.0011: real time    0.0011
    --------------------------------------------
      LOOP:  cpu time    0.5475: real time    0.5513

 eigenvalue-minimisations  :  1384
 total energy-change (2. order) : 0.6455315E-04  (-0.8460816E-05)
 number of electron      18.0000003 magnetization 
 augmentation part       -3.6149016 magnetization 

 Broyden mixing:
  rms(total) = 0.24800E-02    rms(broyden)= 0.24800E-02
  rms(prec ) = 0.32354E-02
  weight for this iteration     100.00

 eigenvalues of (default mixing * dielectric matrix)
  average eigenvalue GAMMA=   1.2506
  1.8232  0.6779

 Free energy of the ion-electron system (eV)
  ---------------------------------------------------
  alpha Z        PSCENC =         2.42837671
  Ewald energy   TEWEN  =      -691.83968051
  -Hartree energ DENC   =       -37.34687648
  -exchange      EXHF   =         0.00000000
  -V(xc)+E(xc)   XCENC  =       -83.74020922
  PAW double counting   =      1595.99661986    -1480.64290341
  entropy T*S    EENTRO =        -0.00046985
  eigenvalues    EBANDS =        15.96020351
  atomic energy  EATOM  =       669.81430600
  Solvation  Ediel_sol  =         0.00000000
  ---------------------------------------------------
  free energy    TOTEN  =        -9.37063340 eV

  energy without entropy =       -9.37016355  energy(sigma->0) =       -9.37039847


--------------------------------------------------------------------------------------------------------




--------------------------------------- Iteration     10(   4)  ---------------------------------------


    POTLOK:  cpu time    0.0215: real time    0.0217
    SETDIJ:  cpu time    0.0027: real time    0.0027
     EDDAV:  cpu time    0.3116: real time    0.3138
       DOS:  cpu time    0.0008: real time    0.0008
    --------------------------------------------
      LOOP:  cpu time    0.3366: real time    0.3390

 eigenvalue-minimisations  :   644
 total energy-change (2. order) : 0.8482315E-05  (-0.1957643E-05)
 number of electron      18.0000003 magnetization 
 augmentation part       -3.6149016 magnetization 

 Free energy of the ion-electron system (eV)
  ---------------------------------------------------
  alpha Z        PSCENC =         2.42837671
  Ewald energy   TEWEN  =      -691.83968051
  -Hartree energ DENC   =       -37.31806844
  -exchange      EXHF   =         0.00000000
  -V(xc)+E(xc)   XCENC  =       -83.73853388
  PAW double counting   =      1596.73345848    -1481.38030193
  entropy T*S    EENTRO =        -0.00046982
  eigenvalues    EBANDS =        15.93028847
  atomic energy  EATOM  =       669.81430600
  Solvation  Ediel_sol  =         0.00000000
  ---------------------------------------------------
  free energy    TOTEN  =        -9.37062492 eV

  energy without entropy =       -9.37015510  energy(sigma->0) =       -9.37039001


--------------------------------------------------------------------------------------------------------




 average (electrostatic) potential at core
  the test charge radii are     1.1897
  (the norm of the test charge is              1.0000)
       1 -88.4140       2 -88.4140       3 -88.4140
 
 
 
 E-fermi :   6.7162     XC(G=0):  -9.3495     alpha+bet :-11.1717


 k-point     1 :       0.0000    0.0000    0.0000
  band No.  band energies     occupation 
      1      -7.1932      2.00000
      2      -3.8252      2.00000
      3      -3.8252      2.00000
      4       3.7706      2.00000
      5       4.1153      2.00000
      6       4.1153      2.00000
      7       4.9114      2.00000
      8       4.9114      2.00000
      9       5.5218      2.00000
     10       7.6829      0.00000
     11       7.6829      0.00000
     12       8.3736      0.00000
     13      11.5616      0.00000
     14      11.5616      0.00000

 k-point     2 :       0.1111    0.0000    0.0000
  band No.  band energies     occupation 
      1      -7.0938      2.00000
      2      -3.8349      2.00000
      3      -3.7927      2.00000
      4       2.9463      2.00000
      5       3.5283      2.00000
      6       3.7680      2.00000
      7       5.3406      2.00000
      8       5.5270      2.00000
      9       6.0922      2.00000
     10       7.2435      0.00000
     11       7.5663      0.00000
     12       8.1380      0.00000
     13      11.1975      0.00000
     14      11.5439      0.00000

 k-point     3 :       0.2222    0.0000    0.0000
  band No.  band energies     occupation 
      1      -6.8044      2.00000
      2      -3.9277      2.00000
      3      -3.7007      2.00000
      4       1.9876      2.00000
      5       2.7970      2.00000
      6       3.2818      2.00000
      7       5.3915      2.00000
      8       5.7708      2.00000
      9       5.9228      2.00000
     10       7.3578      0.00000
     11       7.6466      0.00000
     12       8.2001      0.00000
     13      10.3145      0.00000
     14      11.8851      0.00000

 k-point     4 :       0.3333   -0.0000    0.0000
  band No.  band energies     occupation 
      1      -6.3617      2.00000
      2      -4.2168      2.00000
      3      -3.5804      2.00000
      4       1.5587      2.00000
      5       2.2269      2.00000
      6       2.8968      2.00000
      7       4.0757      2.00000
      8       5.9350      2.00000
      9       5.9670      2.00000
     10       7.2398      0.00000
     11       7.4557      0.00000
     12       9.4407      0.00000
     13       9.6050      0.00000
     14      12.8388      0.00000

 k-point     5 :       0.4444    0.0000    0.0000
  band No.  band energies     occupation 
      1      -5.8962      2.00000
      2      -4.6311      2.00000
      3      -3.4925      2.00000
      4       1.5900      2.00000
      5       2.0172      2.00000
      6       2.6942      2.00000
      7       3.0185      2.00000
      8       5.8908      2.00000
      9       5.9849      2.00000
     10       7.2188      0.00000
     11       7.2894      0.00000
     12       9.2139      0.00000
     13      10.3189      0.00000
     14      14.1430      0.00000

 k-point     6 :       0.1111    0.1111    0.0000
  band No.  band energies     occupation 
      1      -6.8991      2.00000
      2      -3.8635      2.00000
      3      -3.7542      2.00000
      4       2.3139      2.00000
      5       2.6247      2.00000
      6       3.8983      2.00000
      7       4.9144      2.00000
      8       6.0651      2.00000
      9       6.0654      2.00000
     10       7.2440      0.00000
     11       7.5442      0.00000
     12       8.2365      0.00000
     13      11.0076      0.00000
     14      11.0246      0.00000

 k-point     7 :       0.2222    0.1111    0.0000
  band No.  band energies     occupation 
      1      -6.5304      2.00000
      2      -4.0200      2.00000
      3      -3.6963      2.00000
      4       1.7279      2.00000
      5       2.1232      2.00000
      6       3.4489      2.00000
      7       4.7154      2.00000
      8       5.0376      2.00000
      9       5.6767      2.00000
     10       7.7307      0.00000
     11       8.2478      0.00000
     12       8.7224      0.00000
     13      10.2707      0.00000
     14      11.4740      0.00000

 k-point     8 :       0.3333    0.1111    0.0000
  band No.  band energies     occupation 
      1      -6.0548      2.00000
      2      -4.3839      2.00000
      3      -3.6305      2.00000
      4       1.6080      2.00000
      5       1.9576      2.00000
      6       2.9289      2.00000
      7       3.5530      2.00000
      8       5.0407      2.00000
      9       5.3433      2.00000
     10       7.9166      0.00000
     11       8.1884      0.00000
     12       9.7577      0.00000
     13       9.8975      0.00000
     14      12.5923      0.00000

 k-point     9 :       0.4444    0.1111    0.0000
  band No.  band energies     occupation 
      1      -5.7487      2.00000
      2      -4.6668      2.00000
      3      -3.6016      2.00000
      4       1.6898      2.00000
      5       2.0574      2.00000
      6       2.7504      2.00000
      7       2.8460      2.00000
      8       5.1280      2.00000
      9       5.1520      2.00000
     10       7.9706      0.00000
     11       8.1352      0.00000
     12       9.6160      0.00000
     13      10.3664      0.00000
     14      13.8345      0.00000

 k-point    10 :       0.2222    0.2222    0.0000
  band No.  band energies     occupation 
      1      -6.1179      2.00000
      2      -4.1649      2.00000
      3      -3.8161      2.00000
      4       1.7134      2.00000
      5       1.8012      2.00000
      6       3.3923      2.00000
      7       4.0897      2.00000
      8       4.4361      2.00000
      9       4.4739      2.00000
     10       8.8074      0.00000
     11       8.9809      0.00000
     12       9.0948      0.00000
     13      10.8522      0.00000
     14      11.0827      0.00000

 k-point    11 :       0.3333    0.2222    0.0000
  band No.  band energies     occupation 
      1      -5.7030      2.00000
      2      -4.4358      2.00000
      3      -3.9092      2.00000
      4       1.8665      2.00000
      5       2.0007      2.00000
      6       2.9985      2.00000
      7       3.2677      2.00000
      8       4.0518      2.00000
      9       4.1621      2.00000
     10       9.0260      0.00000
     11       9.2291      0.00000
     12       9.9879      0.00000
     13      10.7067      0.00000
     14      12.2468      0.00000

 k-point    12 :       0.3333    0.3333    0.0000
  band No.  band energies     occupation 
      1      -5.5271      2.00000
      2      -4.2646      2.00000
      3      -4.2646      2.00000
      4       2.1204      2.00000
      5       2.1204      2.00000
      6       3.2612      2.00000
      7       3.2612      2.00000
      8       3.4087      2.00000
      9       3.4293      2.00000
     10       9.7075      0.00000
     11       9.7075      0.00000
     12       9.8870      0.00000
     13      11.6848      0.00000
     14      12.3864      0.00000

 k-point    13 :       0.0000    0.0000    0.2500
  band No.  band energies     occupation 
      1      -6.9665      2.00000
      2      -5.2197      2.00000
      3      -2.3504      2.00000
      4       3.2357      2.00000
      5       3.8549      2.00000
      6       4.1984      2.00000
      7       5.1499      2.00000
      8       5.4314      2.00000
      9       5.6357      2.00000
     10       7.2472      0.00000
     11       7.3048      0.00000
     12       7.8073      0.00000
     13      10.7275      0.00000
     14      12.0551      0.00000

 k-point    14 :       0.1111    0.0000    0.2500
  band No.  band energies     occupation 
      1      -6.8708      2.00000
      2      -5.1524      2.00000
      3      -2.4596      2.00000
      4       2.8585      2.00000
      5       3.7244      2.00000
      6       4.1281      2.00000
      7       4.7255      2.00000
      8       5.1886      2.00000
      9       5.4642      2.00000
     10       7.5299      0.00000
     11       7.7793      0.00000
     12       8.2571      0.00000
     13      10.8969      0.00000
     14      12.0486      0.00000

 k-point    15 :       0.2222    0.0000    0.2500
  band No.  band energies     occupation 
      1      -6.5984      2.00000
      2      -4.9532      2.00000
      3      -2.8363      2.00000
      4       2.4848      2.00000
      5       3.2688      2.00000
      6       3.6558      2.00000
      7       4.0455      2.00000
      8       4.7090      2.00000
      9       5.0966      2.00000
     10       8.1055      0.00000
     11       8.6439      0.00000
     12       9.0584      0.00000
     13      11.3180      0.00000
     14      11.7303      0.00000

 k-point    16 :       0.3333   -0.0000    0.2500
  band No.  band energies     occupation 
      1      -6.1963      2.00000
      2      -4.6766      2.00000
      3      -3.4154      2.00000
      4       2.1555      2.00000
      5       2.5590      2.00000
      6       3.2184      2.00000
      7       3.4394      2.00000
      8       4.7481      2.00000
      9       5.0114      2.00000
     10       8.1286      0.00000
     11       8.7326      0.00000
     12       9.8959      0.00000
     13      10.6234      0.00000
     14      12.2118      0.00000

 k-point    17 :       0.4444    0.0000    0.2500
  band No.  band energies     occupation 
      1      -5.7854      2.00000
      2      -4.6359      2.00000
      3      -3.7355      2.00000
      4       1.3514      2.00000
      5       2.2102      2.00000
      6       2.9465      2.00000
      7       3.9001      2.00000
      8       4.8124      2.00000
      9       4.9887      2.00000
     10       7.9661      0.00000
     11       8.6346      0.00000
     12       9.5801      0.00000
     13      10.0731      0.00000
     14      12.6755      0.00000

 k-point    18 :      -0.4444   -0.0000    0.2500
  band No.  band energies     occupation 
      1      -5.7135      2.00000
      2      -4.9035      2.00000
      3      -3.4311      2.00000
      4       0.9308      2.00000
      5       2.0346      2.00000
      6       2.9133      2.00000
      7       4.8140      2.00000
      8       4.9691      2.00000
      9       5.1147      2.00000
     10       7.7875      0.00000
     11       8.4205      0.00000
     12       8.7089      0.00000
     13       9.7629      0.00000
     14      13.3603      0.00000

 k-point    19 :      -0.3333    0.0000    0.2500
  band No.  band energies     occupation 
      1      -6.1436      2.00000
      2      -4.9355      2.00000
      3      -3.0054      2.00000
      4       1.1681      2.00000
      5       2.0944      2.00000
      6       3.0791      2.00000
      7       5.2001      2.00000
      8       5.3507      2.00000
      9       6.0246      2.00000
     10       7.4362      0.00000
     11       7.7901      0.00000
     12       8.1844      0.00000
     13       9.7140      0.00000
     14      13.5621      0.00000

 k-point    20 :      -0.2222   -0.0000    0.2500
  band No.  band energies     occupation 
      1      -6.5831      2.00000
      2      -5.0324      2.00000
      3      -2.6541      2.00000
      4       2.0335      2.00000
      5       2.4187      2.00000
      6       3.4107      2.00000
      7       5.5504      2.00000
      8       5.7158      2.00000
      9       6.2348      2.00000
     10       7.1481      0.00000
     11       7.6239      0.00000
     12       7.7543      0.00000
     13      10.0098      0.00000
     14      12.7787      0.00000

 k-point    21 :      -0.1111   -0.0000    0.2500
  band No.  band energies     occupation 
      1      -6.8690      2.00000
      2      -5.1618      2.00000
      3      -2.4319      2.00000
      4       2.8965      2.00000
      5       3.2712      2.00000
      6       3.8714      2.00000
      7       5.2294      2.00000
      8       5.7492      2.00000
      9       5.9553      2.00000
     10       7.0897      0.00000
     11       7.1210      0.00000
     12       8.2255      0.00000
     13      10.5591      0.00000
     14      12.0149      0.00000

 k-point    22 :       0.1111    0.1111    0.2500
  band No.  band energies     occupation 
      1      -6.6818      2.00000
      2      -5.0433      2.00000
      3      -2.6448      2.00000
      4       2.4960      2.00000
      5       2.7749      2.00000
      6       3.7172      2.00000
      7       4.7429      2.00000
      8       5.3587      2.00000
      9       5.6836      2.00000
     10       7.5636      0.00000
     11       8.1386      0.00000
     12       8.3067      0.00000
     13      10.6414      0.00000
     14      12.1497      0.00000

 k-point    23 :       0.2222    0.1111    0.2500
  band No.  band energies     occupation 
      1      -6.3386      2.00000
      2      -4.8140      2.00000
      3      -3.1272      2.00000
      4       2.1044      2.00000
      5       2.5378      2.00000
      6       3.3620      2.00000
      7       3.6739      2.00000
      8       4.7392      2.00000
      9       5.8555      2.00000
     10       7.6901      0.00000
     11       8.5179      0.00000
     12       9.5466      0.00000
     13      11.0904      0.00000
     14      11.4983      0.00000

 k-point    24 :       0.3333    0.1111    0.2500
  band No.  band energies     occupation 
      1      -5.9150      2.00000
      2      -4.5950      2.00000
      3      -3.6703      2.00000
      4       1.7404      2.00000
      5       1.9765      2.00000
      6       3.1117      2.00000
      7       3.6409      2.00000
      8       4.2567      2.00000
      9       5.9697      2.00000
     10       7.4834      0.00000
     11       8.9124      0.00000
     12       9.8262      0.00000
     13      10.5316      0.00000
     14      12.3800      0.00000

 k-point    25 :       0.4444    0.1111    0.2500
  band No.  band energies     occupation 
      1      -5.6193      2.00000
      2      -4.7622      2.00000
      3      -3.6891      2.00000
      4       1.1271      2.00000
      5       1.8607      2.00000
      6       3.0665      2.00000
      7       3.8478      2.00000
      8       4.4513      2.00000
      9       6.0642      2.00000
     10       7.3281      0.00000
     11       8.9445      0.00000
     12       9.1743      0.00000
     13      10.2350      0.00000
     14      13.1451      0.00000

 k-point    26 :      -0.4444    0.1111    0.2500
  band No.  band energies     occupation 
      1      -5.8538      2.00000
      2      -4.8684      2.00000
      3      -3.3252      2.00000
      4       1.0161      2.00000
      5       2.0192      2.00000
      6       3.0306      2.00000
      7       3.9257      2.00000
      8       5.4656      2.00000
      9       6.1333      2.00000
     10       7.2350      0.00000
     11       8.1187      0.00000
     12       8.9474      0.00000
     13      10.1383      0.00000
     14      13.1612      0.00000

 k-point    27 :      -0.3333    0.1111    0.2500
  band No.  band energies     occupation 
      1      -6.3189      2.00000
      2      -4.9141      2.00000
      3      -2.9449      2.00000
      4       1.5728      2.00000
      5       2.2953      2.00000
      6       3.2423      2.00000
      7       4.2361      2.00000
      8       5.8964      2.00000
      9       6.4392      2.00000
     10       7.0322      0.00000
     11       7.6359      0.00000
     12       8.7809      0.00000
     13      10.2296      0.00000
     14      12.3531      0.00000

 k-point    28 :       0.2222    0.2222    0.2500
  band No.  band energies     occupation 
      1      -5.9398      2.00000
      2      -4.7253      2.00000
      3      -3.4501      2.00000
      4       1.3540      2.00000
      5       2.2137      2.00000
      6       2.9303      2.00000
      7       3.3817      2.00000
      8       5.2141      2.00000
      9       6.2322      2.00000
     10       7.3451      0.00000
     11       8.3223      0.00000
     12       9.6427      0.00000
     13      11.0455      0.00000
     14      11.5959      0.00000

 k-point    29 :       0.3333    0.2222    0.2500
  band No.  band energies     occupation 
      1      -5.5734      2.00000
      2      -4.6238      2.00000
      3      -3.8556      2.00000
      4       1.3654      2.00000
      5       1.6797      2.00000
      6       2.5496      2.00000
      7       3.7847      2.00000
      8       4.6092      2.00000
      9       5.9499      2.00000
     10       7.6452      0.00000
     11       9.0254      0.00000
     12       9.5056      0.00000
     13      11.0696      0.00000
     14      12.3435      0.00000

 k-point    30 :       0.4444    0.2222    0.2500
  band No.  band energies     occupation 
      1      -5.5475      2.00000
      2      -4.7247      2.00000
      3      -3.7549      2.00000
      4       1.1448      2.00000
      5       1.8077      2.00000
      6       2.5763      2.00000
      7       3.6719      2.00000
      8       5.0459      2.00000
      9       5.7281      2.00000
     10       7.8932      0.00000
     11       8.5616      0.00000
     12       9.4820      0.00000
     13      10.9557      0.00000
     14      12.6313      0.00000

 k-point    31 :       0.3333    0.3333    0.2500
  band No.  band energies     occupation 
      1      -5.3955      2.00000
      2      -4.6363      2.00000
      3      -3.9776      2.00000
      4       1.3293      2.00000
      5       1.6991      2.00000
      6       2.0401      2.00000
      7       4.0850      2.00000
      8       4.9114      2.00000
      9       5.2219      2.00000
     10       8.5160      0.00000
     11       8.9696      0.00000
     12       9.0756      0.00000
     13      12.0715      0.00000
     14      12.3712      0.00000

 k-point    32 :       0.0000    0.0000    0.5000
  band No.  band energies     occupation 
      1      -6.2964      2.00000
      2      -6.2964      2.00000
      3      -1.5538      2.00000
      4       2.5969      2.00000
      5       4.0334      2.00000
      6       4.0334      2.00000
      7       5.4310      2.00000
      8       5.8568      2.00000
      9       5.8568      2.00000
     10       6.9182      0.00000
     11       7.0088      0.00000
     12       7.0088      0.00000
     13      10.3822      0.00000
     14      11.7647      0.00000

 k-point    33 :       0.1111    0.0000    0.5000
  band No.  band energies     occupation 
      1      -6.2175      2.00000
      2      -6.2029      2.00000
      3      -1.7564      2.00000
      4       2.6093      2.00000
      5       3.8424      2.00000
      6       3.9707      2.00000
      7       4.6480      2.00000
      8       5.2284      2.00000
      9       5.4868      2.00000
     10       7.2884      0.00000
     11       7.6142      0.00000
     12       8.1317      0.00000
     13      10.6555      0.00000
     14      11.4379      0.00000

 k-point    34 :       0.2222    0.0000    0.5000
  band No.  band energies     occupation 
      1      -6.0022      2.00000
      2      -5.9289      2.00000
      3      -2.2913      2.00000
      4       2.3292      2.00000
      5       3.0663      2.00000
      6       3.6927      2.00000
      7       4.4147      2.00000
      8       4.6441      2.00000
      9       5.0661      2.00000
     10       7.9265      0.00000
     11       8.4620      0.00000
     12       8.9395      0.00000
     13      10.7569      0.00000
     14      11.8628      0.00000

 k-point    35 :       0.3333   -0.0000    0.5000
  band No.  band energies     occupation 
      1      -5.7220      2.00000
      2      -5.5035      2.00000
      3      -2.9921      2.00000
      4       1.3557      2.00000
      5       2.9206      2.00000
      6       3.3819      2.00000
      7       4.1647      2.00000
      8       4.3622      2.00000
      9       5.3248      2.00000
     10       8.2487      0.00000
     11       8.5563      0.00000
     12       9.0798      0.00000
     13      10.7531      0.00000
     14      12.0774      0.00000

 k-point    36 :       0.4444    0.0000    0.5000
  band No.  band energies     occupation 
      1      -5.5108      2.00000
      2      -5.0458      2.00000
      3      -3.6193      2.00000
      4       0.7032      2.00000
      5       2.9732      2.00000
      6       3.1306      2.00000
      7       3.9458      2.00000
      8       4.1971      2.00000
      9       6.0986      2.00000
     10       7.3461      0.00000
     11       8.6851      0.00000
     12       9.3226      0.00000
     13      10.9075      0.00000
     14      11.5099      0.00000

 k-point    37 :       0.1111    0.1111    0.5000
  band No.  band energies     occupation 
      1      -6.0652      2.00000
      2      -6.0240      2.00000
      3      -2.1213      2.00000
      4       2.5199      2.00000
      5       3.3825      2.00000
      6       3.5262      2.00000
      7       4.3082      2.00000
      8       4.5363      2.00000
      9       5.9121      2.00000
     10       7.0985      0.00000
     11       8.6749      0.00000
     12       8.7486      0.00000
     13      11.1258      0.00000
     14      11.1514      0.00000

 k-point    38 :       0.2222    0.1111    0.5000
  band No.  band energies     occupation 
      1      -5.8018      2.00000
      2      -5.6853      2.00000
      3      -2.7234      2.00000
      4       1.8852      2.00000
      5       2.6893      2.00000
      6       2.9592      2.00000
      7       4.3184      2.00000
      8       4.7936      2.00000
      9       5.7194      2.00000
     10       7.5991      0.00000
     11       8.8230      0.00000
     12       9.0092      0.00000
     13      10.9317      0.00000
     14      11.9912      0.00000

 k-point    39 :       0.3333    0.1111    0.5000
  band No.  band energies     occupation 
      1      -5.5343      2.00000
      2      -5.2401      2.00000
      3      -3.3814      2.00000
      4       1.0295      2.00000
      5       2.4283      2.00000
      6       2.6130      2.00000
      7       4.4724      2.00000
      8       5.0196      2.00000
      9       5.7811      2.00000
     10       7.8362      0.00000
     11       8.2842      0.00000
     12       9.0411      0.00000
     13      10.9720      0.00000
     14      11.9806      0.00000

 k-point    40 :       0.4444    0.1111    0.5000
  band No.  band energies     occupation 
      1      -5.4160      2.00000
      2      -4.9490      2.00000
      3      -3.7526      2.00000
      4       0.6915      2.00000
      5       2.3547      2.00000
      6       2.4821      2.00000
      7       4.7052      2.00000
      8       4.7564      2.00000
      9       6.4208      2.00000
     10       7.0700      0.00000
     11       8.4635      0.00000
     12       8.9978      0.00000
     13      11.1512      0.00000
     14      11.5417      0.00000

 k-point    41 :       0.2222    0.2222    0.5000
  band No.  band energies     occupation 
      1      -5.5102      2.00000
      2      -5.3531      2.00000
      3      -3.2640      2.00000
      4       1.4813      2.00000
      5       1.8512      2.00000
      6       2.2635      2.00000
      7       4.8814      2.00000
      8       5.2382      2.00000
      9       6.3036      2.00000
     10       7.3179      0.00000
     11       8.5415      0.00000
     12       8.5747      0.00000
     13      11.3880      0.00000
     14      12.2565      0.00000

 k-point    42 :       0.3333    0.2222    0.5000
  band No.  band energies     occupation 
      1      -5.2782      2.00000
      2      -5.0315      2.00000
      3      -3.7211      2.00000
      4       0.9967      2.00000
      5       1.6159      2.00000
      6       1.8332      2.00000
      7       5.3788      2.00000
      8       5.7909      2.00000
      9       6.3673      2.00000
     10       7.3485      0.00000
     11       7.8270      0.00000
     12       8.2642      0.00000
     13      11.7722      0.00000
     14      12.3280      0.00000

 k-point    43 :       0.3333    0.3333    0.5000
  band No.  band energies     occupation 
      1      -5.0532      2.00000
      2      -5.0532      2.00000
      3      -3.8550      2.00000
      4       1.2573      2.00000
      5       1.2880      2.00000
      6       1.2880      2.00000
      7       5.8316      2.00000
      8       6.6967      1.41752
      9       6.6967      1.41751
     10       6.7088      1.16497
     11       7.5874      0.00000
     12       7.5874      0.00000
     13      12.7540      0.00000
     14      13.0447      0.00000


--------------------------------------------------------------------------------------------------------


 soft charge-density along one line, spin component           1
         0         1         2         3         4         5         6         7         8         9
 total charge-density along one line
 
 pseudopotential strength for first ion, spin component:           1
 51.389  55.913  -0.000  -0.000  -0.038  -0.000  -0.000  -0.055
 55.913  60.838  -0.000  -0.000  -0.042  -0.000  -0.000  -0.060
 -0.000  -0.000  12.664   0.008   0.000  18.254   0.011   0.000
 -0.000  -0.000   0.008  12.677   0.000   0.011  18.273   0.000
 -0.038  -0.042   0.000   0.000  12.677   0.000   0.000  18.272
 -0.000  -0.000  18.254   0.011   0.000  26.321   0.016   0.000
 -0.000  -0.000   0.011  18.273   0.000   0.016  26.348   0.000
 -0.055  -0.060   0.000   0.000  18.272   0.000   0.000  26.347
  0.000   0.000  -0.007   0.000  -0.000  -0.011   0.000  -0.000
  0.012   0.013   0.000  -0.000   0.000   0.000  -0.000   0.000
  0.006   0.007   0.000  -0.000   0.005   0.000  -0.000   0.007
  0.000   0.000   0.000  -0.007  -0.000   0.000  -0.010  -0.000
  0.010   0.011   0.000  -0.000  -0.007   0.000  -0.000  -0.011
 total augmentation occupancy for first ion, spin component:           1
 14.474 -10.729   0.000  -0.000   1.615   0.000   0.000  -0.392   0.000  -0.148  -0.108   0.000  -0.109
-10.729   9.234   0.000   0.000  -1.355   0.000   0.000   0.335   0.000   0.132   0.095   0.000   0.097
  0.000   0.000   2.624   0.158   0.000  -0.553  -0.144   0.000  -0.040   0.000   0.000  -0.041   0.000
 -0.000   0.000   0.158   2.920   0.000  -0.144  -0.818  -0.000  -0.040   0.000   0.000  -0.092   0.000
  1.615  -1.355   0.000   0.000   2.816   0.000  -0.000  -0.750  -0.000  -0.044  -0.012   0.000  -0.040
  0.000   0.000  -0.553  -0.144   0.000   0.206   0.051   0.000   0.009   0.000   0.000   0.014   0.000
  0.000   0.000  -0.144  -0.818  -0.000   0.051   0.303  -0.000   0.014   0.000   0.000   0.026  -0.000
 -0.392   0.335   0.000  -0.000  -0.750   0.000   0.000   0.269   0.000   0.013   0.003   0.000   0.009
  0.000  -0.000  -0.040  -0.040  -0.000   0.009   0.014   0.000   0.010   0.000  -0.000   0.012   0.000
 -0.148   0.132   0.000   0.000  -0.044   0.000   0.000   0.013   0.000   0.017   0.003   0.000   0.006
 -0.108   0.095   0.000   0.000  -0.012  -0.000  -0.000   0.003  -0.000   0.003   0.008   0.000  -0.000
  0.000   0.000  -0.041  -0.092   0.000   0.014   0.026   0.000   0.012   0.000  -0.000   0.029   0.000
 -0.109   0.097   0.000   0.000  -0.040   0.000   0.000   0.009   0.000   0.006  -0.000   0.000   0.011


------------------------ aborting loop because EDIFF is reached ----------------------------------------


    CHARGE:  cpu time    0.0334: real time    0.0336
    FORLOC:  cpu time    0.0013: real time    0.0014
    FORNL :  cpu time    0.1253: real time    0.1259
    STRESS:  cpu time    0.2719: real time    0.2731
    FORCOR:  cpu time    0.0220: real time    0.0221
    FORHAR:  cpu time    0.0054: real time    0.0054
    MIXING:  cpu time    0.0010: real time    0.0010
    OFIELD:  cpu time    0.0000: real time    0.0000

 ---------------------------------------------------------------------------------------------

         DFTD3 V3.0 Rev 1        
 Edisp (eV)   -1.37053

 E6    (eV) :    -0.7410
 E8    (eV) :    -0.6296
 % E8        : 45.94
    FORVDW:  cpu time    0.0079: real time    0.0080

  FORCE on cell =-STRESS in cart. coord.  units (eV):
  Direction    XX          YY          ZZ          XY          YZ          ZX
  --------------------------------------------------------------------------------------
  Alpha Z     2.42838     2.42838     2.42838
  Ewald    -241.23141  -241.23141  -209.37734    -0.00000    -0.00000     0.00000
  Hartree     9.95698     9.95698    17.40250     0.00000     0.00000    -0.00000
  E(xc)     -70.54225   -70.54225   -70.06884    -0.00000     0.00000    -0.00000
  Local    -106.91634  -106.91638  -138.20030    -0.00004     0.00000    -0.00000
  n-local   332.52733   333.25331   328.77318    -1.46448    -0.67013    -1.25567
  augment   -81.14486   -81.14482   -79.07544     0.00004    -0.00000     0.00000
  Kinetic   152.14523   159.73570   149.50983    -8.06826     0.01660     1.56926
  Fock        0.00000     0.00000     0.00000     0.00000     0.00000     0.00000
  vdW        -1.44396    -1.44396    -1.43967    -0.00000     0.00000    -0.00000
  -------------------------------------------------------------------------------------
  Total      -0.06268    -0.06268    -0.04770     0.00000    -0.00000     0.00000
  in kB      -1.04330    -1.04330    -0.79398     0.00000    -0.00000     0.00000
  external pressure =       -0.96 kB  Pullay stress =        0.00 kB


 VOLUME and BASIS-vectors are now :
 -----------------------------------------------------------------------------
  energy-cutoff  :      520.00
  volume of cell :       96.26
      direct lattice vectors                 reciprocal lattice vectors
     4.315587674  0.000000000 -0.000000000     0.231718152  0.133782537 -0.000000000
    -2.157793837  3.737408558  0.000000000     0.000000000  0.267565075  0.000000000
     0.000000000 -0.000000000  5.968015286     0.000000000  0.000000000  0.167559893

  length of vectors
     4.315587674  4.315587674  5.968015286     0.267565075  0.267565075  0.167559893


 FORCES acting on ions
    electron-ion (+dipol)            ewald-force                    non-local-force                 convergence-correction
 -----------------------------------------------------------------------------------------------
   -.741E+01 0.103E-04 -.718E-06   0.113E+02 0.157E-05 0.120E-05   -.391E+01 0.281E-16 0.555E-16   0.116E-02 0.926E-08 -.268E-09
   0.370E+01 -.641E+01 -.189E-04   -.565E+01 0.979E+01 -.840E-05   0.196E+01 -.339E+01 -.555E-16   -.581E-03 0.101E-02 0.618E-09
   0.370E+01 0.641E+01 0.193E-04   -.565E+01 -.979E+01 0.719E-05   0.196E+01 0.339E+01 0.000E+00   -.581E-03 -.101E-02 -.358E-09
 -----------------------------------------------------------------------------------------------
   0.258E-04 -.899E-05 -.334E-06   0.000E+00 0.000E+00 -.348E-17   0.222E-15 -.444E-15 0.000E+00   0.174E-08 0.425E-08 -.783E-11
 
 
 POSITION                                       TOTAL-FORCE (eV/Angst)
 -----------------------------------------------------------------------------------
      1.23461     -0.00000      1.98934        -0.009514      0.000000      0.000000
     -0.61730      1.06920      3.97868         0.004757     -0.008240     -0.000000
      1.54049      2.66821     -0.00000         0.004757      0.008240     -0.000000
 -----------------------------------------------------------------------------------
    total drift:                                0.000026     -0.000009     -0.000000


--------------------------------------------------------------------------------------------------------



  FREE ENERGIE OF THE ION-ELECTRON SYSTEM (eV)
  ---------------------------------------------------
  free  energy   TOTEN  =       -10.74115725 eV

  energy  without entropy=      -10.74068743  energy(sigma->0) =      -10.74092234
 
 d Force =-0.5345744E-04[-0.549E-04,-0.520E-04]  d Energy = 0.1238330E-03-0.177E-03
 d Force = 0.6560328E-01[ 0.652E-01, 0.660E-01]  d Ewald  = 0.6020059E+00-0.536E+00


--------------------------------------------------------------------------------------------------------


    POTLOK:  cpu time    0.0243: real time    0.0244


--------------------------------------------------------------------------------------------------------




--------------------------------------------------------------------------------------------------------


    WAVPRE:  cpu time    0.0048: real time    0.0069
    FEWALD:  cpu time    0.0001: real time    0.0001
    GENKIN:  cpu time    0.0070: real time    0.0070
    ORTHCH:  cpu time    0.0239: real time    0.0241
     LOOP+:  cpu time    2.4620: real time    2.4837


--------------------------------------- Iteration     11(   1)  ---------------------------------------


    POTLOK:  cpu time    0.0213: real time    0.0228
    SETDIJ:  cpu time    0.0030: real time    0.0030
     EDDAV:  cpu time    0.4450: real time    0.4481
       DOS:  cpu time    0.0008: real time    0.0008
    CHARGE:  cpu time    0.0336: real time    0.0337
    MIXING:  cpu time    0.0009: real time    0.0009
    --------------------------------------------
      LOOP:  cpu time    0.5046: real time    0.5093

 eigenvalue-minimisations  :  1204
 total energy-change (2. order) : 0.2804585E-02  (-0.8863774E-03)
 number of electron      18.0000002 magnetization 
 augmentation part       -3.6140687 magnetization 

 Broyden mixing:
  rms(total) = 0.66641E-02    rms(broyden)= 0.66640E-02
  rms(prec ) = 0.11048E-01
  weight for this iteration     100.00

 Free energy of the ion-electron system (eV)
  ---------------------------------------------------
  alpha Z        PSCENC =         2.43335299
  Ewald energy   TEWEN  =      -692.38274072
  -Hartree energ DENC   =       -37.29990947
  -exchange      EXHF   =         0.00000000
  -V(xc)+E(xc)   XCENC  =       -83.73266169
  PAW double counting   =      1597.76789000    -1482.41604389
  entropy T*S    EENTRO =        -0.00047156
  eigenvalues    EBANDS =        16.44844953
  atomic energy  EATOM  =       669.81430600
  Solvation  Ediel_sol  =         0.00000000
  ---------------------------------------------------
  free energy    TOTEN  =        -9.36782882 eV

  energy without entropy =       -9.36735725  energy(sigma->0) =       -9.36759303


--------------------------------------------------------------------------------------------------------




--------------------------------------- Iteration     11(   2)  ---------------------------------------


    POTLOK:  cpu time    0.0213: real time    0.0214
    SETDIJ:  cpu time    0.0029: real time    0.0029
     EDDAV:  cpu time    0.4830: real time    0.4865
       DOS:  cpu time    0.0008: real time    0.0008
    CHARGE:  cpu time    0.0333: real time    0.0334
    MIXING:  cpu time    0.0010: real time    0.0010
    --------------------------------------------
      LOOP:  cpu time    0.5422: real time    0.5460

 eigenvalue-minimisations  :  1360
 total energy-change (2. order) : 0.8325319E-04  (-0.3621037E-04)
 number of electron      18.0000002 magnetization 
 augmentation part       -3.6140035 magnetization 

 Broyden mixing:
  rms(total) = 0.35210E-02    rms(broyden)= 0.35210E-02
  rms(prec ) = 0.63708E-02
  weight for this iteration     100.00

 eigenvalues of (default mixing * dielectric matrix)
  average eigenvalue GAMMA=   1.0120
  1.0120

 Free energy of the ion-electron system (eV)
  ---------------------------------------------------
  alpha Z        PSCENC =         2.43335299
  Ewald energy   TEWEN  =      -692.38274072
  -Hartree energ DENC   =       -37.23771444
  -exchange      EXHF   =         0.00000000
  -V(xc)+E(xc)   XCENC  =       -83.73090156
  PAW double counting   =      1598.75192337    -1483.39950836
  entropy T*S    EENTRO =        -0.00047141
  eigenvalues    EBANDS =        16.38400856
  atomic energy  EATOM  =       669.81430600
  Solvation  Ediel_sol  =         0.00000000
  ---------------------------------------------------
  free energy    TOTEN  =        -9.36774556 eV

  energy without entropy =       -9.36727415  energy(sigma->0) =       -9.36750986


--------------------------------------------------------------------------------------------------------




--------------------------------------- Iteration     11(   3)  ---------------------------------------


    POTLOK:  cpu time    0.0211: real time    0.0213
    SETDIJ:  cpu time    0.0029: real time    0.0029
     EDDAV:  cpu time    0.4943: real time    0.4978
       DOS:  cpu time    0.0008: real time    0.0008
    CHARGE:  cpu time    0.0334: real time    0.0337
    MIXING:  cpu time    0.0011: real time    0.0011
    --------------------------------------------
      LOOP:  cpu time    0.5537: real time    0.5575

 eigenvalue-minimisations  :  1384
 total energy-change (2. order) : 0.5112343E-04  (-0.6821371E-05)
 number of electron      18.0000002 magnetization 
 augmentation part       -3.6151737 magnetization 

 Broyden mixing:
  rms(total) = 0.27174E-02    rms(broyden)= 0.27174E-02
  rms(prec ) = 0.32704E-02
  weight for this iteration     100.00

 eigenvalues of (default mixing * dielectric matrix)
  average eigenvalue GAMMA=   1.2434
  1.8531  0.6337

 Free energy of the ion-electron system (eV)
  ---------------------------------------------------
  alpha Z        PSCENC =         2.43335299
  Ewald energy   TEWEN  =      -692.38274072
  -Hartree energ DENC   =       -37.18542061
  -exchange      EXHF   =         0.00000000
  -V(xc)+E(xc)   XCENC  =       -83.72836710
  PAW double counting   =      1599.95620741    -1484.60375840
  entropy T*S    EENTRO =        -0.00047145
  eigenvalues    EBANDS =        16.32919743
  atomic energy  EATOM  =       669.81430600
  Solvation  Ediel_sol  =         0.00000000
  ---------------------------------------------------
  free energy    TOTEN  =        -9.36769444 eV

  energy without entropy =       -9.36722299  energy(sigma->0) =       -9.36745872


--------------------------------------------------------------------------------------------------------




--------------------------------------- Iteration     11(   4)  ---------------------------------------


    POTLOK:  cpu time    0.0217: real time    0.0220
    SETDIJ:  cpu time    0.0029: real time    0.0029
     EDDAV:  cpu time    0.3144: real time    0.3166
       DOS:  cpu time    0.0008: real time    0.0008
    --------------------------------------------
      LOOP:  cpu time    0.3398: real time    0.3423

 eigenvalue-minimisations  :   626
 total energy-change (2. order) : 0.6437472E-05  (-0.1581345E-05)
 number of electron      18.0000002 magnetization 
 augmentation part       -3.6151737 magnetization 

 Free energy of the ion-electron system (eV)
  ---------------------------------------------------
  alpha Z        PSCENC =         2.43335299
  Ewald energy   TEWEN  =      -692.38274072
  -Hartree energ DENC   =       -37.15928709
  -exchange      EXHF   =         0.00000000
  -V(xc)+E(xc)   XCENC  =       -83.72697151
  PAW double counting   =      1600.78643970    -1485.43449725
  entropy T*S    EENTRO =        -0.00047143
  eigenvalues    EBANDS =        16.30218130
  atomic energy  EATOM  =       669.81430600
  Solvation  Ediel_sol  =         0.00000000
  ---------------------------------------------------
  free energy    TOTEN  =        -9.36768800 eV

  energy without entropy =       -9.36721657  energy(sigma->0) =       -9.36745229


--------------------------------------------------------------------------------------------------------




 average (electrostatic) potential at core
  the test charge radii are     1.1897
  (the norm of the test charge is              1.0000)
       1 -88.3906       2 -88.3906       3 -88.3906
 
 
 
 E-fermi :   6.7440     XC(G=0):  -9.3591     alpha+bet :-11.1946


 k-point     1 :       0.0000    0.0000    0.0000
  band No.  band energies     occupation 
      1      -7.1791      2.00000
      2      -3.8045      2.00000
      3      -3.8045      2.00000
      4       3.7984      2.00000
      5       4.1453      2.00000
      6       4.1453      2.00000
      7       4.9340      2.00000
      8       4.9340      2.00000
      9       5.5391      2.00000
     10       7.7123      0.00000
     11       7.7123      0.00000
     12       8.4039      0.00000
     13      11.5855      0.00000
     14      11.5855      0.00000

 k-point     2 :       0.1111    0.0000    0.0000
  band No.  band energies     occupation 
      1      -7.0792      2.00000
      2      -3.8138      2.00000
      3      -3.7717      2.00000
      4       2.9684      2.00000
      5       3.5534      2.00000
      6       3.7922      2.00000
      7       5.3677      2.00000
      8       5.5509      2.00000
      9       6.1219      2.00000
     10       7.2683      0.00000
     11       7.5942      0.00000
     12       8.1656      0.00000
     13      11.2181      0.00000
     14      11.5678      0.00000

 k-point     3 :       0.2222    0.0000    0.0000
  band No.  band energies     occupation 
      1      -6.7885      2.00000
      2      -3.9061      2.00000
      3      -3.6788      2.00000
      4       2.0047      2.00000
      5       2.8176      2.00000
      6       3.3027      2.00000
      7       5.4172      2.00000
      8       5.7981      2.00000
      9       5.9523      2.00000
     10       7.3825      0.00000
     11       7.6742      0.00000
     12       8.2268      0.00000
     13      10.3314      0.00000
     14      11.9111      0.00000

 k-point     4 :       0.3333   -0.0000    0.0000
  band No.  band energies     occupation 
      1      -6.3433      2.00000
      2      -4.1962      2.00000
      3      -3.5571      2.00000
      4       1.5741      2.00000
      5       2.2439      2.00000
      6       2.9157      2.00000
      7       4.0951      2.00000
      8       5.9628      2.00000
      9       5.9995      2.00000
     10       7.2616      0.00000
     11       7.4791      0.00000
     12       9.4712      0.00000
     13       9.6214      0.00000
     14      12.8693      0.00000

 k-point     5 :       0.4444    0.0000    0.0000
  band No.  band energies     occupation 
      1      -5.8737      2.00000
      2      -4.6144      2.00000
      3      -3.4681      2.00000
      4       1.6071      2.00000
      5       2.0333      2.00000
      6       2.7105      2.00000
      7       3.0334      2.00000
      8       5.9222      2.00000
      9       6.0147      2.00000
     10       7.2395      0.00000
     11       7.3111      0.00000
     12       9.2275      0.00000
     13      10.3527      0.00000
     14      14.1792      0.00000

 k-point     6 :       0.1111    0.1111    0.0000
  band No.  band energies     occupation 
      1      -6.8837      2.00000
      2      -3.8417      2.00000
      3      -3.7329      2.00000
      4       2.3330      2.00000
      5       2.6433      2.00000
      6       3.9255      2.00000
      7       4.9346      2.00000
      8       6.0952      2.00000
      9       6.0959      2.00000
     10       7.2693      0.00000
     11       7.5676      0.00000
     12       8.2659      0.00000
     13      11.0284      0.00000
     14      11.0442      0.00000

 k-point     7 :       0.2222    0.1111    0.0000
  band No.  band energies     occupation 
      1      -6.5131      2.00000
      2      -3.9982      2.00000
      3      -3.6741      2.00000
      4       1.7437      2.00000
      5       2.1398      2.00000
      6       3.4716      2.00000
      7       4.7377      2.00000
      8       5.0597      2.00000
      9       5.7039      2.00000
     10       7.7569      0.00000
     11       8.2783      0.00000
     12       8.7520      0.00000
     13      10.2882      0.00000
     14      11.4971      0.00000

 k-point     8 :       0.3333    0.1111    0.0000
  band No.  band energies     occupation 
      1      -6.0341      2.00000
      2      -4.3647      2.00000
      3      -3.6073      2.00000
      4       1.6243      2.00000
      5       1.9734      2.00000
      6       2.9474      2.00000
      7       3.5701      2.00000
      8       5.0637      2.00000
      9       5.3686      2.00000
     10       7.9437      0.00000
     11       8.2166      0.00000
     12       9.7761      0.00000
     13       9.9284      0.00000
     14      12.6203      0.00000

 k-point     9 :       0.4444    0.1111    0.0000
  band No.  band energies     occupation 
      1      -5.7243      2.00000
      2      -4.6512      2.00000
      3      -3.5780      2.00000
      4       1.7075      2.00000
      5       2.0761      2.00000
      6       2.7630      2.00000
      7       2.8619      2.00000
      8       5.1510      2.00000
      9       5.1769      2.00000
     10       7.9986      0.00000
     11       8.1620      0.00000
     12       9.6317      0.00000
     13      10.4006      0.00000
     14      13.8696      0.00000

 k-point    10 :       0.2222    0.2222    0.0000
  band No.  band energies     occupation 
      1      -6.0978      2.00000
      2      -4.1434      2.00000
      3      -3.7948      2.00000
      4       1.7294      2.00000
      5       1.8169      2.00000
      6       3.4153      2.00000
      7       4.1080      2.00000
      8       4.4550      2.00000
      9       4.4945      2.00000
     10       8.8406      0.00000
     11       9.0124      0.00000
     12       9.1248      0.00000
     13      10.8747      0.00000
     14      11.1021      0.00000

 k-point    11 :       0.3333    0.2222    0.0000
  band No.  band energies     occupation 
      1      -5.6787      2.00000
      2      -4.4180      2.00000
      3      -3.8883      2.00000
      4       1.8849      2.00000
      5       2.0193      2.00000
      6       3.0154      2.00000
      7       3.2833      2.00000
      8       4.0691      2.00000
      9       4.1815      2.00000
     10       9.0590      0.00000
     11       9.2605      0.00000
     12      10.0216      0.00000
     13      10.7274      0.00000
     14      12.2729      0.00000

 k-point    12 :       0.3333    0.3333    0.0000
  band No.  band energies     occupation 
      1      -5.5004      2.00000
      2      -4.2465      2.00000
      3      -4.2465      2.00000
      4       2.1420      2.00000
      5       2.1420      2.00000
      6       3.2774      2.00000
      7       3.2774      2.00000
      8       3.4252      2.00000
      9       3.4403      2.00000
     10       9.7426      0.00000
     11       9.7426      0.00000
     12       9.9198      0.00000
     13      11.7137      0.00000
     14      12.4096      0.00000

 k-point    13 :       0.0000    0.0000    0.2500
  band No.  band energies     occupation 
      1      -6.9520      2.00000
      2      -5.2022      2.00000
      3      -2.3248      2.00000
      4       3.2611      2.00000
      5       3.8815      2.00000
      6       4.2227      2.00000
      7       5.1742      2.00000
      8       5.4625      2.00000
      9       5.6561      2.00000
     10       7.2731      0.00000
     11       7.3306      0.00000
     12       7.8365      0.00000
     13      10.7458      0.00000
     14      12.0781      0.00000

 k-point    14 :       0.1111    0.0000    0.2500
  band No.  band energies     occupation 
      1      -6.8560      2.00000
      2      -5.1344      2.00000
      3      -2.4342      2.00000
      4       2.8803      2.00000
      5       3.7521      2.00000
      6       4.1550      2.00000
      7       4.7461      2.00000
      8       5.2073      2.00000
      9       5.4918      2.00000
     10       7.5564      0.00000
     11       7.8092      0.00000
     12       8.2883      0.00000
     13      10.9169      0.00000
     14      12.0717      0.00000

 k-point    15 :       0.2222    0.0000    0.2500
  band No.  band energies     occupation 
      1      -6.5822      2.00000
      2      -4.9338      2.00000
      3      -2.8125      2.00000
      4       2.5056      2.00000
      5       3.2947      2.00000
      6       3.6773      2.00000
      7       4.0649      2.00000
      8       4.7311      2.00000
      9       5.1154      2.00000
     10       8.1373      0.00000
     11       8.6756      0.00000
     12       9.0916      0.00000
     13      11.3408      0.00000
     14      11.7529      0.00000

 k-point    16 :       0.3333   -0.0000    0.2500
  band No.  band energies     occupation 
      1      -6.1778      2.00000
      2      -4.6545      2.00000
      3      -3.3956      2.00000
      4       2.1763      2.00000
      5       2.5808      2.00000
      6       3.2369      2.00000
      7       3.4550      2.00000
      8       4.7713      2.00000
      9       5.0309      2.00000
     10       8.1598      0.00000
     11       8.7629      0.00000
     12       9.9298      0.00000
     13      10.6402      0.00000
     14      12.2351      0.00000

 k-point    17 :       0.4444    0.0000    0.2500
  band No.  band energies     occupation 
      1      -5.7636      2.00000
      2      -4.6135      2.00000
      3      -3.7177      2.00000
      4       1.3660      2.00000
      5       2.2309      2.00000
      6       2.9653      2.00000
      7       3.9165      2.00000
      8       4.8357      2.00000
      9       5.0098      2.00000
     10       7.9956      0.00000
     11       8.6639      0.00000
     12       9.6101      0.00000
     13      10.0879      0.00000
     14      12.7004      0.00000

 k-point    18 :      -0.4444   -0.0000    0.2500
  band No.  band energies     occupation 
      1      -5.6905      2.00000
      2      -4.8853      2.00000
      3      -3.4090      2.00000
      4       0.9428      2.00000
      5       2.0531      2.00000
      6       2.9321      2.00000
      7       4.8353      2.00000
      8       4.9921      2.00000
      9       5.1377      2.00000
     10       7.8156      0.00000
     11       8.4494      0.00000
     12       8.7355      0.00000
     13       9.7770      0.00000
     14      13.3890      0.00000

 k-point    19 :      -0.3333    0.0000    0.2500
  band No.  band energies     occupation 
      1      -6.1246      2.00000
      2      -4.9161      2.00000
      3      -2.9808      2.00000
      4       1.1812      2.00000
      5       2.1120      2.00000
      6       3.0983      2.00000
      7       5.2245      2.00000
      8       5.3782      2.00000
      9       6.0495      2.00000
     10       7.4636      0.00000
     11       7.8129      0.00000
     12       8.2129      0.00000
     13       9.7286      0.00000
     14      13.5948      0.00000

 k-point    20 :      -0.2222   -0.0000    0.2500
  band No.  band energies     occupation 
      1      -6.5668      2.00000
      2      -5.0136      2.00000
      3      -2.6286      2.00000
      4       2.0512      2.00000
      5       2.4374      2.00000
      6       3.4310      2.00000
      7       5.5779      2.00000
      8       5.7455      2.00000
      9       6.2625      2.00000
     10       7.1734      0.00000
     11       7.6501      0.00000
     12       7.7779      0.00000
     13      10.0262      0.00000
     14      12.8053      0.00000

 k-point    21 :      -0.1111   -0.0000    0.2500
  band No.  band energies     occupation 
      1      -6.8542      2.00000
      2      -5.1439      2.00000
      3      -2.4063      2.00000
      4       2.9189      2.00000
      5       3.2948      2.00000
      6       3.8939      2.00000
      7       5.2521      2.00000
      8       5.7798      2.00000
      9       5.9862      2.00000
     10       7.1127      0.00000
     11       7.1437      0.00000
     12       8.2561      0.00000
     13      10.5775      0.00000
     14      12.0364      0.00000

 k-point    22 :       0.1111    0.1111    0.2500
  band No.  band energies     occupation 
      1      -6.6661      2.00000
      2      -5.0246      2.00000
      3      -2.6198      2.00000
      4       2.5167      2.00000
      5       2.7949      2.00000
      6       3.7397      2.00000
      7       4.7665      2.00000
      8       5.3839      2.00000
      9       5.7078      2.00000
     10       7.5920      0.00000
     11       8.1678      0.00000
     12       8.3361      0.00000
     13      10.6608      0.00000
     14      12.1744      0.00000

 k-point    23 :       0.2222    0.1111    0.2500
  band No.  band energies     occupation 
      1      -6.3210      2.00000
      2      -4.7934      2.00000
      3      -3.1049      2.00000
      4       2.1240      2.00000
      5       2.5583      2.00000
      6       3.3791      2.00000
      7       3.6951      2.00000
      8       4.7596      2.00000
      9       5.8810      2.00000
     10       7.7176      0.00000
     11       8.5483      0.00000
     12       9.5809      0.00000
     13      11.1120      0.00000
     14      11.5190      0.00000

 k-point    24 :       0.3333    0.1111    0.2500
  band No.  band energies     occupation 
      1      -5.8945      2.00000
      2      -4.5717      2.00000
      3      -3.6524      2.00000
      4       1.7584      2.00000
      5       1.9937      2.00000
      6       3.1316      2.00000
      7       3.6598      2.00000
      8       4.2733      2.00000
      9       5.9971      2.00000
     10       7.5081      0.00000
     11       8.9445      0.00000
     12       9.8585      0.00000
     13      10.5493      0.00000
     14      12.4054      0.00000

 k-point    25 :       0.4444    0.1111    0.2500
  band No.  band energies     occupation 
      1      -5.5955      2.00000
      2      -4.7424      2.00000
      3      -3.6696      2.00000
      4       1.1404      2.00000
      5       1.8780      2.00000
      6       3.0883      2.00000
      7       3.8655      2.00000
      8       4.4690      2.00000
      9       6.0936      2.00000
     10       7.3509      0.00000
     11       8.9754      0.00000
     12       9.2027      0.00000
     13      10.2527      0.00000
     14      13.1725      0.00000

 k-point    26 :      -0.4444    0.1111    0.2500
  band No.  band energies     occupation 
      1      -5.8325      2.00000
      2      -4.8489      2.00000
      3      -3.3026      2.00000
      4       1.0286      2.00000
      5       2.0370      2.00000
      6       3.0503      2.00000
      7       3.9443      2.00000
      8       5.4888      2.00000
      9       6.1636      2.00000
     10       7.2578      0.00000
     11       8.1436      0.00000
     12       8.9777      0.00000
     13      10.1562      0.00000
     14      13.1900      0.00000

 k-point    27 :      -0.3333    0.1111    0.2500
  band No.  band energies     occupation 
      1      -6.3011      2.00000
      2      -4.8944      2.00000
      3      -2.9206      2.00000
      4       1.5883      2.00000
      5       2.3139      2.00000
      6       3.2619      2.00000
      7       4.2569      2.00000
      8       5.9263      2.00000
      9       6.4682      2.00000
     10       7.0562      0.00000
     11       7.6572      0.00000
     12       8.8126      0.00000
     13      10.2473      0.00000
     14      12.3778      0.00000

 k-point    28 :       0.2222    0.2222    0.2500
  band No.  band energies     occupation 
      1      -5.9195      2.00000
      2      -4.7039      2.00000
      3      -3.4293      2.00000
      4       1.3687      2.00000
      5       2.2341      2.00000
      6       2.9475      2.00000
      7       3.3983      2.00000
      8       5.2379      2.00000
      9       6.2591      2.00000
     10       7.3692      0.00000
     11       8.3506      0.00000
     12       9.6763      0.00000
     13      11.0675      0.00000
     14      11.6173      0.00000

 k-point    29 :       0.3333    0.2222    0.2500
  band No.  band energies     occupation 
      1      -5.5496      2.00000
      2      -4.6013      2.00000
      3      -3.8387      2.00000
      4       1.3810      2.00000
      5       1.6952      2.00000
      6       2.5662      2.00000
      7       3.8054      2.00000
      8       4.6277      2.00000
      9       5.9749      2.00000
     10       7.6708      0.00000
     11       9.0576      0.00000
     12       9.5365      0.00000
     13      11.0908      0.00000
     14      12.3695      0.00000

 k-point    30 :       0.4444    0.2222    0.2500
  band No.  band energies     occupation 
      1      -5.5231      2.00000
      2      -4.7044      2.00000
      3      -3.7362      2.00000
      4       1.1585      2.00000
      5       1.8246      2.00000
      6       2.5931      2.00000
      7       3.6910      2.00000
      8       5.0675      2.00000
      9       5.7514      2.00000
     10       7.9215      0.00000
     11       8.5886      0.00000
     12       9.5149      0.00000
     13      10.9765      0.00000
     14      12.6583      0.00000

 k-point    31 :       0.3333    0.3333    0.2500
  band No.  band energies     occupation 
      1      -5.3692      2.00000
      2      -4.6146      2.00000
      3      -3.9620      2.00000
      4       1.3455      2.00000
      5       1.7155      2.00000
      6       2.0522      2.00000
      7       4.1092      2.00000
      8       4.9320      2.00000
      9       5.2398      2.00000
     10       8.5485      0.00000
     11       8.9986      0.00000
     12       9.1046      0.00000
     13      12.0993      0.00000
     14      12.3986      0.00000

 k-point    32 :       0.0000    0.0000    0.5000
  band No.  band energies     occupation 
      1      -6.2809      2.00000
      2      -6.2809      2.00000
      3      -1.5240      2.00000
      4       2.6172      2.00000
      5       4.0576      2.00000
      6       4.0576      2.00000
      7       5.4594      2.00000
      8       5.8870      2.00000
      9       5.8870      2.00000
     10       6.9390      0.00000
     11       7.0328      0.00000
     12       7.0328      0.00000
     13      10.4006      0.00000
     14      11.7858      0.00000

 k-point    33 :       0.1111    0.0000    0.5000
  band No.  band energies     occupation 
      1      -6.2016      2.00000
      2      -6.1870      2.00000
      3      -1.7275      2.00000
      4       2.6306      2.00000
      5       3.8666      2.00000
      6       3.9957      2.00000
      7       4.6680      2.00000
      8       5.2531      2.00000
      9       5.5127      2.00000
     10       7.3134      0.00000
     11       7.6430      0.00000
     12       8.1628      0.00000
     13      10.6749      0.00000
     14      11.4583      0.00000

 k-point    34 :       0.2222    0.0000    0.5000
  band No.  band energies     occupation 
      1      -5.9849      2.00000
      2      -5.9117      2.00000
      3      -2.2653      2.00000
      4       2.3519      2.00000
      5       3.0849      2.00000
      6       3.7176      2.00000
      7       4.4348      2.00000
      8       4.6649      2.00000
      9       5.0866      2.00000
     10       7.9566      0.00000
     11       8.4938      0.00000
     12       8.9718      0.00000
     13      10.7737      0.00000
     14      11.8889      0.00000

 k-point    35 :       0.3333   -0.0000    0.5000
  band No.  band energies     occupation 
      1      -5.7028      2.00000
      2      -5.4838      2.00000
      3      -2.9702      2.00000
      4       1.3717      2.00000
      5       2.9422      2.00000
      6       3.4070      2.00000
      7       4.1839      2.00000
      8       4.3796      2.00000
      9       5.3446      2.00000
     10       8.2802      0.00000
     11       8.5846      0.00000
     12       9.1126      0.00000
     13      10.7695      0.00000
     14      12.1015      0.00000

 k-point    36 :       0.4444    0.0000    0.5000
  band No.  band energies     occupation 
      1      -5.4899      2.00000
      2      -5.0218      2.00000
      3      -3.6026      2.00000
      4       0.7156      2.00000
      5       2.9968      2.00000
      6       3.1555      2.00000
      7       3.9633      2.00000
      8       4.2127      2.00000
      9       6.1217      2.00000
     10       7.3687      0.00000
     11       8.7180      0.00000
     12       9.3552      0.00000
     13      10.9261      0.00000
     14      11.5266      0.00000

 k-point    37 :       0.1111    0.1111    0.5000
  band No.  band energies     occupation 
      1      -6.0483      2.00000
      2      -6.0072      2.00000
      3      -2.0943      2.00000
      4       2.5431      2.00000
      5       3.4040      2.00000
      6       3.5494      2.00000
      7       4.3259      2.00000
      8       4.5553      2.00000
      9       5.9427      2.00000
     10       7.1209      0.00000
     11       8.7086      0.00000
     12       8.7810      0.00000
     13      11.1465      0.00000
     14      11.1709      0.00000

 k-point    38 :       0.2222    0.1111    0.5000
  band No.  band energies     occupation 
      1      -5.7832      2.00000
      2      -5.6667      2.00000
      3      -2.6997      2.00000
      4       1.9049      2.00000
      5       2.7081      2.00000
      6       2.9795      2.00000
      7       4.3364      2.00000
      8       4.8148      2.00000
      9       5.7456      2.00000
     10       7.6264      0.00000
     11       8.8534      0.00000
     12       9.0416      0.00000
     13      10.9503      0.00000
     14      12.0160      0.00000

 k-point    39 :       0.3333    0.1111    0.5000
  band No.  band energies     occupation 
      1      -5.5136      2.00000
      2      -5.2182      2.00000
      3      -3.3621      2.00000
      4       1.0436      2.00000
      5       2.4473      2.00000
      6       2.6325      2.00000
      7       4.4921      2.00000
      8       5.0439      2.00000
      9       5.8026      2.00000
     10       7.8638      0.00000
     11       8.3123      0.00000
     12       9.0721      0.00000
     13      10.9905      0.00000
     14      12.0014      0.00000

 k-point    40 :       0.4444    0.1111    0.5000
  band No.  band energies     occupation 
      1      -5.3943      2.00000
      2      -4.9234      2.00000
      3      -3.7374      2.00000
      4       0.7036      2.00000
      5       2.3732      2.00000
      6       2.5015      2.00000
      7       4.7275      2.00000
      8       4.7778      2.00000
      9       6.4469      2.00000
     10       7.0899      0.00000
     11       8.4952      0.00000
     12       9.0276      0.00000
     13      11.1721      0.00000
     14      11.5576      0.00000

 k-point    41 :       0.2222    0.2222    0.5000
  band No.  band energies     occupation 
      1      -5.4894      2.00000
      2      -5.3324      2.00000
      3      -3.2435      2.00000
      4       1.4990      2.00000
      5       1.8659      2.00000
      6       2.2803      2.00000
      7       4.9026      2.00000
      8       5.2610      2.00000
      9       6.3342      2.00000
     10       7.3417      0.00000
     11       8.5686      0.00000
     12       8.6032      0.00000
     13      11.4105      0.00000
     14      12.2800      0.00000

 k-point    42 :       0.3333    0.2222    0.5000
  band No.  band energies     occupation 
      1      -5.2555      2.00000
      2      -5.0071      2.00000
      3      -3.7048      2.00000
      4       1.0101      2.00000
      5       1.6307      2.00000
      6       1.8489      2.00000
      7       5.4041      2.00000
      8       5.8175      2.00000
      9       6.3923      2.00000
     10       7.3752      0.00000
     11       7.8503      0.00000
     12       8.2893      0.00000
     13      11.7955      0.00000
     14      12.3497      0.00000

 k-point    43 :       0.3333    0.3333    0.5000
  band No.  band energies     occupation 
      1      -5.0284      2.00000
      2      -5.0284      2.00000
      3      -3.8402      2.00000
      4       1.2725      2.00000
      5       1.3008      2.00000
      6       1.3008      2.00000
      7       5.8621      2.00000
      8       6.7251      1.40591
      9       6.7251      1.40590
     10       6.7356      1.18819
     11       7.6059      0.00000
     12       7.6059      0.00000
     13      12.7838      0.00000
     14      13.0691      0.00000


--------------------------------------------------------------------------------------------------------


 soft charge-density along one line, spin component           1
         0         1         2         3         4         5         6         7         8         9
 total charge-density along one line
 
 pseudopotential strength for first ion, spin component:           1
 51.379  55.902  -0.000  -0.000  -0.038  -0.000  -0.000  -0.055
 55.902  60.827  -0.000  -0.000  -0.041  -0.000  -0.000  -0.060
 -0.000  -0.000  12.662   0.008   0.000  18.251   0.011   0.000
 -0.000  -0.000   0.008  12.676   0.000   0.011  18.270   0.000
 -0.038  -0.041   0.000   0.000  12.675   0.000   0.000  18.269
 -0.000  -0.000  18.251   0.011   0.000  26.317   0.016   0.000
 -0.000  -0.000   0.011  18.270   0.000   0.016  26.344   0.000
 -0.055  -0.060   0.000   0.000  18.269   0.000   0.000  26.342
  0.000   0.000  -0.007   0.000  -0.000  -0.011   0.000  -0.000
  0.012   0.013   0.000  -0.000   0.000   0.000  -0.000   0.000
  0.006   0.007   0.000  -0.000   0.005   0.000  -0.000   0.007
  0.000   0.000   0.000  -0.007  -0.000   0.000  -0.010  -0.000
  0.010   0.011   0.000  -0.000  -0.007   0.000  -0.000  -0.011
 total augmentation occupancy for first ion, spin component:           1
 14.523 -10.771   0.000   0.000   1.603   0.000   0.000  -0.388   0.000  -0.148  -0.108   0.000  -0.109
-10.771   9.271   0.000  -0.000  -1.345   0.000  -0.000   0.332   0.000   0.132   0.095   0.000   0.097
  0.000   0.000   2.628   0.157   0.000  -0.556  -0.143   0.000  -0.040   0.000   0.000  -0.041   0.000
  0.000  -0.000   0.157   2.923   0.000  -0.143  -0.819  -0.000  -0.039   0.000   0.000  -0.091   0.000
  1.603  -1.345   0.000   0.000   2.819   0.000  -0.000  -0.752  -0.000  -0.044  -0.012   0.000  -0.040
  0.000   0.000  -0.556  -0.143   0.000   0.207   0.051   0.000   0.009   0.000   0.000   0.014   0.000
  0.000   0.000  -0.143  -0.819  -0.000   0.051   0.304   0.000   0.014   0.000   0.000   0.026   0.000
 -0.388   0.332   0.000  -0.000  -0.752   0.000   0.000   0.270   0.000   0.013   0.003  -0.000   0.009
  0.000   0.000  -0.040  -0.039  -0.000   0.009   0.014   0.000   0.011   0.000  -0.000   0.012   0.000
 -0.148   0.132   0.000   0.000  -0.044   0.000   0.000   0.013   0.000   0.017   0.003   0.000   0.006
 -0.108   0.095   0.000   0.000  -0.012  -0.000  -0.000   0.003  -0.000   0.003   0.008  -0.000  -0.000
  0.000   0.000  -0.041  -0.091   0.000   0.014   0.026   0.000   0.012   0.000   0.000   0.029   0.000
 -0.109   0.097   0.000   0.000  -0.040   0.000   0.000   0.009   0.000   0.006  -0.000   0.000   0.011


------------------------ aborting loop because EDIFF is reached ----------------------------------------


    CHARGE:  cpu time    0.0336: real time    0.0338
    FORLOC:  cpu time    0.0013: real time    0.0014
    FORNL :  cpu time    0.1262: real time    0.1267
    STRESS:  cpu time    0.2728: real time    0.2736
    FORCOR:  cpu time    0.0223: real time    0.0224
    FORHAR:  cpu time    0.0055: real time    0.0055
    MIXING:  cpu time    0.0010: real time    0.0010
    OFIELD:  cpu time    0.0000: real time    0.0000

 ---------------------------------------------------------------------------------------------

         DFTD3 V3.0 Rev 1        
 Edisp (eV)   -1.37349

 E6    (eV) :    -0.7426
 E8    (eV) :    -0.6309
 % E8        : 45.94
    FORVDW:  cpu time    0.0073: real time    0.0074

  FORCE on cell =-STRESS in cart. coord.  units (eV):
  Direction    XX          YY          ZZ          XY          YZ          ZX
  --------------------------------------------------------------------------------------
  Alpha Z     2.43335     2.43335     2.43335
  Ewald    -241.36532  -241.36532  -209.65258    -0.00000    -0.00000     0.00000
  Hartree     9.92142     9.92142    17.31573     0.00000     0.00000    -0.00000
  E(xc)     -70.55245   -70.55245   -70.07955    -0.00000     0.00000    -0.00000
  Local    -106.76090  -106.76094  -137.87810    -0.00004     0.00000    -0.00000
  n-local   332.56499   333.28879   328.81544    -1.46911    -0.66741    -1.25390
  augment   -81.14737   -81.14733   -79.08220     0.00004    -0.00000    -0.00000
  Kinetic   152.15981   159.77927   149.57338    -8.09002     0.01486     1.57303
  Fock        0.00000     0.00000     0.00000     0.00000     0.00000     0.00000
  vdW        -1.44618    -1.44618    -1.44245    -0.00000     0.00000    -0.00000
  -------------------------------------------------------------------------------------
  Total      -0.02102    -0.02102     0.00302     0.00000     0.00000    -0.00000
  in kB      -0.35061    -0.35061     0.05037     0.00000     0.00000    -0.00000
  external pressure =       -0.22 kB  Pullay stress =        0.00 kB


 VOLUME and BASIS-vectors are now :
 -----------------------------------------------------------------------------
  energy-cutoff  :      520.00
  volume of cell :       96.06
      direct lattice vectors                 reciprocal lattice vectors
     4.311816084  0.000000000 -0.000000000     0.231920838  0.133899558 -0.000000000
    -2.155908042  3.734142266  0.000000000     0.000000000  0.267799117  0.000000000
     0.000000000 -0.000000000  5.966234278     0.000000000  0.000000000  0.167609912

  length of vectors
     4.311816084  4.311816084  5.966234278     0.267799117  0.267799117  0.167609912


 FORCES acting on ions
    electron-ion (+dipol)            ewald-force                    non-local-force                 convergence-correction
 -----------------------------------------------------------------------------------------------
   -.732E+01 0.103E-04 -.707E-06   0.112E+02 0.157E-05 0.119E-05   -.388E+01 0.385E-18 0.278E-16   0.118E-02 0.744E-08 -.218E-09
   0.366E+01 -.634E+01 -.189E-04   -.560E+01 0.969E+01 -.840E-05   0.194E+01 -.336E+01 -.555E-16   -.592E-03 0.103E-02 0.776E-09
   0.366E+01 0.634E+01 0.193E-04   -.560E+01 -.969E+01 0.720E-05   0.194E+01 0.336E+01 0.000E+00   -.592E-03 -.103E-02 -.565E-09
 -----------------------------------------------------------------------------------------------
   0.258E-04 -.901E-05 -.334E-06   0.000E+00 0.000E+00 -.348E-17   0.222E-15 0.444E-15 -.278E-16   0.139E-08 0.367E-08 -.676E-11
 
 
 POSITION                                       TOTAL-FORCE (eV/Angst)
 -----------------------------------------------------------------------------------
      1.23526     -0.00000      1.98874        -0.010115      0.000000      0.000000
     -0.61763      1.06977      3.97749         0.005057     -0.008760     -0.000000
      1.53828      2.66437     -0.00000         0.005057      0.008760     -0.000000
 -----------------------------------------------------------------------------------
    total drift:                                0.000026     -0.000009     -0.000000


--------------------------------------------------------------------------------------------------------



  FREE ENERGIE OF THE ION-ELECTRON SYSTEM (eV)
  ---------------------------------------------------
  free  energy   TOTEN  =       -10.74118132 eV

  energy  without entropy=      -10.74070989  energy(sigma->0) =      -10.74094560
 
 d Force =-0.5108836E-04[-0.527E-04,-0.495E-04]  d Energy = 0.2406811E-04-0.752E-04
 d Force = 0.5855329E-01[ 0.583E-01, 0.588E-01]  d Ewald  = 0.5430602E+00-0.485E+00


--------------------------------------------------------------------------------------------------------


    POTLOK:  cpu time    0.0243: real time    0.0244


--------------------------------------------------------------------------------------------------------




--------------------------------------------------------------------------------------------------------


    WAVPRE:  cpu time    0.1959: real time    0.2843
    FEWALD:  cpu time    0.0002: real time    0.0002
    GENKIN:  cpu time    0.0151: real time    0.0151
    ORTHCH:  cpu time    0.0243: real time    0.0244
     LOOP+:  cpu time    2.6824: real time    2.7898


--------------------------------------- Iteration     12(   1)  ---------------------------------------


    POTLOK:  cpu time    0.0236: real time    0.0249
    SETDIJ:  cpu time    0.0030: real time    0.0030
     EDDAV:  cpu time    0.4587: real time    0.4620
       DOS:  cpu time    0.0008: real time    0.0008
    CHARGE:  cpu time    0.0337: real time    0.0338
    MIXING:  cpu time    0.0010: real time    0.0010
    --------------------------------------------
      LOOP:  cpu time    0.5207: real time    0.5256

 eigenvalue-minimisations  :  1210
 total energy-change (2. order) :-0.5916665E-03  (-0.3631329E-04)
 number of electron      18.0000002 magnetization 
 augmentation part       -3.6163082 magnetization 

 Broyden mixing:
  rms(total) = 0.19212E-02    rms(broyden)= 0.19212E-02
  rms(prec ) = 0.26929E-02
  weight for this iteration     100.00

 Free energy of the ion-electron system (eV)
  ---------------------------------------------------
  alpha Z        PSCENC =         2.43236359
  Ewald energy   TEWEN  =      -692.27487486
  -Hartree energ DENC   =       -37.16044272
  -exchange      EXHF   =         0.00000000
  -V(xc)+E(xc)   XCENC  =       -83.72758373
  PAW double counting   =      1601.83758960    -1486.48690241
  entropy T*S    EENTRO =        -0.00047101
  eigenvalues    EBANDS =        16.19772944
  atomic energy  EATOM  =       669.81430600
  Solvation  Ediel_sol  =         0.00000000
  ---------------------------------------------------
  free energy    TOTEN  =        -9.36828611 eV

  energy without entropy =       -9.36781510  energy(sigma->0) =       -9.36805060


--------------------------------------------------------------------------------------------------------




--------------------------------------- Iteration     12(   2)  ---------------------------------------


    POTLOK:  cpu time    0.0216: real time    0.0218
    SETDIJ:  cpu time    0.0029: real time    0.0029
     EDDAV:  cpu time    0.3999: real time    0.4027
       DOS:  cpu time    0.0008: real time    0.0008
    --------------------------------------------
      LOOP:  cpu time    0.4252: real time    0.4281

 eigenvalue-minimisations  :   980
 total energy-change (2. order) : 0.4222754E-05  (-0.1603663E-05)
 number of electron      18.0000002 magnetization 
 augmentation part       -3.6163082 magnetization 

 Free energy of the ion-electron system (eV)
  ---------------------------------------------------
  alpha Z        PSCENC =         2.43236359
  Ewald energy   TEWEN  =      -692.27487486
  -Hartree energ DENC   =       -37.17332200
  -exchange      EXHF   =         0.00000000
  -V(xc)+E(xc)   XCENC  =       -83.72812974
  PAW double counting   =      1601.72881600    -1486.37835684
  entropy T*S    EENTRO =        -0.00047106
  eigenvalues    EBANDS =        16.21138704
  atomic energy  EATOM  =       669.81430600
  Solvation  Ediel_sol  =         0.00000000
  ---------------------------------------------------
  free energy    TOTEN  =        -9.36828188 eV

  energy without entropy =       -9.36781082  energy(sigma->0) =       -9.36804635


--------------------------------------------------------------------------------------------------------




 average (electrostatic) potential at core
  the test charge radii are     1.1897
  (the norm of the test charge is              1.0000)
       1 -88.3987       2 -88.3987       3 -88.3987
 
 
 
 E-fermi :   6.7376     XC(G=0):  -9.3576     alpha+bet :-11.1900


 k-point     1 :       0.0000    0.0000    0.0000
  band No.  band energies     occupation 
      1      -7.1830      2.00000
      2      -3.8100      2.00000
      3      -3.8100      2.00000
      4       3.7921      2.00000
      5       4.1384      2.00000
      6       4.1384      2.00000
      7       4.9287      2.00000
      8       4.9287      2.00000
      9       5.5349      2.00000
     10       7.7056      0.00000
     11       7.7056      0.00000
     12       8.3970      0.00000
     13      11.5805      0.00000
     14      11.5805      0.00000

 k-point     2 :       0.1111    0.0000    0.0000
  band No.  band energies     occupation 
      1      -7.0833      2.00000
      2      -3.8194      2.00000
      3      -3.7773      2.00000
      4       2.9633      2.00000
      5       3.5476      2.00000
      6       3.7866      2.00000
      7       5.3614      2.00000
      8       5.5453      2.00000
      9       6.1151      2.00000
     10       7.2625      0.00000
     11       7.5879      0.00000
     12       8.1593      0.00000
     13      11.2138      0.00000
     14      11.5628      0.00000

 k-point     3 :       0.2222    0.0000    0.0000
  band No.  band energies     occupation 
      1      -6.7929      2.00000
      2      -3.9118      2.00000
      3      -3.6846      2.00000
      4       2.0006      2.00000
      5       2.8127      2.00000
      6       3.2978      2.00000
      7       5.4113      2.00000
      8       5.7918      2.00000
      9       5.9455      2.00000
     10       7.3768      0.00000
     11       7.6678      0.00000
     12       8.2205      0.00000
     13      10.3279      0.00000
     14      11.9057      0.00000

 k-point     4 :       0.3333   -0.0000    0.0000
  band No.  band energies     occupation 
      1      -6.3482      2.00000
      2      -4.2017      2.00000
      3      -3.5633      2.00000
      4       1.5704      2.00000
      5       2.2398      2.00000
      6       2.9113      2.00000
      7       4.0906      2.00000
      8       5.9565      2.00000
      9       5.9922      2.00000
     10       7.2565      0.00000
     11       7.4736      0.00000
     12       9.4641      0.00000
     13       9.6179      0.00000
     14      12.8629      0.00000

 k-point     5 :       0.4444    0.0000    0.0000
  band No.  band energies     occupation 
      1      -5.8794      2.00000
      2      -4.6191      2.00000
      3      -3.4745      2.00000
      4       1.6031      2.00000
      5       2.0295      2.00000
      6       2.7066      2.00000
      7       3.0298      2.00000
      8       5.9152      2.00000
      9       6.0079      2.00000
     10       7.2345      0.00000
     11       7.3060      0.00000
     12       9.2247      0.00000
     13      10.3449      0.00000
     14      14.1715      0.00000

 k-point     6 :       0.1111    0.1111    0.0000
  band No.  band energies     occupation 
      1      -6.8879      2.00000
      2      -3.8475      2.00000
      3      -3.7385      2.00000
      4       2.3286      2.00000
      5       2.6389      2.00000
      6       3.9192      2.00000
      7       4.9298      2.00000
      8       6.0884      2.00000
      9       6.0891      2.00000
     10       7.2634      0.00000
     11       7.5620      0.00000
     12       8.2592      0.00000
     13      11.0241      0.00000
     14      11.0401      0.00000

 k-point     7 :       0.2222    0.1111    0.0000
  band No.  band energies     occupation 
      1      -6.5177      2.00000
      2      -4.0040      2.00000
      3      -3.6800      2.00000
      4       1.7400      2.00000
      5       2.1358      2.00000
      6       3.4663      2.00000
      7       4.7325      2.00000
      8       5.0545      2.00000
      9       5.6977      2.00000
     10       7.7507      0.00000
     11       8.2713      0.00000
     12       8.7451      0.00000
     13      10.2845      0.00000
     14      11.4923      0.00000

 k-point     8 :       0.3333    0.1111    0.0000
  band No.  band energies     occupation 
      1      -6.0394      2.00000
      2      -4.3699      2.00000
      3      -3.6135      2.00000
      4       1.6204      2.00000
      5       1.9696      2.00000
      6       2.9430      2.00000
      7       3.5660      2.00000
      8       5.0583      2.00000
      9       5.3628      2.00000
     10       7.9375      0.00000
     11       8.2101      0.00000
     12       9.7722      0.00000
     13       9.9212      0.00000
     14      12.6144      0.00000

 k-point     9 :       0.4444    0.1111    0.0000
  band No.  band energies     occupation 
      1      -5.7305      2.00000
      2      -4.6556      2.00000
      3      -3.5842      2.00000
      4       1.7034      2.00000
      5       2.0717      2.00000
      6       2.7599      2.00000
      7       2.8581      2.00000
      8       5.1457      2.00000
      9       5.1712      2.00000
     10       7.9922      0.00000
     11       8.1558      0.00000
     12       9.6284      0.00000
     13      10.3927      0.00000
     14      13.8622      0.00000

 k-point    10 :       0.2222    0.2222    0.0000
  band No.  band energies     occupation 
      1      -6.1031      2.00000
      2      -4.1491      2.00000
      3      -3.8005      2.00000
      4       1.7256      2.00000
      5       1.8132      2.00000
      6       3.4100      2.00000
      7       4.1036      2.00000
      8       4.4506      2.00000
      9       4.4897      2.00000
     10       8.8331      0.00000
     11       9.0051      0.00000
     12       9.1178      0.00000
     13      10.8700      0.00000
     14      11.0980      0.00000

 k-point    11 :       0.3333    0.2222    0.0000
  band No.  band energies     occupation 
      1      -5.6848      2.00000
      2      -4.4229      2.00000
      3      -3.8939      2.00000
      4       1.8806      2.00000
      5       2.0149      2.00000
      6       3.0114      2.00000
      7       3.2796      2.00000
      8       4.0649      2.00000
      9       4.1769      2.00000
     10       9.0516      0.00000
     11       9.2533      0.00000
     12      10.0139      0.00000
     13      10.7230      0.00000
     14      12.2674      0.00000

 k-point    12 :       0.3333    0.3333    0.0000
  band No.  band energies     occupation 
      1      -5.5070      2.00000
      2      -4.2515      2.00000
      3      -4.2515      2.00000
      4       2.1370      2.00000
      5       2.1370      2.00000
      6       3.2736      2.00000
      7       3.2736      2.00000
      8       3.4212      2.00000
      9       3.4375      2.00000
     10       9.7346      0.00000
     11       9.7346      0.00000
     12       9.9123      0.00000
     13      11.7077      0.00000
     14      12.4047      0.00000

 k-point    13 :       0.0000    0.0000    0.2500
  band No.  band energies     occupation 
      1      -6.9561      2.00000
      2      -5.2069      2.00000
      3      -2.3315      2.00000
      4       3.2551      2.00000
      5       3.8754      2.00000
      6       4.2170      2.00000
      7       5.1687      2.00000
      8       5.4554      2.00000
      9       5.6513      2.00000
     10       7.2672      0.00000
     11       7.3247      0.00000
     12       7.8298      0.00000
     13      10.7420      0.00000
     14      12.0734      0.00000

 k-point    14 :       0.1111    0.0000    0.2500
  band No.  band energies     occupation 
      1      -6.8601      2.00000
      2      -5.1393      2.00000
      3      -2.4408      2.00000
      4       2.8752      2.00000
      5       3.7458      2.00000
      6       4.1488      2.00000
      7       4.7412      2.00000
      8       5.2028      2.00000
      9       5.4856      2.00000
     10       7.5502      0.00000
     11       7.8024      0.00000
     12       8.2812      0.00000
     13      10.9127      0.00000
     14      12.0670      0.00000

 k-point    15 :       0.2222    0.0000    0.2500
  band No.  band energies     occupation 
      1      -6.5866      2.00000
      2      -4.9389      2.00000
      3      -2.8188      2.00000
      4       2.5008      2.00000
      5       3.2888      2.00000
      6       3.6723      2.00000
      7       4.0603      2.00000
      8       4.7259      2.00000
      9       5.1108      2.00000
     10       8.1301      0.00000
     11       8.6684      0.00000
     12       9.0840      0.00000
     13      11.3360      0.00000
     14      11.7481      0.00000

 k-point    16 :       0.3333   -0.0000    0.2500
  band No.  band energies     occupation 
      1      -6.1827      2.00000
      2      -4.6602      2.00000
      3      -3.4010      2.00000
      4       2.1715      2.00000
      5       2.5758      2.00000
      6       3.2325      2.00000
      7       3.4512      2.00000
      8       4.7659      2.00000
      9       5.0262      2.00000
     10       8.1528      0.00000
     11       8.7560      0.00000
     12       9.9220      0.00000
     13      10.6367      0.00000
     14      12.2302      0.00000

 k-point    17 :       0.4444    0.0000    0.2500
  band No.  band energies     occupation 
      1      -5.7692      2.00000
      2      -4.6194      2.00000
      3      -3.7227      2.00000
      4       1.3625      2.00000
      5       2.2261      2.00000
      6       2.9609      2.00000
      7       3.9126      2.00000
      8       4.8303      2.00000
      9       5.0048      2.00000
     10       7.9890      0.00000
     11       8.6572      0.00000
     12       9.6032      0.00000
     13      10.0847      0.00000
     14      12.6952      0.00000

 k-point    18 :      -0.4444   -0.0000    0.2500
  band No.  band energies     occupation 
      1      -5.6964      2.00000
      2      -4.8903      2.00000
      3      -3.4149      2.00000
      4       0.9399      2.00000
      5       2.0487      2.00000
      6       2.9277      2.00000
      7       4.8304      2.00000
      8       4.9868      2.00000
      9       5.1324      2.00000
     10       7.8093      0.00000
     11       8.4427      0.00000
     12       8.7293      0.00000
     13       9.7739      0.00000
     14      13.3830      0.00000

 k-point    19 :      -0.3333    0.0000    0.2500
  band No.  band energies     occupation 
      1      -6.1296      2.00000
      2      -4.9213      2.00000
      3      -2.9873      2.00000
      4       1.1781      2.00000
      5       2.1078      2.00000
      6       3.0938      2.00000
      7       5.2190      2.00000
      8       5.3720      2.00000
      9       6.0438      2.00000
     10       7.4573      0.00000
     11       7.8075      0.00000
     12       8.2062      0.00000
     13       9.7255      0.00000
     14      13.5879      0.00000

 k-point    20 :      -0.2222   -0.0000    0.2500
  band No.  band energies     occupation 
      1      -6.5712      2.00000
      2      -5.0186      2.00000
      3      -2.6353      2.00000
      4       2.0470      2.00000
      5       2.4330      2.00000
      6       3.4263      2.00000
      7       5.5717      2.00000
      8       5.7387      2.00000
      9       6.2561      2.00000
     10       7.1676      0.00000
     11       7.6439      0.00000
     12       7.7723      0.00000
     13      10.0228      0.00000
     14      12.7997      0.00000

 k-point    21 :      -0.1111   -0.0000    0.2500
  band No.  band energies     occupation 
      1      -6.8583      2.00000
      2      -5.1488      2.00000
      3      -2.4130      2.00000
      4       2.9136      2.00000
      5       3.2894      2.00000
      6       3.8886      2.00000
      7       5.2468      2.00000
      8       5.7729      2.00000
      9       5.9792      2.00000
     10       7.1073      0.00000
     11       7.1384      0.00000
     12       8.2492      0.00000
     13      10.5737      0.00000
     14      12.0320      0.00000

 k-point    22 :       0.1111    0.1111    0.2500
  band No.  band energies     occupation 
      1      -6.6704      2.00000
      2      -5.0296      2.00000
      3      -2.6264      2.00000
      4       2.5119      2.00000
      5       2.7902      2.00000
      6       3.7344      2.00000
      7       4.7611      2.00000
      8       5.3781      2.00000
      9       5.7021      2.00000
     10       7.5855      0.00000
     11       8.1611      0.00000
     12       8.3294      0.00000
     13      10.6568      0.00000
     14      12.1692      0.00000

 k-point    23 :       0.2222    0.1111    0.2500
  band No.  band energies     occupation 
      1      -6.3257      2.00000
      2      -4.7988      2.00000
      3      -3.1109      2.00000
      4       2.1195      2.00000
      5       2.5535      2.00000
      6       3.3751      2.00000
      7       3.6901      2.00000
      8       4.7548      2.00000
      9       5.8751      2.00000
     10       7.7114      0.00000
     11       8.5414      0.00000
     12       9.5731      0.00000
     13      11.1075      0.00000
     14      11.5147      0.00000

 k-point    24 :       0.3333    0.1111    0.2500
  band No.  band energies     occupation 
      1      -5.8999      2.00000
      2      -4.5777      2.00000
      3      -3.6574      2.00000
      4       1.7542      2.00000
      5       1.9897      2.00000
      6       3.1270      2.00000
      7       3.6553      2.00000
      8       4.2693      2.00000
      9       5.9908      2.00000
     10       7.5024      0.00000
     11       8.9372      0.00000
     12       9.8510      0.00000
     13      10.5455      0.00000
     14      12.4000      0.00000

 k-point    25 :       0.4444    0.1111    0.2500
  band No.  band energies     occupation 
      1      -5.6015      2.00000
      2      -4.7477      2.00000
      3      -3.6750      2.00000
      4       1.1372      2.00000
      5       1.8739      2.00000
      6       3.0832      2.00000
      7       3.8613      2.00000
      8       4.4648      2.00000
      9       6.0869      2.00000
     10       7.3456      0.00000
     11       8.9685      0.00000
     12       9.1962      0.00000
     13      10.2488      0.00000
     14      13.1668      0.00000

 k-point    26 :      -0.4444    0.1111    0.2500
  band No.  band energies     occupation 
      1      -5.8380      2.00000
      2      -4.8542      2.00000
      3      -3.3086      2.00000
      4       1.0256      2.00000
      5       2.0328      2.00000
      6       3.0457      2.00000
      7       3.9400      2.00000
      8       5.4835      2.00000
      9       6.1567      2.00000
     10       7.2524      0.00000
     11       8.1377      0.00000
     12       8.9710      0.00000
     13      10.1522      0.00000
     14      13.1840      0.00000

 k-point    27 :      -0.3333    0.1111    0.2500
  band No.  band energies     occupation 
      1      -6.3059      2.00000
      2      -4.8996      2.00000
      3      -2.9270      2.00000
      4       1.5846      2.00000
      5       2.3095      2.00000
      6       3.2573      2.00000
      7       4.2521      2.00000
      8       5.9195      2.00000
      9       6.4615      2.00000
     10       7.0506      0.00000
     11       7.6521      0.00000
     12       8.8054      0.00000
     13      10.2435      0.00000
     14      12.3726      0.00000

 k-point    28 :       0.2222    0.2222    0.2500
  band No.  band energies     occupation 
      1      -5.9248      2.00000
      2      -4.7096      2.00000
      3      -3.4349      2.00000
      4       1.3652      2.00000
      5       2.2294      2.00000
      6       2.9434      2.00000
      7       3.3943      2.00000
      8       5.2323      2.00000
      9       6.2530      2.00000
     10       7.3635      0.00000
     11       8.3441      0.00000
     12       9.6687      0.00000
     13      11.0628      0.00000
     14      11.6129      0.00000

 k-point    29 :       0.3333    0.2222    0.2500
  band No.  band energies     occupation 
      1      -5.5556      2.00000
      2      -4.6072      2.00000
      3      -3.8435      2.00000
      4       1.3774      2.00000
      5       1.6915      2.00000
      6       2.5622      2.00000
      7       3.8006      2.00000
      8       4.6233      2.00000
      9       5.9691      2.00000
     10       7.6648      0.00000
     11       9.0503      0.00000
     12       9.5294      0.00000
     13      11.0864      0.00000
     14      12.3641      0.00000

 k-point    30 :       0.4444    0.2222    0.2500
  band No.  band energies     occupation 
      1      -5.5293      2.00000
      2      -4.7098      2.00000
      3      -3.7414      2.00000
      4       1.1552      2.00000
      5       1.8206      2.00000
      6       2.5891      2.00000
      7       3.6866      2.00000
      8       5.0624      2.00000
      9       5.7459      2.00000
     10       7.9150      0.00000
     11       8.5823      0.00000
     12       9.5074      0.00000
     13      10.9721      0.00000
     14      12.6527      0.00000

 k-point    31 :       0.3333    0.3333    0.2500
  band No.  band energies     occupation 
      1      -5.3758      2.00000
      2      -4.6203      2.00000
      3      -3.9666      2.00000
      4       1.3418      2.00000
      5       1.7116      2.00000
      6       2.0492      2.00000
      7       4.1037      2.00000
      8       4.9271      2.00000
      9       5.2355      2.00000
     10       8.5411      0.00000
     11       8.9919      0.00000
     12       9.0979      0.00000
     13      12.0935      0.00000
     14      12.3929      0.00000

 k-point    32 :       0.0000    0.0000    0.5000
  band No.  band energies     occupation 
      1      -6.2852      2.00000
      2      -6.2852      2.00000
      3      -1.5317      2.00000
      4       2.6124      2.00000
      5       4.0520      2.00000
      6       4.0520      2.00000
      7       5.4530      2.00000
      8       5.8802      2.00000
      9       5.8802      2.00000
     10       6.9341      0.00000
     11       7.0272      0.00000
     12       7.0272      0.00000
     13      10.3968      0.00000
     14      11.7815      0.00000

 k-point    33 :       0.1111    0.0000    0.5000
  band No.  band energies     occupation 
      1      -6.2060      2.00000
      2      -6.1914      2.00000
      3      -1.7350      2.00000
      4       2.6256      2.00000
      5       3.8610      2.00000
      6       3.9900      2.00000
      7       4.6633      2.00000
      8       5.2475      2.00000
      9       5.5067      2.00000
     10       7.3077      0.00000
     11       7.6363      0.00000
     12       8.1557      0.00000
     13      10.6709      0.00000
     14      11.4541      0.00000

 k-point    34 :       0.2222    0.0000    0.5000
  band No.  band energies     occupation 
      1      -5.9896      2.00000
      2      -5.9164      2.00000
      3      -2.2721      2.00000
      4       2.3467      2.00000
      5       3.0805      2.00000
      6       3.7119      2.00000
      7       4.4300      2.00000
      8       4.6600      2.00000
      9       5.0817      2.00000
     10       7.9498      0.00000
     11       8.4865      0.00000
     12       8.9644      0.00000
     13      10.7702      0.00000
     14      11.8835      0.00000

 k-point    35 :       0.3333   -0.0000    0.5000
  band No.  band energies     occupation 
      1      -5.7079      2.00000
      2      -5.4890      2.00000
      3      -2.9761      2.00000
      4       1.3680      2.00000
      5       2.9371      2.00000
      6       3.4013      2.00000
      7       4.1794      2.00000
      8       4.3755      2.00000
      9       5.3399      2.00000
     10       8.2731      0.00000
     11       8.5781      0.00000
     12       9.1051      0.00000
     13      10.7660      0.00000
     14      12.0964      0.00000

 k-point    36 :       0.4444    0.0000    0.5000
  band No.  band energies     occupation 
      1      -5.4954      2.00000
      2      -5.0279      2.00000
      3      -3.6073      2.00000
      4       0.7126      2.00000
      5       2.9914      2.00000
      6       3.1498      2.00000
      7       3.9591      2.00000
      8       4.2089      2.00000
      9       6.1163      2.00000
     10       7.3634      0.00000
     11       8.7106      0.00000
     12       9.3478      0.00000
     13      10.9222      0.00000
     14      11.5230      0.00000

 k-point    37 :       0.1111    0.1111    0.5000
  band No.  band energies     occupation 
      1      -6.0529      2.00000
      2      -6.0118      2.00000
      3      -2.1014      2.00000
      4       2.5378      2.00000
      5       3.3990      2.00000
      6       3.5441      2.00000
      7       4.3217      2.00000
      8       4.5508      2.00000
      9       5.9358      2.00000
     10       7.1156      0.00000
     11       8.7010      0.00000
     12       8.7736      0.00000
     13      11.1422      0.00000
     14      11.1669      0.00000

 k-point    38 :       0.2222    0.1111    0.5000
  band No.  band energies     occupation 
      1      -5.7882      2.00000
      2      -5.6717      2.00000
      3      -2.7060      2.00000
      4       1.9003      2.00000
      5       2.7037      2.00000
      6       2.9748      2.00000
      7       4.3321      2.00000
      8       4.8098      2.00000
      9       5.7395      2.00000
     10       7.6201      0.00000
     11       8.8464      0.00000
     12       9.0342      0.00000
     13      10.9464      0.00000
     14      12.0108      0.00000

 k-point    39 :       0.3333    0.1111    0.5000
  band No.  band energies     occupation 
      1      -5.5190      2.00000
      2      -5.2239      2.00000
      3      -3.3674      2.00000
      4       1.0402      2.00000
      5       2.4429      2.00000
      6       2.6279      2.00000
      7       4.4875      2.00000
      8       5.0383      2.00000
      9       5.7975      2.00000
     10       7.8575      0.00000
     11       8.3058      0.00000
     12       9.0650      0.00000
     13      10.9867      0.00000
     14      11.9970      0.00000

 k-point    40 :       0.4444    0.1111    0.5000
  band No.  band energies     occupation 
      1      -5.4000      2.00000
      2      -4.9299      2.00000
      3      -3.7418      2.00000
      4       0.7007      2.00000
      5       2.3689      2.00000
      6       2.4970      2.00000
      7       4.7223      2.00000
      8       4.7728      2.00000
      9       6.4409      2.00000
     10       7.0852      0.00000
     11       8.4880      0.00000
     12       9.0207      0.00000
     13      11.1678      0.00000
     14      11.5542      0.00000

 k-point    41 :       0.2222    0.2222    0.5000
  band No.  band energies     occupation 
      1      -5.4948      2.00000
      2      -5.3378      2.00000
      3      -3.2491      2.00000
      4       1.4949      2.00000
      5       1.8624      2.00000
      6       2.2763      2.00000
      7       4.8976      2.00000
      8       5.2556      2.00000
      9       6.3272      2.00000
     10       7.3361      0.00000
     11       8.5623      0.00000
     12       8.5966      0.00000
     13      11.4059      0.00000
     14      12.2751      0.00000

 k-point    42 :       0.3333    0.2222    0.5000
  band No.  band energies     occupation 
      1      -5.2614      2.00000
      2      -5.0133      2.00000
      3      -3.7094      2.00000
      4       1.0069      2.00000
      5       1.6272      2.00000
      6       1.8452      2.00000
      7       5.3983      2.00000
      8       5.8114      2.00000
      9       6.3865      2.00000
     10       7.3690      0.00000
     11       7.8449      0.00000
     12       8.2834      0.00000
     13      11.7906      0.00000
     14      12.3452      0.00000

 k-point    43 :       0.3333    0.3333    0.5000
  band No.  band energies     occupation 
      1      -5.0347      2.00000
      2      -5.0347      2.00000
      3      -3.8446      2.00000
      4       1.2689      2.00000
      5       1.2978      2.00000
      6       1.2978      2.00000
      7       5.8552      2.00000
      8       6.7186      1.40873
      9       6.7186      1.40872
     10       6.7294      1.18255
     11       7.6014      0.00000
     12       7.6014      0.00000
     13      12.7776      0.00000
     14      13.0639      0.00000


--------------------------------------------------------------------------------------------------------


 soft charge-density along one line, spin component           1
         0         1         2         3         4         5         6         7         8         9
 total charge-density along one line
 
 pseudopotential strength for first ion, spin component:           1
 51.383  55.906  -0.000  -0.000  -0.038  -0.000  -0.000  -0.055
 55.906  60.831  -0.000  -0.000  -0.041  -0.000  -0.000  -0.060
 -0.000  -0.000  12.663   0.008   0.000  18.252   0.011   0.000
 -0.000  -0.000   0.008  12.676   0.000   0.011  18.271   0.000
 -0.038  -0.041   0.000   0.000  12.676   0.000   0.000  18.270
 -0.000  -0.000  18.252   0.011   0.000  26.318   0.016   0.000
 -0.000  -0.000   0.011  18.271   0.000   0.016  26.346   0.000
 -0.055  -0.060   0.000   0.000  18.270   0.000   0.000  26.344
  0.000   0.000  -0.007   0.000  -0.000  -0.011   0.000  -0.000
  0.012   0.013   0.000  -0.000   0.000   0.000  -0.000   0.000
  0.006   0.007   0.000  -0.000   0.005   0.000  -0.000   0.007
  0.000   0.000   0.000  -0.007  -0.000   0.000  -0.010  -0.000
  0.010   0.011   0.000  -0.000  -0.007   0.000  -0.000  -0.011
 total augmentation occupancy for first ion, spin component:           1
 14.560 -10.794   0.000   0.000   1.605   0.000   0.000  -0.387   0.000  -0.148  -0.108   0.000  -0.109
-10.794   9.281   0.000   0.000  -1.349   0.000   0.000   0.333  -0.000   0.132   0.095   0.000   0.097
  0.000   0.000   2.621   0.159   0.000  -0.553  -0.144   0.000  -0.040   0.000   0.000  -0.041   0.000
 -0.000  -0.000   0.159   2.917   0.000  -0.144  -0.816  -0.000  -0.040  -0.000   0.000  -0.092   0.000
  1.605  -1.349   0.000   0.000   2.816   0.000  -0.000  -0.750  -0.000  -0.044  -0.012   0.000  -0.040
  0.000   0.000  -0.553  -0.144   0.000   0.206   0.051   0.000   0.009   0.000   0.000   0.014   0.000
  0.000   0.000  -0.144  -0.816  -0.000   0.051   0.303   0.000   0.014   0.000   0.000   0.026   0.000
 -0.387   0.333   0.000  -0.000  -0.750   0.000   0.000   0.269   0.000   0.013   0.003   0.000   0.009
  0.000   0.000  -0.040  -0.040  -0.000   0.009   0.014   0.000   0.011   0.000  -0.000   0.012   0.000
 -0.148   0.132   0.000  -0.000  -0.044   0.000   0.000   0.013   0.000   0.017   0.003   0.000   0.006
 -0.108   0.095   0.000   0.000  -0.012   0.000   0.000   0.003  -0.000   0.003   0.008   0.000  -0.000
  0.000   0.000  -0.041  -0.092   0.000   0.014   0.026  -0.000   0.012   0.000  -0.000   0.029   0.000
 -0.109   0.097   0.000   0.000  -0.040   0.000   0.000   0.009   0.000   0.006  -0.000   0.000   0.011


------------------------ aborting loop because EDIFF is reached ----------------------------------------


    CHARGE:  cpu time    0.0344: real time    0.0346
    FORLOC:  cpu time    0.0014: real time    0.0014
    FORNL :  cpu time    0.1252: real time    0.1257
    STRESS:  cpu time    0.2745: real time    0.2754
    FORCOR:  cpu time    0.0224: real time    0.0224
    FORHAR:  cpu time    0.0054: real time    0.0054
    MIXING:  cpu time    0.0009: real time    0.0009
    OFIELD:  cpu time    0.0000: real time    0.0000

 ---------------------------------------------------------------------------------------------

         DFTD3 V3.0 Rev 1        
 Edisp (eV)   -1.37290

 E6    (eV) :    -0.7422
 E8    (eV) :    -0.6307
 % E8        : 45.94
    FORVDW:  cpu time    0.0077: real time    0.0077

  FORCE on cell =-STRESS in cart. coord.  units (eV):
  Direction    XX          YY          ZZ          XY          YZ          ZX
  --------------------------------------------------------------------------------------
  Alpha Z     2.43236     2.43236     2.43236
  Ewald    -241.33867  -241.33866  -209.59803    -0.00000    -0.00000     0.00000
  Hartree     9.93028     9.93028    17.33548     0.00000     0.00000    -0.00000
  E(xc)     -70.54517   -70.54517   -70.07286    -0.00000     0.00000    -0.00000
  Local    -106.79529  -106.79534  -137.95079    -0.00004     0.00000    -0.00000
  n-local   332.58579   333.31012   328.83867    -1.46815    -0.66801    -1.25439
  augment   -81.16341   -81.16337   -79.09718     0.00003    -0.00000     0.00000
  Kinetic   152.17214   159.78503   149.57471    -8.08474     0.01500     1.57189
  Fock        0.00000     0.00000     0.00000     0.00000     0.00000     0.00000
  vdW        -1.44574    -1.44574    -1.44190    -0.00000     0.00000    -0.00000
  -------------------------------------------------------------------------------------
  Total       0.00090     0.00090     0.02046     0.00000     0.00000     0.00000
  in kB       0.01495     0.01495     0.34115     0.00000     0.00000     0.00000
  external pressure =        0.12 kB  Pullay stress =        0.00 kB


 VOLUME and BASIS-vectors are now :
 -----------------------------------------------------------------------------
  energy-cutoff  :      520.00
  volume of cell :       96.10
      direct lattice vectors                 reciprocal lattice vectors
     4.312565112  0.000000000 -0.000000000     0.231880557  0.133876302 -0.000000000
    -2.156282556  3.734790943  0.000000000     0.000000000  0.267752604  0.000000000
     0.000000000 -0.000000000  5.966587982     0.000000000  0.000000000  0.167599976

  length of vectors
     4.312565112  4.312565112  5.966587982     0.267752604  0.267752604  0.167599976


 FORCES acting on ions
    electron-ion (+dipol)            ewald-force                    non-local-force                 convergence-correction
 -----------------------------------------------------------------------------------------------
   -.734E+01 0.103E-04 -.709E-06   0.112E+02 0.157E-05 0.120E-05   -.389E+01 0.384E-18 -.278E-16   0.139E-02 -.148E-07 0.426E-09
   0.367E+01 -.635E+01 -.189E-04   -.561E+01 0.971E+01 -.840E-05   0.194E+01 -.337E+01 0.555E-16   -.693E-03 0.120E-02 0.162E-09
   0.367E+01 0.635E+01 0.193E-04   -.561E+01 -.971E+01 0.720E-05   0.194E+01 0.337E+01 0.000E+00   -.693E-03 -.120E-02 -.585E-09
 -----------------------------------------------------------------------------------------------
   0.258E-04 -.901E-05 -.334E-06   0.888E-15 0.000E+00 -.348E-17   0.888E-15 0.000E+00 0.278E-16   -.294E-08 -.456E-08 0.367E-11
 
 
 POSITION                                       TOTAL-FORCE (eV/Angst)
 -----------------------------------------------------------------------------------
      1.23513     -0.00000      1.98886        -0.010087      0.000000      0.000000
     -0.61757      1.06966      3.97773         0.005044     -0.008736     -0.000000
      1.53872      2.66514     -0.00000         0.005044      0.008736     -0.000000
 -----------------------------------------------------------------------------------
    total drift:                                0.000026     -0.000009     -0.000000


--------------------------------------------------------------------------------------------------------



  FREE ENERGIE OF THE ION-ELECTRON SYSTEM (eV)
  ---------------------------------------------------
  free  energy   TOTEN  =       -10.74118687 eV

  energy  without entropy=      -10.74071581  energy(sigma->0) =      -10.74095134
 
 d Force = 0.1045305E-04[ 0.104E-04, 0.105E-04]  d Energy = 0.5551227E-05 0.490E-05
 d Force =-0.1159407E-01[-0.116E-01,-0.116E-01]  d Ewald  =-0.1078659E+00 0.963E-01


--------------------------------------------------------------------------------------------------------


    POTLOK:  cpu time    0.0243: real time    0.0243


--------------------------------------------------------------------------------------------------------




--------------------------------------------------------------------------------------------------------


    WAVPRE:  cpu time    0.0048: real time    0.0073
    FEWALD:  cpu time    0.0002: real time    0.0002
    GENKIN:  cpu time    0.0071: real time    0.0072
    ORTHCH:  cpu time    0.0247: real time    0.0248
     LOOP+:  cpu time    1.4905: real time    1.5055


--------------------------------------- Iteration     13(   1)  ---------------------------------------


    POTLOK:  cpu time    0.0235: real time    0.0250
    SETDIJ:  cpu time    0.0028: real time    0.0029
     EDDAV:  cpu time    0.4595: real time    0.4627
       DOS:  cpu time    0.0008: real time    0.0008
    CHARGE:  cpu time    0.0343: real time    0.0346
    MIXING:  cpu time    0.0009: real time    0.0009
    --------------------------------------------
      LOOP:  cpu time    0.5219: real time    0.5268

 eigenvalue-minimisations  :  1204
 total energy-change (2. order) :-0.1197765E-02  (-0.1299261E-03)
 number of electron      18.0000003 magnetization 
 augmentation part       -3.6166044 magnetization 

 Broyden mixing:
  rms(total) = 0.26103E-02    rms(broyden)= 0.26103E-02
  rms(prec ) = 0.44337E-02
  weight for this iteration     100.00

 Free energy of the ion-electron system (eV)
  ---------------------------------------------------
  alpha Z        PSCENC =         2.43036902
  Ewald energy   TEWEN  =      -692.05725078
  -Hartree energ DENC   =       -37.19533333
  -exchange      EXHF   =         0.00000000
  -V(xc)+E(xc)   XCENC  =       -83.73126921
  PAW double counting   =      1601.50725066    -1486.15688894
  entropy T*S    EENTRO =        -0.00047034
  eigenvalues    EBANDS =        16.01980305
  atomic energy  EATOM  =       669.81430600
  Solvation  Ediel_sol  =         0.00000000
  ---------------------------------------------------
  free energy    TOTEN  =        -9.36948387 eV

  energy without entropy =       -9.36901353  energy(sigma->0) =       -9.36924870


--------------------------------------------------------------------------------------------------------




--------------------------------------- Iteration     13(   2)  ---------------------------------------


    POTLOK:  cpu time    0.0211: real time    0.0213
    SETDIJ:  cpu time    0.0029: real time    0.0029
     EDDAV:  cpu time    0.4972: real time    0.5008
       DOS:  cpu time    0.0008: real time    0.0008
    CHARGE:  cpu time    0.0340: real time    0.0343
    MIXING:  cpu time    0.0010: real time    0.0010
    --------------------------------------------
      LOOP:  cpu time    0.5570: real time    0.5610

 eigenvalue-minimisations  :  1372
 total energy-change (2. order) : 0.1412168E-04  (-0.5685208E-05)
 number of electron      18.0000003 magnetization 
 augmentation part       -3.6165998 magnetization 

 Broyden mixing:
  rms(total) = 0.13982E-02    rms(broyden)= 0.13982E-02
  rms(prec ) = 0.25673E-02
  weight for this iteration     100.00

 eigenvalues of (default mixing * dielectric matrix)
  average eigenvalue GAMMA=   1.0709
  1.0709

 Free energy of the ion-electron system (eV)
  ---------------------------------------------------
  alpha Z        PSCENC =         2.43036902
  Ewald energy   TEWEN  =      -692.05725078
  -Hartree energ DENC   =       -37.22033613
  -exchange      EXHF   =         0.00000000
  -V(xc)+E(xc)   XCENC  =       -83.73210665
  PAW double counting   =      1601.11609263    -1485.76584754
  entropy T*S    EENTRO =        -0.00047044
  eigenvalues    EBANDS =        16.04577414
  atomic energy  EATOM  =       669.81430600
  Solvation  Ediel_sol  =         0.00000000
  ---------------------------------------------------
  free energy    TOTEN  =        -9.36946975 eV

  energy without entropy =       -9.36899931  energy(sigma->0) =       -9.36923453


--------------------------------------------------------------------------------------------------------




--------------------------------------- Iteration     13(   3)  ---------------------------------------


    POTLOK:  cpu time    0.0210: real time    0.0212
    SETDIJ:  cpu time    0.0029: real time    0.0029
     EDDAV:  cpu time    0.3086: real time    0.3108
       DOS:  cpu time    0.0008: real time    0.0008
    --------------------------------------------
      LOOP:  cpu time    0.3333: real time    0.3357

 eigenvalue-minimisations  :   614
 total energy-change (2. order) : 0.9935784E-05  (-0.1166386E-05)
 number of electron      18.0000003 magnetization 
 augmentation part       -3.6165998 magnetization 

 Free energy of the ion-electron system (eV)
  ---------------------------------------------------
  alpha Z        PSCENC =         2.43036902
  Ewald energy   TEWEN  =      -692.05725078
  -Hartree energ DENC   =       -37.24274453
  -exchange      EXHF   =         0.00000000
  -V(xc)+E(xc)   XCENC  =       -83.73329633
  PAW double counting   =      1600.58615504    -1485.23580874
  entropy T*S    EENTRO =        -0.00047043
  eigenvalues    EBANDS =        16.06928092
  atomic energy  EATOM  =       669.81430600
  Solvation  Ediel_sol  =         0.00000000
  ---------------------------------------------------
  free energy    TOTEN  =        -9.36945981 eV

  energy without entropy =       -9.36898938  energy(sigma->0) =       -9.36922460


--------------------------------------------------------------------------------------------------------




 average (electrostatic) potential at core
  the test charge radii are     1.1897
  (the norm of the test charge is              1.0000)
       1 -88.4064       2 -88.4064       3 -88.4064
 
 
 
 E-fermi :   6.7268     XC(G=0):  -9.3537     alpha+bet :-11.1809


 k-point     1 :       0.0000    0.0000    0.0000
  band No.  band energies     occupation 
      1      -7.1883      2.00000
      2      -3.8178      2.00000
      3      -3.8178      2.00000
      4       3.7814      2.00000
      5       4.1268      2.00000
      6       4.1268      2.00000
      7       4.9200      2.00000
      8       4.9200      2.00000
      9       5.5283      2.00000
     10       7.6943      0.00000
     11       7.6943      0.00000
     12       8.3853      0.00000
     13      11.5709      0.00000
     14      11.5709      0.00000

 k-point     2 :       0.1111    0.0000    0.0000
  band No.  band energies     occupation 
      1      -7.0887      2.00000
      2      -3.8273      2.00000
      3      -3.7852      2.00000
      4       2.9548      2.00000
      5       3.5379      2.00000
      6       3.7773      2.00000
      7       5.3510      2.00000
      8       5.5361      2.00000
      9       6.1036      2.00000
     10       7.2530      0.00000
     11       7.5771      0.00000
     12       8.1486      0.00000
     13      11.2055      0.00000
     14      11.5533      0.00000

 k-point     3 :       0.2222    0.0000    0.0000
  band No.  band energies     occupation 
      1      -6.7988      2.00000
      2      -3.9199      2.00000
      3      -3.6929      2.00000
      4       1.9941      2.00000
      5       2.8048      2.00000
      6       3.2898      2.00000
      7       5.4014      2.00000
      8       5.7813      2.00000
      9       5.9341      2.00000
     10       7.3673      0.00000
     11       7.6572      0.00000
     12       8.2103      0.00000
     13      10.3211      0.00000
     14      11.8952      0.00000

 k-point     4 :       0.3333   -0.0000    0.0000
  band No.  band energies     occupation 
      1      -6.3551      2.00000
      2      -4.2095      2.00000
      3      -3.5720      2.00000
      4       1.5645      2.00000
      5       2.2333      2.00000
      6       2.9040      2.00000
      7       4.0831      2.00000
      8       5.9457      2.00000
      9       5.9796      2.00000
     10       7.2481      0.00000
     11       7.4646      0.00000
     12       9.4524      0.00000
     13       9.6113      0.00000
     14      12.8507      0.00000

 k-point     5 :       0.4444    0.0000    0.0000
  band No.  band energies     occupation 
      1      -5.8880      2.00000
      2      -4.6253      2.00000
      3      -3.4837      2.00000
      4       1.5965      2.00000
      5       2.0233      2.00000
      6       2.7003      2.00000
      7       3.0241      2.00000
      8       5.9030      2.00000
      9       5.9964      2.00000
     10       7.2266      0.00000
     11       7.2977      0.00000
     12       9.2191      0.00000
     13      10.3318      0.00000
     14      14.1571      0.00000

 k-point     6 :       0.1111    0.1111    0.0000
  band No.  band energies     occupation 
      1      -6.8937      2.00000
      2      -3.8557      2.00000
      3      -3.7466      2.00000
      4       2.3212      2.00000
      5       2.6318      2.00000
      6       3.9087      2.00000
      7       4.9220      2.00000
      8       6.0767      2.00000
      9       6.0772      2.00000
     10       7.2536      0.00000
     11       7.5530      0.00000
     12       8.2478      0.00000
     13      11.0157      0.00000
     14      11.0323      0.00000

 k-point     7 :       0.2222    0.1111    0.0000
  band No.  band energies     occupation 
      1      -6.5242      2.00000
      2      -4.0122      2.00000
      3      -3.6883      2.00000
      4       1.7339      2.00000
      5       2.1294      2.00000
      6       3.4576      2.00000
      7       4.7239      2.00000
      8       5.0460      2.00000
      9       5.6872      2.00000
     10       7.7407      0.00000
     11       8.2595      0.00000
     12       8.7337      0.00000
     13      10.2775      0.00000
     14      11.4831      0.00000

 k-point     8 :       0.3333    0.1111    0.0000
  band No.  band energies     occupation 
      1      -6.0472      2.00000
      2      -4.3771      2.00000
      3      -3.6222      2.00000
      4       1.6142      2.00000
      5       1.9636      2.00000
      6       2.9359      2.00000
      7       3.5595      2.00000
      8       5.0495      2.00000
      9       5.3530      2.00000
     10       7.9270      0.00000
     11       8.1992      0.00000
     12       9.7649      0.00000
     13       9.9093      0.00000
     14      12.6032      0.00000

 k-point     9 :       0.4444    0.1111    0.0000
  band No.  band energies     occupation 
      1      -5.7397      2.00000
      2      -4.6614      2.00000
      3      -3.5931      2.00000
      4       1.6966      2.00000
      5       2.0645      2.00000
      6       2.7551      2.00000
      7       2.8520      2.00000
      8       5.1368      2.00000
      9       5.1616      2.00000
     10       7.9814      0.00000
     11       8.1455      0.00000
     12       9.6220      0.00000
     13      10.3795      0.00000
     14      13.8482      0.00000

 k-point    10 :       0.2222    0.2222    0.0000
  band No.  band energies     occupation 
      1      -6.1106      2.00000
      2      -4.1572      2.00000
      3      -3.8085      2.00000
      4       1.7195      2.00000
      5       1.8071      2.00000
      6       3.4011      2.00000
      7       4.0966      2.00000
      8       4.4433      2.00000
      9       4.4817      2.00000
     10       8.8202      0.00000
     11       8.9930      0.00000
     12       9.1062      0.00000
     13      10.8610      0.00000
     14      11.0902      0.00000

 k-point    11 :       0.3333    0.2222    0.0000
  band No.  band energies     occupation 
      1      -5.6940      2.00000
      2      -4.4296      2.00000
      3      -3.9018      2.00000
      4       1.8735      2.00000
      5       2.0078      2.00000
      6       3.0049      2.00000
      7       3.2736      2.00000
      8       4.0583      2.00000
      9       4.1695      2.00000
     10       9.0388      0.00000
     11       9.2412      0.00000
     12      10.0008      0.00000
     13      10.7147      0.00000
     14      12.2570      0.00000

 k-point    12 :       0.3333    0.3333    0.0000
  band No.  band energies     occupation 
      1      -5.5172      2.00000
      2      -4.2582      2.00000
      3      -4.2582      2.00000
      4       2.1287      2.00000
      5       2.1287      2.00000
      6       3.2673      2.00000
      7       3.2673      2.00000
      8       3.4149      2.00000
      9       3.4334      2.00000
     10       9.7210      0.00000
     11       9.7210      0.00000
     12       9.8996      0.00000
     13      11.6962      0.00000
     14      12.3954      0.00000

 k-point    13 :       0.0000    0.0000    0.2500
  band No.  band energies     occupation 
      1      -6.9614      2.00000
      2      -5.2135      2.00000
      3      -2.3412      2.00000
      4       3.2453      2.00000
      5       3.8651      2.00000
      6       4.2077      2.00000
      7       5.1593      2.00000
      8       5.4433      2.00000
      9       5.6434      2.00000
     10       7.2572      0.00000
     11       7.3148      0.00000
     12       7.8185      0.00000
     13      10.7347      0.00000
     14      12.0643      0.00000

 k-point    14 :       0.1111    0.0000    0.2500
  band No.  band energies     occupation 
      1      -6.8656      2.00000
      2      -5.1460      2.00000
      3      -2.4504      2.00000
      4       2.8668      2.00000
      5       3.7351      2.00000
      6       4.1384      2.00000
      7       4.7333      2.00000
      8       5.1956      2.00000
      9       5.4749      2.00000
     10       7.5400      0.00000
     11       7.7908      0.00000
     12       8.2691      0.00000
     13      10.9048      0.00000
     14      12.0578      0.00000

 k-point    15 :       0.2222    0.0000    0.2500
  band No.  band energies     occupation 
      1      -6.5926      2.00000
      2      -4.9462      2.00000
      3      -2.8278      2.00000
      4       2.4928      2.00000
      5       3.2788      2.00000
      6       3.6640      2.00000
      7       4.0528      2.00000
      8       4.7174      2.00000
      9       5.1037      2.00000
     10       8.1178      0.00000
     11       8.6561      0.00000
     12       9.0711      0.00000
     13      11.3269      0.00000
     14      11.7391      0.00000

 k-point    16 :       0.3333   -0.0000    0.2500
  band No.  band energies     occupation 
      1      -6.1896      2.00000
      2      -4.6686      2.00000
      3      -3.4084      2.00000
      4       2.1635      2.00000
      5       2.5674      2.00000
      6       3.2254      2.00000
      7       3.4452      2.00000
      8       4.7570      2.00000
      9       5.0188      2.00000
     10       8.1407      0.00000
     11       8.7443      0.00000
     12       9.9089      0.00000
     13      10.6299      0.00000
     14      12.2209      0.00000

 k-point    17 :       0.4444    0.0000    0.2500
  band No.  band energies     occupation 
      1      -5.7774      2.00000
      2      -4.6278      2.00000
      3      -3.7293      2.00000
      4       1.3569      2.00000
      5       2.2181      2.00000
      6       2.9536      2.00000
      7       3.9063      2.00000
      8       4.8213      2.00000
      9       4.9967      2.00000
     10       7.9775      0.00000
     11       8.6459      0.00000
     12       9.5916      0.00000
     13      10.0788      0.00000
     14      12.6853      0.00000

 k-point    18 :      -0.4444   -0.0000    0.2500
  band No.  band energies     occupation 
      1      -5.7051      2.00000
      2      -4.8971      2.00000
      3      -3.4232      2.00000
      4       0.9353      2.00000
      5       2.0416      2.00000
      6       2.9205      2.00000
      7       4.8221      2.00000
      8       4.9779      2.00000
      9       5.1235      2.00000
     10       7.7984      0.00000
     11       8.4316      0.00000
     12       8.7191      0.00000
     13       9.7683      0.00000
     14      13.3716      0.00000

 k-point    19 :      -0.3333    0.0000    0.2500
  band No.  band energies     occupation 
      1      -6.1367      2.00000
      2      -4.9286      2.00000
      3      -2.9966      2.00000
      4       1.1730      2.00000
      5       2.1011      2.00000
      6       3.0864      2.00000
      7       5.2095      2.00000
      8       5.3613      2.00000
      9       6.0342      2.00000
     10       7.4467      0.00000
     11       7.7988      0.00000
     12       8.1952      0.00000
     13       9.7196      0.00000
     14      13.5749      0.00000

 k-point    20 :      -0.2222   -0.0000    0.2500
  band No.  band energies     occupation 
      1      -6.5773      2.00000
      2      -5.0257      2.00000
      3      -2.6449      2.00000
      4       2.0402      2.00000
      5       2.4258      2.00000
      6       3.4185      2.00000
      7       5.5610      2.00000
      8       5.7272      2.00000
      9       6.2454      2.00000
     10       7.1578      0.00000
     11       7.6339      0.00000
     12       7.7633      0.00000
     13      10.0162      0.00000
     14      12.7892      0.00000

 k-point    21 :      -0.1111   -0.0000    0.2500
  band No.  band energies     occupation 
      1      -6.8638      2.00000
      2      -5.1555      2.00000
      3      -2.4227      2.00000
      4       2.9050      2.00000
      5       3.2802      2.00000
      6       3.8800      2.00000
      7       5.2380      2.00000
      8       5.7610      2.00000
      9       5.9672      2.00000
     10       7.0984      0.00000
     11       7.1296      0.00000
     12       8.2373      0.00000
     13      10.5663      0.00000
     14      12.0235      0.00000

 k-point    22 :       0.1111    0.1111    0.2500
  band No.  band energies     occupation 
      1      -6.6763      2.00000
      2      -5.0366      2.00000
      3      -2.6358      2.00000
      4       2.5039      2.00000
      5       2.7825      2.00000
      6       3.7258      2.00000
      7       4.7520      2.00000
      8       5.3684      2.00000
      9       5.6928      2.00000
     10       7.5745      0.00000
     11       8.1499      0.00000
     12       8.3180      0.00000
     13      10.6490      0.00000
     14      12.1594      0.00000

 k-point    23 :       0.2222    0.1111    0.2500
  band No.  band energies     occupation 
      1      -6.3323      2.00000
      2      -4.8066      2.00000
      3      -3.1193      2.00000
      4       2.1119      2.00000
      5       2.5456      2.00000
      6       3.3685      2.00000
      7       3.6819      2.00000
      8       4.7470      2.00000
      9       5.8652      2.00000
     10       7.7007      0.00000
     11       8.5296      0.00000
     12       9.5598      0.00000
     13      11.0988      0.00000
     14      11.5064      0.00000

 k-point    24 :       0.3333    0.1111    0.2500
  band No.  band energies     occupation 
      1      -5.9076      2.00000
      2      -4.5866      2.00000
      3      -3.6641      2.00000
      4       1.7473      2.00000
      5       1.9831      2.00000
      6       3.1193      2.00000
      7       3.6480      2.00000
      8       4.2629      2.00000
      9       5.9802      2.00000
     10       7.4929      0.00000
     11       8.9248      0.00000
     12       9.8386      0.00000
     13      10.5384      0.00000
     14      12.3899      0.00000

 k-point    25 :       0.4444    0.1111    0.2500
  band No.  band energies     occupation 
      1      -5.6105      2.00000
      2      -4.7551      2.00000
      3      -3.6823      2.00000
      4       1.1321      2.00000
      5       1.8673      2.00000
      6       3.0748      2.00000
      7       3.8545      2.00000
      8       4.4580      2.00000
      9       6.0755      2.00000
     10       7.3368      0.00000
     11       8.9564      0.00000
     12       9.1852      0.00000
     13      10.2418      0.00000
     14      13.1559      0.00000

 k-point    26 :      -0.4444    0.1111    0.2500
  band No.  band energies     occupation 
      1      -5.8460      2.00000
      2      -4.8614      2.00000
      3      -3.3172      2.00000
      4       1.0208      2.00000
      5       2.0259      2.00000
      6       3.0381      2.00000
      7       3.9328      2.00000
      8       5.4745      2.00000
      9       6.1449      2.00000
     10       7.2437      0.00000
     11       8.1281      0.00000
     12       8.9592      0.00000
     13      10.1451      0.00000
     14      13.1725      0.00000

 k-point    27 :      -0.3333    0.1111    0.2500
  band No.  band energies     occupation 
      1      -6.3125      2.00000
      2      -4.9070      2.00000
      3      -2.9362      2.00000
      4       1.5787      2.00000
      5       2.3024      2.00000
      6       3.2498      2.00000
      7       4.2440      2.00000
      8       5.9079      2.00000
      9       6.4503      2.00000
     10       7.0414      0.00000
     11       7.6439      0.00000
     12       8.7931      0.00000
     13      10.2364      0.00000
     14      12.3628      0.00000

 k-point    28 :       0.2222    0.2222    0.2500
  band No.  band energies     occupation 
      1      -5.9325      2.00000
      2      -4.7176      2.00000
      3      -3.4427      2.00000
      4       1.3596      2.00000
      5       2.2215      2.00000
      6       2.9368      2.00000
      7       3.3880      2.00000
      8       5.2231      2.00000
      9       6.2425      2.00000
     10       7.3543      0.00000
     11       8.3331      0.00000
     12       9.6556      0.00000
     13      11.0541      0.00000
     14      11.6043      0.00000

 k-point    29 :       0.3333    0.2222    0.2500
  band No.  band energies     occupation 
      1      -5.5647      2.00000
      2      -4.6157      2.00000
      3      -3.8498      2.00000
      4       1.3713      2.00000
      5       1.6856      2.00000
      6       2.5559      2.00000
      7       3.7926      2.00000
      8       4.6162      2.00000
      9       5.9595      2.00000
     10       7.6549      0.00000
     11       9.0378      0.00000
     12       9.5175      0.00000
     13      11.0779      0.00000
     14      12.3537      0.00000

 k-point    30 :       0.4444    0.2222    0.2500
  band No.  band energies     occupation 
      1      -5.5385      2.00000
      2      -4.7175      2.00000
      3      -3.7484      2.00000
      4       1.1500      2.00000
      5       1.8141      2.00000
      6       2.5826      2.00000
      7       3.6792      2.00000
      8       5.0541      2.00000
      9       5.7370      2.00000
     10       7.9040      0.00000
     11       8.5719      0.00000
     12       9.4947      0.00000
     13      10.9638      0.00000
     14      12.6419      0.00000

 k-point    31 :       0.3333    0.3333    0.2500
  band No.  band energies     occupation 
      1      -5.3858      2.00000
      2      -4.6285      2.00000
      3      -3.9723      2.00000
      4       1.3355      2.00000
      5       1.7053      2.00000
      6       2.0445      2.00000
      7       4.0943      2.00000
      8       4.9192      2.00000
      9       5.2286      2.00000
     10       8.5285      0.00000
     11       8.9807      0.00000
     12       9.0867      0.00000
     13      12.0824      0.00000
     14      12.3820      0.00000

 k-point    32 :       0.0000    0.0000    0.5000
  band No.  band energies     occupation 
      1      -6.2909      2.00000
      2      -6.2909      2.00000
      3      -1.5430      2.00000
      4       2.6046      2.00000
      5       4.0427      2.00000
      6       4.0427      2.00000
      7       5.4420      2.00000
      8       5.8684      2.00000
      9       5.8684      2.00000
     10       6.9261      0.00000
     11       7.0179      0.00000
     12       7.0179      0.00000
     13      10.3895      0.00000
     14      11.7731      0.00000

 k-point    33 :       0.1111    0.0000    0.5000
  band No.  band energies     occupation 
      1      -6.2119      2.00000
      2      -6.1973      2.00000
      3      -1.7460      2.00000
      4       2.6174      2.00000
      5       3.8517      2.00000
      6       3.9803      2.00000
      7       4.6556      2.00000
      8       5.2379      2.00000
      9       5.4967      2.00000
     10       7.2980      0.00000
     11       7.6252      0.00000
     12       8.1436      0.00000
     13      10.6632      0.00000
     14      11.4460      0.00000

 k-point    34 :       0.2222    0.0000    0.5000
  band No.  band energies     occupation 
      1      -5.9960      2.00000
      2      -5.9228      2.00000
      3      -2.2820      2.00000
      4       2.3379      2.00000
      5       3.0733      2.00000
      6       3.7022      2.00000
      7       4.4223      2.00000
      8       4.6521      2.00000
      9       5.0738      2.00000
     10       7.9381      0.00000
     11       8.4742      0.00000
     12       8.9519      0.00000
     13      10.7635      0.00000
     14      11.8731      0.00000

 k-point    35 :       0.3333   -0.0000    0.5000
  band No.  band energies     occupation 
      1      -5.7151      2.00000
      2      -5.4964      2.00000
      3      -2.9843      2.00000
      4       1.3618      2.00000
      5       2.9288      2.00000
      6       3.3915      2.00000
      7       4.1720      2.00000
      8       4.3688      2.00000
      9       5.3322      2.00000
     10       8.2609      0.00000
     11       8.5672      0.00000
     12       9.0924      0.00000
     13      10.7594      0.00000
     14      12.0868      0.00000

 k-point    36 :       0.4444    0.0000    0.5000
  band No.  band energies     occupation 
      1      -5.5033      2.00000
      2      -5.0370      2.00000
      3      -3.6135      2.00000
      4       0.7079      2.00000
      5       2.9823      2.00000
      6       3.1402      2.00000
      7       3.9524      2.00000
      8       4.2030      2.00000
      9       6.1074      2.00000
     10       7.3547      0.00000
     11       8.6979      0.00000
     12       9.3352      0.00000
     13      10.9147      0.00000
     14      11.5164      0.00000

 k-point    37 :       0.1111    0.1111    0.5000
  band No.  band energies     occupation 
      1      -6.0592      2.00000
      2      -6.0180      2.00000
      3      -2.1116      2.00000
      4       2.5289      2.00000
      5       3.3907      2.00000
      6       3.5351      2.00000
      7       4.3149      2.00000
      8       4.5435      2.00000
      9       5.9239      2.00000
     10       7.1070      0.00000
     11       8.6879      0.00000
     12       8.7611      0.00000
     13      11.1340      0.00000
     14      11.1590      0.00000

 k-point    38 :       0.2222    0.1111    0.5000
  band No.  band energies     occupation 
      1      -5.7952      2.00000
      2      -5.6786      2.00000
      3      -2.7149      2.00000
      4       1.8927      2.00000
      5       2.6964      2.00000
      6       2.9669      2.00000
      7       4.3252      2.00000
      8       4.8016      2.00000
      9       5.7294      2.00000
     10       7.6096      0.00000
     11       8.8347      0.00000
     12       9.0217      0.00000
     13      10.9390      0.00000
     14      12.0010      0.00000

 k-point    39 :       0.3333    0.1111    0.5000
  band No.  band energies     occupation 
      1      -5.5268      2.00000
      2      -5.2321      2.00000
      3      -3.3747      2.00000
      4       1.0348      2.00000
      5       2.4355      2.00000
      6       2.6205      2.00000
      7       4.4799      2.00000
      8       5.0289      2.00000
      9       5.7892      2.00000
     10       7.8468      0.00000
     11       8.2950      0.00000
     12       9.0530      0.00000
     13      10.9792      0.00000
     14      11.9887      0.00000

 k-point    40 :       0.4444    0.1111    0.5000
  band No.  band energies     occupation 
      1      -5.4081      2.00000
      2      -4.9396      2.00000
      3      -3.7474      2.00000
      4       0.6961      2.00000
      5       2.3617      2.00000
      6       2.4895      2.00000
      7       4.7137      2.00000
      8       4.7646      2.00000
      9       6.4308      2.00000
     10       7.0776      0.00000
     11       8.4758      0.00000
     12       9.0093      0.00000
     13      11.1594      0.00000
     14      11.5479      0.00000

 k-point    41 :       0.2222    0.2222    0.5000
  band No.  band energies     occupation 
      1      -5.5027      2.00000
      2      -5.3456      2.00000
      3      -3.2568      2.00000
      4       1.4881      2.00000
      5       1.8567      2.00000
      6       2.2699      2.00000
      7       4.8895      2.00000
      8       5.2469      2.00000
      9       6.3154      2.00000
     10       7.3270      0.00000
     11       8.5519      0.00000
     12       8.5856      0.00000
     13      11.3968      0.00000
     14      12.2658      0.00000

 k-point    42 :       0.3333    0.2222    0.5000
  band No.  band energies     occupation 
      1      -5.2699      2.00000
      2      -5.0225      2.00000
      3      -3.7155      2.00000
      4       1.0018      2.00000
      5       1.6215      2.00000
      6       1.8392      2.00000
      7       5.3885      2.00000
      8       5.8011      2.00000
      9       6.3769      2.00000
     10       7.3587      0.00000
     11       7.8359      0.00000
     12       8.2738      0.00000
     13      11.7813      0.00000
     14      12.3365      0.00000

 k-point    43 :       0.3333    0.3333    0.5000
  band No.  band energies     occupation 
      1      -5.0441      2.00000
      2      -5.0441      2.00000
      3      -3.8500      2.00000
      4       1.2631      2.00000
      5       1.2928      2.00000
      6       1.2928      2.00000
      7       5.8434      2.00000
      8       6.7076      1.41331
      9       6.7076      1.41330
     10       6.7191      1.17339
     11       7.5943      0.00000
     12       7.5943      0.00000
     13      12.7657      0.00000
     14      13.0542      0.00000


--------------------------------------------------------------------------------------------------------


 soft charge-density along one line, spin component           1
         0         1         2         3         4         5         6         7         8         9
 total charge-density along one line
 
 pseudopotential strength for first ion, spin component:           1
 51.386  55.910  -0.000  -0.000  -0.038  -0.000  -0.000  -0.055
 55.910  60.835  -0.000  -0.000  -0.041  -0.000  -0.000  -0.060
 -0.000  -0.000  12.664   0.008   0.000  18.253   0.011   0.000
 -0.000  -0.000   0.008  12.677   0.000   0.011  18.273   0.000
 -0.038  -0.041   0.000   0.000  12.676   0.000   0.000  18.271
 -0.000  -0.000  18.253   0.011   0.000  26.320   0.016   0.000
 -0.000  -0.000   0.011  18.273   0.000   0.016  26.347   0.000
 -0.055  -0.060   0.000   0.000  18.271   0.000   0.000  26.346
  0.000   0.000  -0.007   0.000  -0.000  -0.011   0.000  -0.000
  0.012   0.013   0.000  -0.000   0.000   0.000  -0.000   0.000
  0.006   0.007   0.000  -0.000   0.005   0.000  -0.000   0.007
  0.000   0.000   0.000  -0.007  -0.000   0.000  -0.010  -0.000
  0.010   0.011   0.000  -0.000  -0.007   0.000  -0.000  -0.011
 total augmentation occupancy for first ion, spin component:           1
 14.565 -10.792   0.000   0.000   1.609   0.000   0.000  -0.389   0.000  -0.148  -0.108   0.000  -0.109
-10.792   9.273   0.000   0.000  -1.351   0.000  -0.000   0.333  -0.000   0.132   0.095   0.000   0.097
  0.000   0.000   2.618   0.158   0.000  -0.551  -0.144   0.000  -0.040   0.000   0.000  -0.041   0.000
  0.000   0.000   0.158   2.913   0.000  -0.144  -0.814  -0.000  -0.040   0.000   0.000  -0.092  -0.000
  1.609  -1.351   0.000   0.000   2.810   0.000  -0.000  -0.748  -0.000  -0.044  -0.012   0.000  -0.040
  0.000   0.000  -0.551  -0.144   0.000   0.206   0.051   0.000   0.009   0.000  -0.000   0.014  -0.000
 -0.000   0.000  -0.144  -0.814  -0.000   0.051   0.302   0.000   0.014  -0.000   0.000   0.026   0.000
 -0.389   0.333   0.000  -0.000  -0.748   0.000  -0.000   0.268   0.000   0.013   0.003   0.000   0.009
  0.000  -0.000  -0.040  -0.040  -0.000   0.009   0.014   0.000   0.011   0.000   0.000   0.012   0.000
 -0.148   0.132   0.000   0.000  -0.044   0.000   0.000   0.013   0.000   0.017   0.003   0.000   0.006
 -0.108   0.095   0.000   0.000  -0.012   0.000  -0.000   0.003  -0.000   0.003   0.008  -0.000  -0.000
  0.000   0.000  -0.041  -0.092   0.000   0.014   0.026  -0.000   0.012   0.000  -0.000   0.029   0.000
 -0.109   0.097   0.000   0.000  -0.040   0.000   0.000   0.009   0.000   0.006  -0.000   0.000   0.011


------------------------ aborting loop because EDIFF is reached ----------------------------------------


    CHARGE:  cpu time    0.0341: real time    0.0342
    FORLOC:  cpu time    0.0013: real time    0.0013
    FORNL :  cpu time    0.1245: real time    0.1251
    STRESS:  cpu time    0.2710: real time    0.2724
    FORCOR:  cpu time    0.0218: real time    0.0219
    FORHAR:  cpu time    0.0052: real time    0.0052
    MIXING:  cpu time    0.0010: real time    0.0010
    OFIELD:  cpu time    0.0000: real time    0.0000

 ---------------------------------------------------------------------------------------------

         DFTD3 V3.0 Rev 1        
 Edisp (eV)   -1.37172

 E6    (eV) :    -0.7416
 E8    (eV) :    -0.6301
 % E8        : 45.94
    FORVDW:  cpu time    0.0076: real time    0.0076

  FORCE on cell =-STRESS in cart. coord.  units (eV):
  Direction    XX          YY          ZZ          XY          YZ          ZX
  --------------------------------------------------------------------------------------
  Alpha Z     2.43037     2.43037     2.43037
  Ewald    -241.28499  -241.28499  -209.48775    -0.00000    -0.00000     0.00000
  Hartree     9.94372     9.94372    17.36866     0.00000     0.00000    -0.00000
  E(xc)     -70.54211   -70.54211   -70.06961    -0.00000     0.00000    -0.00000
  Local    -106.85185  -106.85189  -138.07223    -0.00004     0.00000    -0.00000
  n-local   332.55914   333.28460   328.81064    -1.46662    -0.66901    -1.25496
  augment   -81.16054   -81.16050   -79.09282     0.00003    -0.00000     0.00000
  Kinetic   152.16311   159.76475   149.54705    -8.07606     0.01582     1.57048
  Fock        0.00000     0.00000     0.00000     0.00000     0.00000     0.00000
  vdW        -1.44485    -1.44485    -1.44078    -0.00000     0.00000    -0.00000
  -------------------------------------------------------------------------------------
  Total      -0.02444    -0.02444    -0.00649     0.00000     0.00000     0.00000
  in kB      -0.40718    -0.40718    -0.10809     0.00000     0.00000     0.00000
  external pressure =       -0.31 kB  Pullay stress =        0.00 kB


 VOLUME and BASIS-vectors are now :
 -----------------------------------------------------------------------------
  energy-cutoff  :      520.00
  volume of cell :       96.18
      direct lattice vectors                 reciprocal lattice vectors
     4.314076393  0.000000000 -0.000000000     0.231799326  0.133829403 -0.000000000
    -2.157038197  3.736099750  0.000000000     0.000000000  0.267658806  0.000000000
     0.000000000 -0.000000000  5.967301634     0.000000000  0.000000000  0.167579932

  length of vectors
     4.314076393  4.314076393  5.967301634     0.267658806  0.267658806  0.167579932


 FORCES acting on ions
    electron-ion (+dipol)            ewald-force                    non-local-force                 convergence-correction
 -----------------------------------------------------------------------------------------------
   -.737E+01 0.103E-04 -.714E-06   0.113E+02 0.157E-05 0.120E-05   -.390E+01 0.382E-18 -.833E-16   0.324E-03 -.130E-07 0.380E-09
   0.368E+01 -.638E+01 -.189E-04   -.563E+01 0.975E+01 -.840E-05   0.195E+01 -.338E+01 0.111E-15   -.162E-03 0.281E-03 -.312E-09
   0.368E+01 0.638E+01 0.193E-04   -.563E+01 -.975E+01 0.720E-05   0.195E+01 0.338E+01 0.000E+00   -.162E-03 -.281E-03 -.622E-10
 -----------------------------------------------------------------------------------------------
   0.258E-04 -.900E-05 -.334E-06   0.888E-15 0.000E+00 -.348E-17   0.222E-15 -.444E-15 0.278E-16   -.248E-08 -.463E-08 0.558E-11
 
 
 POSITION                                       TOTAL-FORCE (eV/Angst)
 -----------------------------------------------------------------------------------
      1.23487     -0.00000      1.98910        -0.009751     -0.000000      0.000000
     -0.61743      1.06943      3.97820         0.004875     -0.008444     -0.000000
      1.53960      2.66667     -0.00000         0.004875      0.008444     -0.000000
 -----------------------------------------------------------------------------------
    total drift:                                0.000026     -0.000009     -0.000000


--------------------------------------------------------------------------------------------------------



  FREE ENERGIE OF THE ION-ELECTRON SYSTEM (eV)
  ---------------------------------------------------
  free  energy   TOTEN  =       -10.74117785 eV

  energy  without entropy=      -10.74070743  energy(sigma->0) =      -10.74094264
 
 d Force = 0.2071455E-04[ 0.204E-04, 0.211E-04]  d Energy =-0.9012145E-05 0.297E-04
 d Force =-0.2346742E-01[-0.235E-01,-0.234E-01]  d Ewald  =-0.2176241E+00 0.194E+00


--------------------------------------------------------------------------------------------------------


    POTLOK:  cpu time    0.0238: real time    0.0239


--------------------------------------------------------------------------------------------------------




--------------------------------------------------------------------------------------------------------


  
 reached required accuracy - stopping structural energy minimisation
 writing wavefunctions
     LOOP+:  cpu time    1.9583: real time    2.5561
    4ORBIT:  cpu time    0.0000: real time    0.0000

 total amount of memory used by VASP MPI-rank0    48763. kBytes
=======================================================================

   base      :      30000. kBytes
   nonl-proj :       6255. kBytes
   fftplans  :       2372. kBytes
   grid      :       3330. kBytes
   one-center:         16. kBytes
   wavefun   :       6790. kBytes
 
  
  
 General timing and accounting informations for this job:
 ========================================================
  
                  Total CPU time used (sec):       41.921
                            User time (sec):       40.880
                          System time (sec):        1.041
                         Elapsed time (sec):       44.542
  
                   Maximum memory used (kb):       87932.
                   Average memory used (kb):           0.
  
                          Minor page faults:        52290
                          Major page faults:           14
                 Voluntary context switches:          948
