Phosphorus - aP42                       
   1.00000000000000     
    11.5970611255356530   -0.0479061360654239    0.1804367043143101
    -1.7505748340303222   12.8368237624603481   -0.0023575354960235
    -1.7882652418142098   -3.4903751696114060    5.5966411612781348
   P 
    42
Direct
  0.1439337688694058  0.3263911627360696  0.7419148154225018
  0.8560662461305919  0.6736088372639304  0.2580851545774958
  0.2731330274401615  0.4704270079013058  0.7452871188780342
  0.7268669425598433  0.5295729620986918  0.2547128511219634
  0.1455109008021815  0.5826919452499462  0.7446389308701167
  0.8544890691978160  0.4173080547500544  0.2553610691298836
  0.2791087235528984  0.7228246276999517  0.7494465655366299
  0.7208912464471059  0.2771753723000482  0.2505534044633675
  0.1614141330222480  0.8393932264633434  0.7346438756438964
  0.8385858529777510  0.1606067445366579  0.2653561543561059
  0.2969825173973590  0.9703053539178688  0.7207767560530948
  0.7030174536026422  0.0296946420821308  0.2792232729469036
  0.1576348460799448  0.0693784933293577  0.7334675488416577
  0.8423651389200579  0.9306215286706373  0.2665324511583423
  0.2768277847388079  0.2213145535256555  0.7466134290422795
  0.7231722152611917  0.7786854314743468  0.2533865709577205
  0.3568413350309175  0.4948411099204443  0.3049154158991684
  0.6431586349690799  0.5051588900795556  0.6950845541008361
  0.4153543818678990  0.5811054993064362  0.1186880413790401
  0.5846456181321013  0.4188945006935638  0.8813119666209605
  0.3569855450024343  0.7452923227419752  0.3077408035702300
  0.6430144849975680  0.2547076772580253  0.6922591964297700
  0.4196379430893257  0.8317722396383818  0.1246494429213086
  0.5803620569106737  0.1682277603616180  0.8753505720786962
  0.3735432854515219  0.0047019924927337  0.2902254043650335
  0.6264566845484758 -0.0047020104927353  0.7097745656349643
  0.4393195800680653  0.0821715624697419  0.0965777870123806
  0.5606803899319391  0.9178284595302598  0.9034221909876250
  0.3685241179182727  0.2351237583380815  0.2922155231521185
  0.6314759120817228  0.7648762116619237  0.7077845068478844
  0.4179049598269667  0.3330063592437738  0.1225086750196772
  0.5820950701730283  0.6669936407562265  0.8774913549803256
  0.1557467918113245  0.4011071220202445  0.1129629586765164
  0.8442532231886802  0.5988928779797554  0.8870370553234846
  0.1563320847187973  0.6941031261018856  0.1151660414052275
  0.8436679302812072  0.3058968738981143  0.8848339655947699
  0.1682491951560759  0.9579810273499326  0.1071111692560820
  0.8317508048439235  0.0420189686500671  0.8928888457439155
  0.1643572138975846  0.1358452199454958  0.1067234547057385
  0.8356428011024202  0.8641547950545091  0.8932765602942592
  0.0716918961540216  0.5545169280116479  0.1843877045623804
  0.9283081038459785  0.4454830719883451  0.8156123104376172
 
  0.00000000E+00  0.00000000E+00  0.00000000E+00
  0.00000000E+00  0.00000000E+00  0.00000000E+00
  0.00000000E+00  0.00000000E+00  0.00000000E+00
  0.00000000E+00  0.00000000E+00  0.00000000E+00
  0.00000000E+00  0.00000000E+00  0.00000000E+00
  0.00000000E+00  0.00000000E+00  0.00000000E+00
  0.00000000E+00  0.00000000E+00  0.00000000E+00
  0.00000000E+00  0.00000000E+00  0.00000000E+00
  0.00000000E+00  0.00000000E+00  0.00000000E+00
  0.00000000E+00  0.00000000E+00  0.00000000E+00
  0.00000000E+00  0.00000000E+00  0.00000000E+00
  0.00000000E+00  0.00000000E+00  0.00000000E+00
  0.00000000E+00  0.00000000E+00  0.00000000E+00
  0.00000000E+00  0.00000000E+00  0.00000000E+00
  0.00000000E+00  0.00000000E+00  0.00000000E+00
  0.00000000E+00  0.00000000E+00  0.00000000E+00
  0.00000000E+00  0.00000000E+00  0.00000000E+00
  0.00000000E+00  0.00000000E+00  0.00000000E+00
  0.00000000E+00  0.00000000E+00  0.00000000E+00
  0.00000000E+00  0.00000000E+00  0.00000000E+00
  0.00000000E+00  0.00000000E+00  0.00000000E+00
  0.00000000E+00  0.00000000E+00  0.00000000E+00
  0.00000000E+00  0.00000000E+00  0.00000000E+00
  0.00000000E+00  0.00000000E+00  0.00000000E+00
  0.00000000E+00  0.00000000E+00  0.00000000E+00
  0.00000000E+00  0.00000000E+00  0.00000000E+00
  0.00000000E+00  0.00000000E+00  0.00000000E+00
  0.00000000E+00  0.00000000E+00  0.00000000E+00
  0.00000000E+00  0.00000000E+00  0.00000000E+00
  0.00000000E+00  0.00000000E+00  0.00000000E+00
  0.00000000E+00  0.00000000E+00  0.00000000E+00
  0.00000000E+00  0.00000000E+00  0.00000000E+00
  0.00000000E+00  0.00000000E+00  0.00000000E+00
  0.00000000E+00  0.00000000E+00  0.00000000E+00
  0.00000000E+00  0.00000000E+00  0.00000000E+00
  0.00000000E+00  0.00000000E+00  0.00000000E+00
  0.00000000E+00  0.00000000E+00  0.00000000E+00
  0.00000000E+00  0.00000000E+00  0.00000000E+00
  0.00000000E+00  0.00000000E+00  0.00000000E+00
  0.00000000E+00  0.00000000E+00  0.00000000E+00
  0.00000000E+00  0.00000000E+00  0.00000000E+00
  0.00000000E+00  0.00000000E+00  0.00000000E+00
