Phosphorus                              
   1.00000000000000     
     9.2681149427658536    0.0000000000000000    0.0787859366344810
     0.0000000000000000    9.2656146240988537    0.0000000000000000
    -6.1253043094534236    0.0000000000000000   23.8549292475089345
   P 
    84
Direct
  0.2972349259977302  0.2024053438039771  0.1786674657684830
  0.7027651040022724  0.7975946711960209  0.8213325042315217
  0.7027651040022724  0.2024053438039771  0.3213325342315169
  0.2972349259977302  0.7975946711960209  0.6786674957684783
  0.1702741182004880  0.0382413400916952  0.1200907018437165
  0.8297259117995077  0.9617586489083076  0.8799093211562889
  0.8297259117995077  0.0382413400916952  0.3799092911562865
  0.1702741182004880  0.9617586489083076  0.6200906788437111
  0.9234330135551992  0.7876261727411210  0.1192455941699504
  0.0765669784448003  0.2123738272588790  0.8807544198300509
  0.0765669784448003  0.7876261727411210  0.3807544198300508
  0.9234330135551992  0.2123738272588790  0.6192455801699491
  0.0448080968352384  0.9492440693771375  0.1789894405500445
  0.9551918811647664  0.0507559416228671  0.8210105594499553
  0.9551918811647664  0.9492440693771375  0.3210105594499554
  0.0448080968352384  0.0507559416228671  0.6789894405500447
  0.7856647903698097  0.6796653022963999  0.1689028195908228
  0.2143351946301923  0.3203346977036002  0.8310971954091751
  0.2143351946301923  0.6796653022963999  0.3310971954091749
  0.7856647903698097  0.3203346977036002  0.6689028045908249
  0.6864166746070260  0.5152464240819206  0.1057889587467200
  0.3135833543929725  0.4847535759180799  0.8942110412532804
  0.3135833543929725  0.5152464240819206  0.3942110412532802
  0.6864166746070260  0.4847535759180799  0.6057889587467196
  0.5595651097844406  0.4532428735955966  0.1677567452582338
  0.4404348902155590  0.5467571264044034  0.8322432397417682
  0.4404348902155590  0.4532428735955966  0.3322432397417686
  0.5595651097844406  0.5467571264044034  0.6677567602582318
  0.4214399644804552  0.2823531375414849  0.1185232820501511
  0.5785600355195445  0.7176468624585147  0.8814766949498508
  0.5785600355195445  0.2823531375414849  0.3814767249498530
  0.4214399644804552  0.7176468624585147  0.6185233050501492
  0.0442169955679773  0.3963771105141546  0.0840561173335410
  0.9557830234320205  0.6036228894858450  0.9159438976664565
  0.9557830234320205  0.3963771105141546  0.4159438976664565
  0.0442169955679773  0.6036228894858450  0.5840561023335435
 -0.0011427882413377  0.1680306448930191  0.0571498031975473
  0.0011427902413377  0.8319693411069794  0.9428502188024542
  0.0011427902413377  0.1680306448930191  0.4428501888024520
 -0.0011427882413377  0.8319693411069794  0.5571497811975458
  0.7895348523056800  0.1431246320100694  0.0856107708725773
  0.2104651776943228  0.8568753679899306  0.9143892441274206
  0.2104651776943228  0.1431246320100694  0.4143892441274205
  0.7895348523056800  0.8568753679899306  0.5856107558725794
  0.7557281183626919  0.9192024618367988  0.0547375446017192
  0.2442718816373078  0.0807975381632020  0.9452624513982802
  0.2442718816373078  0.9192024618367988  0.4452624513982806
  0.7557281183626919  0.0807975381632020  0.5547375486017198
  0.5383695566907437  0.8678218381705632  0.0719052666384099
  0.4616304733092514  0.1321781768294344  0.9280947403615941
  0.4616304733092514  0.8678218381705632  0.4280947403615943
  0.5383695566907437  0.1321781768294344  0.5719052596384059
  0.5178401359648932  0.6437009097336209  0.0392213822189293
  0.4821598640351064  0.3562991202663743  0.9607786287810685
  0.4821598640351064  0.6437009097336209  0.4607786287810681
  0.5178401359648932  0.3562991202663743  0.5392213712189315
  0.3113296028216976  0.6369091363413751  0.0697567926434562
  0.6886703971783024  0.3630908636586255  0.9302432303565424
  0.6886703971783024  0.6369091363413751  0.4302432003565468
  0.3113296028216976  0.3630908636586255  0.5697567696434576
  0.2491923746142350  0.4078026480782546  0.0534096320259235
  0.7508076253857642  0.5921973519217452  0.9465903639740756
  0.7508076253857642  0.4078026480782546  0.4465903639740763
  0.2491923746142350  0.5921973519217452  0.5534096360259244
  0.1448991567624107  0.3872722350239401  0.1753007912651591
  0.8551008132375870  0.6127277649760593  0.8246991937348433
  0.8551008132375870  0.3872722350239401  0.3246991937348432
  0.1448991567624107  0.6127277649760593  0.6753008062651567
  0.8589904353276546  0.1005444575288554  0.1770513533058062
  0.1410095646723452  0.8994555494711486  0.8229486166941984
  0.1410095646723452  0.1005444575288554  0.3229486466941939
  0.8589904353276546  0.8994555494711486  0.6770513833058016
  0.5870888349281334  0.8225352788714179  0.1636609285429411
  0.4129111950718615  0.1774647361285799  0.8363391014570611
  0.4129111950718615  0.8225352788714179  0.3363390714570587
  0.5870888349281334  0.1774647361285799  0.6636608985429389
  0.4116003745853331  0.6466181767726333  0.1620950860642280
  0.5883996254146672  0.3533818232273667  0.8379048989357744
  0.5883996254146672  0.6466181767726333  0.3379048989357744
  0.4116003745853331  0.3533818232273667  0.6620951010642256
  0.9475104974451964  0.3181115199687677  0.2048051799625127
  0.0524894765548079  0.6818884500312290  0.7951947900374922
  0.0524894765548079  0.3181115199687677  0.2951948200374871
  0.9475104974451964  0.6818884500312290  0.7048052099625078
 
  0.00000000E+00  0.00000000E+00  0.00000000E+00
  0.00000000E+00  0.00000000E+00  0.00000000E+00
  0.00000000E+00  0.00000000E+00  0.00000000E+00
  0.00000000E+00  0.00000000E+00  0.00000000E+00
  0.00000000E+00  0.00000000E+00  0.00000000E+00
  0.00000000E+00  0.00000000E+00  0.00000000E+00
  0.00000000E+00  0.00000000E+00  0.00000000E+00
  0.00000000E+00  0.00000000E+00  0.00000000E+00
  0.00000000E+00  0.00000000E+00  0.00000000E+00
  0.00000000E+00  0.00000000E+00  0.00000000E+00
  0.00000000E+00  0.00000000E+00  0.00000000E+00
  0.00000000E+00  0.00000000E+00  0.00000000E+00
  0.00000000E+00  0.00000000E+00  0.00000000E+00
  0.00000000E+00  0.00000000E+00  0.00000000E+00
  0.00000000E+00  0.00000000E+00  0.00000000E+00
  0.00000000E+00  0.00000000E+00  0.00000000E+00
  0.00000000E+00  0.00000000E+00  0.00000000E+00
  0.00000000E+00  0.00000000E+00  0.00000000E+00
  0.00000000E+00  0.00000000E+00  0.00000000E+00
  0.00000000E+00  0.00000000E+00  0.00000000E+00
  0.00000000E+00  0.00000000E+00  0.00000000E+00
  0.00000000E+00  0.00000000E+00  0.00000000E+00
  0.00000000E+00  0.00000000E+00  0.00000000E+00
  0.00000000E+00  0.00000000E+00  0.00000000E+00
  0.00000000E+00  0.00000000E+00  0.00000000E+00
  0.00000000E+00  0.00000000E+00  0.00000000E+00
  0.00000000E+00  0.00000000E+00  0.00000000E+00
  0.00000000E+00  0.00000000E+00  0.00000000E+00
  0.00000000E+00  0.00000000E+00  0.00000000E+00
  0.00000000E+00  0.00000000E+00  0.00000000E+00
  0.00000000E+00  0.00000000E+00  0.00000000E+00
  0.00000000E+00  0.00000000E+00  0.00000000E+00
  0.00000000E+00  0.00000000E+00  0.00000000E+00
  0.00000000E+00  0.00000000E+00  0.00000000E+00
  0.00000000E+00  0.00000000E+00  0.00000000E+00
  0.00000000E+00  0.00000000E+00  0.00000000E+00
  0.00000000E+00  0.00000000E+00  0.00000000E+00
  0.00000000E+00  0.00000000E+00  0.00000000E+00
  0.00000000E+00  0.00000000E+00  0.00000000E+00
  0.00000000E+00  0.00000000E+00  0.00000000E+00
  0.00000000E+00  0.00000000E+00  0.00000000E+00
  0.00000000E+00  0.00000000E+00  0.00000000E+00
  0.00000000E+00  0.00000000E+00  0.00000000E+00
  0.00000000E+00  0.00000000E+00  0.00000000E+00
  0.00000000E+00  0.00000000E+00  0.00000000E+00
  0.00000000E+00  0.00000000E+00  0.00000000E+00
  0.00000000E+00  0.00000000E+00  0.00000000E+00
  0.00000000E+00  0.00000000E+00  0.00000000E+00
  0.00000000E+00  0.00000000E+00  0.00000000E+00
  0.00000000E+00  0.00000000E+00  0.00000000E+00
  0.00000000E+00  0.00000000E+00  0.00000000E+00
  0.00000000E+00  0.00000000E+00  0.00000000E+00
  0.00000000E+00  0.00000000E+00  0.00000000E+00
  0.00000000E+00  0.00000000E+00  0.00000000E+00
  0.00000000E+00  0.00000000E+00  0.00000000E+00
  0.00000000E+00  0.00000000E+00  0.00000000E+00
  0.00000000E+00  0.00000000E+00  0.00000000E+00
  0.00000000E+00  0.00000000E+00  0.00000000E+00
  0.00000000E+00  0.00000000E+00  0.00000000E+00
  0.00000000E+00  0.00000000E+00  0.00000000E+00
  0.00000000E+00  0.00000000E+00  0.00000000E+00
  0.00000000E+00  0.00000000E+00  0.00000000E+00
  0.00000000E+00  0.00000000E+00  0.00000000E+00
  0.00000000E+00  0.00000000E+00  0.00000000E+00
  0.00000000E+00  0.00000000E+00  0.00000000E+00
  0.00000000E+00  0.00000000E+00  0.00000000E+00
  0.00000000E+00  0.00000000E+00  0.00000000E+00
  0.00000000E+00  0.00000000E+00  0.00000000E+00
  0.00000000E+00  0.00000000E+00  0.00000000E+00
  0.00000000E+00  0.00000000E+00  0.00000000E+00
  0.00000000E+00  0.00000000E+00  0.00000000E+00
  0.00000000E+00  0.00000000E+00  0.00000000E+00
  0.00000000E+00  0.00000000E+00  0.00000000E+00
  0.00000000E+00  0.00000000E+00  0.00000000E+00
  0.00000000E+00  0.00000000E+00  0.00000000E+00
  0.00000000E+00  0.00000000E+00  0.00000000E+00
  0.00000000E+00  0.00000000E+00  0.00000000E+00
  0.00000000E+00  0.00000000E+00  0.00000000E+00
  0.00000000E+00  0.00000000E+00  0.00000000E+00
  0.00000000E+00  0.00000000E+00  0.00000000E+00
  0.00000000E+00  0.00000000E+00  0.00000000E+00
  0.00000000E+00  0.00000000E+00  0.00000000E+00
  0.00000000E+00  0.00000000E+00  0.00000000E+00
  0.00000000E+00  0.00000000E+00  0.00000000E+00
