Tellurium                               
   1.00000000000000     
     4.4085763437230918    0.0000000000000000   -0.0000000000000000
    -2.2042881718615459    3.8179391082102998    0.0000000000000000
    -0.0000000000000000   -0.0000000000000000    5.9333391609421549
   Te
     3
Direct
  0.2783995594643309  0.0000000000000000  0.3333333429999996
 -0.0000000000000003  0.2783995594643303  0.6666666870000029
  0.7216004705356719  0.7216004705356722  0.0000000000000000
 
  0.00000000E+00  0.00000000E+00  0.00000000E+00
  0.00000000E+00  0.00000000E+00  0.00000000E+00
  0.00000000E+00  0.00000000E+00  0.00000000E+00
