 vasp.5.4.4.18Apr17-6-g9f103f2a35 (build Feb 10 2022 16:34:21) complex          
  
 executed on         VASP-optcell date 2025.11.14  18:41:00
 running on    8 total cores
 distrk:  each k-point on    8 cores,    1 groups
 distr:  one band on NCORES_PER_BAND=   2 cores,    4 groups


--------------------------------------------------------------------------------------------------------


 INCAR:
 POTCAR:    PAW_PBE Te 08Apr2002                  
 POTCAR:    PAW_PBE Te 08Apr2002                  
   VRHFIN =Te: s2p4                                                             
   LEXCH  = PE                                                                  
   EATOM  =   223.2721 eV,   16.4100 Ry                                         
                                                                                
   TITEL  = PAW_PBE Te 08Apr2002                                                
   LULTRA =        F    use ultrasoft PP ?                                      
   IUNSCR =        1    unscreen: 0-lin 1-nonlin 2-no                           
   RPACOR =    2.200    partial core radius                                     
   POMASS =  127.600; ZVAL   =    6.000    mass and valenz                      
   RCORE  =    2.300    outmost cutoff radius                                   
   RWIGS  =    2.900; RWIGS  =    1.535    wigner-seitz radius (au A)           
   ENMAX  =  174.982; ENMIN  =  131.236 eV                                      
   ICORE  =        3    local potential                                         
   LCOR   =        T    correct aug charges                                     
   LPAW   =        T    paw PP                                                  
   EAUG   =  368.792                                                            
   DEXC   =    0.000                                                            
   RMAX   =    2.345    core radius for proj-oper                               
   RAUG   =    1.300    factor for augmentation sphere                          
   RDEP   =    2.397    radius for radial grids                                 
   RDEPT  =    2.174    core radius for aug-charge                              
                                                                                
   Atomic configuration                                                         
   13 entries                                                                   
     n  l   j            E        occ.                                          
     1  0  0.50    -31621.2075   2.0000                                         
     2  0  0.50     -4848.7941   2.0000                                         
     2  1  1.50     -4352.1960   6.0000                                         
     3  0  0.50      -964.9612   2.0000                                         
     3  1  1.50      -803.6179   6.0000                                         
     3  2  2.50      -559.8710  10.0000                                         
     4  0  0.50      -164.3522   2.0000                                         
     4  1  1.50      -114.3756   6.0000                                         
     4  2  2.50       -41.6483  10.0000                                         
     5  0  0.50       -15.1072   2.0000                                         
     5  1  0.50        -5.9526   4.0000                                         
     5  2  1.50        -5.4423   0.0000                                         
     4  3  2.50        -5.4423   0.0000                                         
   Description                                                                  
     l       E           TYP  RCUT    TYP  RCUT                                 
     0    -15.1072389     23  2.300                                             
     0    -16.4678215     23  2.300                                             
     1     -5.9526306     23  2.300                                             
     1     -2.4873968     23  2.300                                             
     2     -5.4423304     23  2.300                                             
     3     -1.3605826     23  2.300                                             
  local pseudopotential read in
  partial core-charges read in
  partial kinetic energy density read in
  atomic valenz-charges read in
  non local Contribution for L=           0  read in
    real space projection operators read in
  non local Contribution for L=           0  read in
    real space projection operators read in
  non local Contribution for L=           1  read in
    real space projection operators read in
  non local Contribution for L=           1  read in
    real space projection operators read in
  non local Contribution for L=           2  read in
    real space projection operators read in
    PAW grid and wavefunctions read in
 
   number of l-projection  operators is LMAX  =           5
   number of lm-projection operators is LMMAX =          13
 
  PAW_PBE Te 08Apr2002                  :
 energy of atom  1       EATOM= -223.2721
 kinetic energy error for atom=    0.0007 (will be added to EATOM!!)
 
 
 POSCAR: Tellurium                               
  positions in direct lattice
  No initial velocities read in
 exchange correlation table for  LEXCH =        8
   RHO(1)=    0.500       N(1)  =     2000
   RHO(2)=  100.500       N(2)  =     4000
 


--------------------------------------------------------------------------------------------------------


 ion  position               nearest neighbor table
   1  0.262  0.000  0.333-   3 2.83   2 2.83   2 3.50   2 3.50   3 3.50   3 3.50
   2  0.000  0.262  0.667-   3 2.83   1 2.83   3 3.50   3 3.50   1 3.50   1 3.50
   3  0.738  0.738  0.000-   2 2.83   1 2.83   2 3.50   2 3.50   1 3.50   1 3.50
 
  LATTYP: Found a hexagonal cell.
 ALAT       =     4.4593000412
 C/A-ratio  =     1.3294014113
  
  Lattice vectors:
  
 A1 = (   4.4593000412,   0.0000000000,   0.0000000000)
 A2 = (  -2.2296500206,   3.8618671188,   0.0000000000)
 A3 = (   0.0000000000,   0.0000000000,   5.9281997681)


Analysis of symmetry for initial positions (statically):
=====================================================================
 Subroutine PRICEL returns:
 Original cell was already a primitive cell.
 

 Routine SETGRP: Setting up the symmetry group for a 
 hexagonal supercell.


 Subroutine GETGRP returns: Found  6 space group operations
 (whereof  2 operations were pure point group operations)
 out of a pool of 24 trial point group operations.


The static configuration has the point symmetry C_2 .
 The point group associated with its full space group is D_3 .


Analysis of symmetry for dynamics (positions and initial velocities):
=====================================================================
 Subroutine PRICEL returns:
 Original cell was already a primitive cell.
 

 Routine SETGRP: Setting up the symmetry group for a 
 hexagonal supercell.


 Subroutine GETGRP returns: Found  6 space group operations
 (whereof  2 operations were pure point group operations)
 out of a pool of 24 trial point group operations.


The dynamic configuration has the point symmetry C_2 .
 The point group associated with its full space group is D_3 .


 Subroutine INISYM returns: Found  6 space group operations
 (whereof  2 operations are pure point group operations),
 and found     1 'primitive' translations

 
 
 KPOINTS: K-Spacing Value to Generate K-Mesh: 0.04

Automatic generation of k-mesh.
Space group operators:
 irot       det(A)        alpha          n_x          n_y          n_z        tau_x        tau_y        tau_z
    1     1.000000     0.000000     1.000000     0.000000     0.000000     0.000000     0.000000     0.000000
    2     1.000000   180.000000    -0.500000    -0.866025     0.000000     0.000000     0.000000     0.000000
    3     1.000000   120.000000     0.000000     0.000000    -1.000000     0.000000     0.000000     0.333333
    4     1.000000   120.000000     0.000000     0.000000     1.000000     0.000000     0.000000     0.666667
    5     1.000000   180.000000     1.000000     0.000000     0.000000     0.000000     0.000000     0.666667
    6     1.000000   180.000000     0.500000    -0.866025     0.000000     0.000000     0.000000     0.333333
 
 Subroutine IBZKPT returns following result:
 ===========================================
 
 Found     43 irreducible k-points:
 
 Following reciprocal coordinates:
            Coordinates               Weight
  0.000000  0.000000  0.000000      1.000000
  0.111111  0.000000  0.000000      6.000000
  0.222222  0.000000  0.000000      6.000000
  0.333333 -0.000000  0.000000      6.000000
  0.444444  0.000000  0.000000      6.000000
  0.111111  0.111111  0.000000      6.000000
  0.222222  0.111111  0.000000     12.000000
  0.333333  0.111111  0.000000     12.000000
  0.444444  0.111111  0.000000      6.000000
  0.222222  0.222222  0.000000      6.000000
  0.333333  0.222222  0.000000     12.000000
  0.333333  0.333333  0.000000      2.000000
  0.000000  0.000000  0.250000      2.000000
  0.111111  0.000000  0.250000      6.000000
  0.222222  0.000000  0.250000      6.000000
  0.333333 -0.000000  0.250000      6.000000
  0.444444  0.000000  0.250000      6.000000
 -0.444444 -0.000000  0.250000      6.000000
 -0.333333  0.000000  0.250000      6.000000
 -0.222222 -0.000000  0.250000      6.000000
 -0.111111 -0.000000  0.250000      6.000000
  0.111111  0.111111  0.250000     12.000000
  0.222222  0.111111  0.250000     12.000000
  0.333333  0.111111  0.250000     12.000000
  0.444444  0.111111  0.250000     12.000000
 -0.444444  0.111111  0.250000     12.000000
 -0.333333  0.111111  0.250000     12.000000
  0.222222  0.222222  0.250000     12.000000
  0.333333  0.222222  0.250000     12.000000
  0.444444  0.222222  0.250000     12.000000
  0.333333  0.333333  0.250000      4.000000
  0.000000  0.000000  0.500000      1.000000
  0.111111  0.000000  0.500000      6.000000
  0.222222  0.000000  0.500000      6.000000
  0.333333 -0.000000  0.500000      6.000000
  0.444444  0.000000  0.500000      6.000000
  0.111111  0.111111  0.500000      6.000000
  0.222222  0.111111  0.500000     12.000000
  0.333333  0.111111  0.500000     12.000000
  0.444444  0.111111  0.500000      6.000000
  0.222222  0.222222  0.500000      6.000000
  0.333333  0.222222  0.500000     12.000000
  0.333333  0.333333  0.500000      2.000000
 
 Following cartesian coordinates:
            Coordinates               Weight
  0.000000  0.000000  0.000000      1.000000
  0.024917  0.014386  0.000000      6.000000
  0.049833  0.028771  0.000000      6.000000
  0.074750  0.043157  0.000000      6.000000
  0.099667  0.057543  0.000000      6.000000
  0.024917  0.043157  0.000000      6.000000
  0.049833  0.057543  0.000000     12.000000
  0.074750  0.071928  0.000000     12.000000
  0.099667  0.086314  0.000000      6.000000
  0.049833  0.086314  0.000000      6.000000
  0.074750  0.100700  0.000000     12.000000
  0.074750  0.129471  0.000000      2.000000
  0.000000  0.000000  0.042171      2.000000
  0.024917  0.014386  0.042171      6.000000
  0.049833  0.028771  0.042171      6.000000
  0.074750  0.043157  0.042171      6.000000
  0.099667  0.057543  0.042171      6.000000
 -0.099667 -0.057543  0.042171      6.000000
 -0.074750 -0.043157  0.042171      6.000000
 -0.049833 -0.028771  0.042171      6.000000
 -0.024917 -0.014386  0.042171      6.000000
  0.024917  0.043157  0.042171     12.000000
  0.049833  0.057543  0.042171     12.000000
  0.074750  0.071928  0.042171     12.000000
  0.099667  0.086314  0.042171     12.000000
 -0.099667 -0.028771  0.042171     12.000000
 -0.074750 -0.014386  0.042171     12.000000
  0.049833  0.086314  0.042171     12.000000
  0.074750  0.100700  0.042171     12.000000
  0.099667  0.115085  0.042171     12.000000
  0.074750  0.129471  0.042171      4.000000
  0.000000  0.000000  0.084343      1.000000
  0.024917  0.014386  0.084343      6.000000
  0.049833  0.028771  0.084343      6.000000
  0.074750  0.043157  0.084343      6.000000
  0.099667  0.057543  0.084343      6.000000
  0.024917  0.043157  0.084343      6.000000
  0.049833  0.057543  0.084343     12.000000
  0.074750  0.071928  0.084343     12.000000
  0.099667  0.086314  0.084343      6.000000
  0.049833  0.086314  0.084343      6.000000
  0.074750  0.100700  0.084343     12.000000
  0.074750  0.129471  0.084343      2.000000
 


--------------------------------------------------------------------------------------------------------




 Dimension of arrays:
   k-points           NKPTS =     43   k-points in BZ     NKDIM =     43   number of bands    NBANDS=     16
   number of dos      NEDOS =    301   number of ions     NIONS =      3
   non local maximal  LDIM  =      5   non local SUM 2l+1 LMDIM =     13
   total plane-waves  NPLWV =  28224
   max r-space proj   IRMAX =      1   max aug-charges    IRDMAX=  16277
   dimension x,y,z NGX =    28 NGY =   28 NGZ =   36
   dimension x,y,z NGXF=    56 NGYF=   56 NGZF=   72
   support grid    NGXF=    56 NGYF=   56 NGZF=   72
   ions per type =               3
   NGX,Y,Z   is equivalent  to a cutoff of  10.44, 10.44, 10.10 a.u.
   NGXF,Y,Z  is equivalent  to a cutoff of  20.88, 20.88, 20.19 a.u.

 SYSTEM =  unknown system                          
 POSCAR =  Tellurium                               

 Startparameter for this run:
   NWRITE =      2    write-flag & timer
   PREC   = n         normal or accurate (medium, high low for compatibility)
   ISTART =      0    job   : 0-new  1-cont  2-samecut
   ICHARG =      2    charge: 1-file 2-atom 10-const
   ISPIN  =      1    spin polarized calculation?
   LNONCOLLINEAR =      F non collinear calculations
   LSORBIT =      F    spin-orbit coupling
   INIWAV =      1    electr: 0-lowe 1-rand  2-diag
   LASPH  =      F    aspherical Exc in radial PAW
   METAGGA=      F    non-selfconsistent MetaGGA calc.

 Electronic Relaxation 1
   ENCUT  =  520.0 eV  38.22 Ry    6.18 a.u.   8.29  8.29 11.02*2*pi/ulx,y,z
   ENINI  =  520.0     initial cutoff
   ENAUG  =  368.8 eV  augmentation charge cutoff
   NELM   =     80;   NELMIN=  2; NELMDL= -5     # of ELM steps 
   EDIFF  = 0.1E-04   stopping-criterion for ELM
   LREAL  =      F    real-space projection
   NLSPLINE    = F    spline interpolate recip. space projectors
   LCOMPAT=      F    compatible to vasp.4.4
   GGA_COMPAT  = T    GGA compatible to vasp.4.4-vasp.4.6
   LMAXPAW     = -100 max onsite density
   LMAXMIX     =    2 max onsite mixed and CHGCAR
   VOSKOWN=      0    Vosko Wilk Nusair interpolation
   ROPT   =    0.00000
 Ionic relaxation
   EDIFFG = -.1E-01   stopping-criterion for IOM
   NSW    =    100    number of steps for IOM
   NBLOCK =      1;   KBLOCK =    100    inner block; outer block 
   IBRION =      2    ionic relax: 0-MD 1-quasi-New 2-CG
   NFREE  =      1    steps in history (QN), initial steepest desc. (CG)
   ISIF   =      3    stress and relaxation
   IWAVPR =     11    prediction:  0-non 1-charg 2-wave 3-comb
   ISYM   =      2    0-nonsym 1-usesym 2-fastsym
   LCORR  =      T    Harris-Foulkes like correction to forces

   POTIM  = 0.5000    time-step for ionic-motion
   TEIN   =    0.0    initial temperature
   TEBEG  =    0.0;   TEEND  =   0.0 temperature during run
   SMASS  =  -3.00    Nose mass-parameter (am)
   estimated Nose-frequenzy (Omega)   =  0.10E-29 period in steps =****** mass=  -0.454E-27a.u.
   SCALEE = 1.0000    scale energy and forces
   NPACO  =    256;   APACO  = 16.0  distance and # of slots for P.C.
   PSTRESS=    0.0 pullay stress

  Mass of Ions in am
   POMASS = 127.60
  Ionic Valenz
   ZVAL   =   6.00
  Atomic Wigner-Seitz radii
   RWIGS  =  -1.00
  virtual crystal weights 
   VCA    =   1.00
   NELECT =      18.0000    total number of electrons
   NUPDOWN=      -1.0000    fix difference up-down

 DOS related values:
   EMIN   =  10.00;   EMAX   =-10.00  energy-range for DOS
   EFERMI =   0.00
   ISMEAR =     0;   SIGMA  =   0.05  broadening in eV -4-tet -1-fermi 0-gaus

 Electronic relaxation 2 (details)
   IALGO  =     38    algorithm
   LDIAG  =      T    sub-space diagonalisation (order eigenvalues)
   LSUBROT=      F    optimize rotation matrix (better conditioning)
   TURBO    =      0    0=normal 1=particle mesh
   IRESTART =      0    0=no restart 2=restart with 2 vectors
   NREBOOT  =      0    no. of reboots
   NMIN     =      0    reboot dimension
   EREF     =   0.00    reference energy to select bands
   IMIX   =      4    mixing-type and parameters
     AMIX     =   0.40;   BMIX     =  1.00
     AMIX_MAG =   1.60;   BMIX_MAG =  1.00
     AMIN     =   0.10
     WC   =   100.;   INIMIX=   1;  MIXPRE=   1;  MAXMIX= -45

 Intra band minimization:
   WEIMIN = 0.0010     energy-eigenvalue tresh-hold
   EBREAK =  0.16E-06  absolut break condition
   DEPER  =   0.30     relativ break condition  

   TIME   =   0.40     timestep for ELM

  volume/ion in A,a.u.               =      34.03       229.65
  Fermi-wavevector in a.u.,A,eV,Ry     =   0.917987  1.734745 11.465641  0.842701
  Thomas-Fermi vector in A             =   2.043018
 
 Write flags
   LWAVE        =      T    write WAVECAR
   LDOWNSAMPLE  =      F    k-point downsampling of WAVECAR
   LCHARG       =      T    write CHGCAR
   LVTOT        =      F    write LOCPOT, total local potential
   LVHAR        =      F    write LOCPOT, Hartree potential only
   LELF         =      F    write electronic localiz. function (ELF)
   LORBIT       =      0    0 simple, 1 ext, 2 COOP (PROOUT), +10 PAW based schemes


 Dipole corrections
   LMONO  =      F    monopole corrections only (constant potential shift)
   LDIPOL =      F    correct potential (dipole corrections)
   IDIPOL =      0    1-x, 2-y, 3-z, 4-all directions 
   EPSILON=  1.0000000 bulk dielectric constant

 Exchange correlation treatment:
   GGA     =    --    GGA type
   LEXCH   =     8    internal setting for exchange type
   VOSKOWN=      0    Vosko Wilk Nusair interpolation
   LHFCALC =     F    Hartree Fock is set to
   LHFONE  =     F    Hartree Fock one center treatment
   AEXX    =    0.0000 exact exchange contribution

 Linear response parameters
   LEPSILON=     F    determine dielectric tensor
   LRPA    =     F    only Hartree local field effects (RPA)
   LNABLA  =     F    use nabla operator in PAW spheres
   LVEL    =     F    velocity operator in full k-point grid
   LINTERFAST=   F  fast interpolation
   KINTER  =     0    interpolate to denser k-point grid
   CSHIFT  =0.1000    complex shift for real part using Kramers Kronig
   OMEGAMAX=  -1.0    maximum frequency
   DEG_THRESHOLD= 0.2000000E-02 threshold for treating states as degnerate
   RTIME   =   -0.100 relaxation time in fs
  (WPLASMAI=    0.000 imaginary part of plasma frequency in eV, 0.658/RTIME)
   DFIELD  = 0.0000000 0.0000000 0.0000000 field for delta impulse in time
 
 Orbital magnetization related:
   ORBITALMAG=     F  switch on orbital magnetization
   LCHIMAG   =     F  perturbation theory with respect to B field
   DQ        =  0.001000  dq finite difference perturbation B field
   LLRAUG    =     F  two centre corrections for induced B field



--------------------------------------------------------------------------------------------------------


 conjugate gradient relaxation of ions
 charge density and potential will be updated during run
 non-spin polarized calculation
 Variant of blocked Davidson
 Davidson routine will perform the subspace rotation
 perform sub-space diagonalisation
    after iterative eigenvector-optimisation
 modified Broyden-mixing scheme, WC =      100.0
 initial mixing is a Kerker type mixing with AMIX =  0.4000 and BMIX =      1.0000
 Hartree-type preconditioning will be used
 using additional bands            7
 reciprocal scheme for non local part
 use partial core corrections
 calculate Harris-corrections to forces 
   (improved forces if not selfconsistent)
 use gradient corrections 
 use of overlap-Matrix (Vanderbilt PP)
 Gauss-broadening in eV      SIGMA  =   0.05


--------------------------------------------------------------------------------------------------------


  energy-cutoff  :      520.00
  volume of cell :      102.09
      direct lattice vectors                 reciprocal lattice vectors
     4.459300041  0.000000000  0.000000000     0.224250441  0.129471052  0.000000000
    -2.229650021  3.861867119  0.000000000     0.000000000  0.258942105  0.000000000
     0.000000000  0.000000000  5.928199768     0.000000000  0.000000000  0.168685274

  length of vectors
     4.459300041  4.459300041  5.928199768     0.258942105  0.258942105  0.168685274


 
 k-points in units of 2pi/SCALE and weight: K-Spacing Value to Generate K-Mesh: 0.04
   0.00000000  0.00000000  0.00000000       0.003
   0.02491672  0.01438567  0.00000000       0.019
   0.04983343  0.02877134  0.00000000       0.019
   0.07475015  0.04315702  0.00000000       0.019
   0.09966686  0.05754269  0.00000000       0.019
   0.02491672  0.04315702  0.00000000       0.019
   0.04983343  0.05754269  0.00000000       0.037
   0.07475015  0.07192836  0.00000000       0.037
   0.09966686  0.08631403  0.00000000       0.019
   0.04983343  0.08631403  0.00000000       0.019
   0.07475015  0.10069971  0.00000000       0.037
   0.07475015  0.12947105  0.00000000       0.006
   0.00000000  0.00000000  0.04217132       0.006
   0.02491672  0.01438567  0.04217132       0.019
   0.04983343  0.02877134  0.04217132       0.019
   0.07475015  0.04315702  0.04217132       0.019
   0.09966686  0.05754269  0.04217132       0.019
  -0.09966686 -0.05754269  0.04217132       0.019
  -0.07475015 -0.04315702  0.04217132       0.019
  -0.04983343 -0.02877134  0.04217132       0.019
  -0.02491672 -0.01438567  0.04217132       0.019
   0.02491672  0.04315702  0.04217132       0.037
   0.04983343  0.05754269  0.04217132       0.037
   0.07475015  0.07192836  0.04217132       0.037
   0.09966686  0.08631403  0.04217132       0.037
  -0.09966686 -0.02877134  0.04217132       0.037
  -0.07475015 -0.01438567  0.04217132       0.037
   0.04983343  0.08631403  0.04217132       0.037
   0.07475015  0.10069971  0.04217132       0.037
   0.09966686  0.11508538  0.04217132       0.037
   0.07475015  0.12947105  0.04217132       0.012
   0.00000000  0.00000000  0.08434264       0.003
   0.02491672  0.01438567  0.08434264       0.019
   0.04983343  0.02877134  0.08434264       0.019
   0.07475015  0.04315702  0.08434264       0.019
   0.09966686  0.05754269  0.08434264       0.019
   0.02491672  0.04315702  0.08434264       0.019
   0.04983343  0.05754269  0.08434264       0.037
   0.07475015  0.07192836  0.08434264       0.037
   0.09966686  0.08631403  0.08434264       0.019
   0.04983343  0.08631403  0.08434264       0.019
   0.07475015  0.10069971  0.08434264       0.037
   0.07475015  0.12947105  0.08434264       0.006
 
 k-points in reciprocal lattice and weights: K-Spacing Value to Generate K-Mesh: 0.04
   0.00000000  0.00000000  0.00000000       0.003
   0.11111111  0.00000000  0.00000000       0.019
   0.22222222  0.00000000  0.00000000       0.019
   0.33333333 -0.00000000  0.00000000       0.019
   0.44444444  0.00000000  0.00000000       0.019
   0.11111111  0.11111111  0.00000000       0.019
   0.22222222  0.11111111  0.00000000       0.037
   0.33333333  0.11111111  0.00000000       0.037
   0.44444444  0.11111111  0.00000000       0.019
   0.22222222  0.22222222  0.00000000       0.019
   0.33333333  0.22222222  0.00000000       0.037
   0.33333333  0.33333333  0.00000000       0.006
   0.00000000  0.00000000  0.25000000       0.006
   0.11111111  0.00000000  0.25000000       0.019
   0.22222222  0.00000000  0.25000000       0.019
   0.33333333 -0.00000000  0.25000000       0.019
   0.44444444  0.00000000  0.25000000       0.019
  -0.44444444 -0.00000000  0.25000000       0.019
  -0.33333333  0.00000000  0.25000000       0.019
  -0.22222222 -0.00000000  0.25000000       0.019
  -0.11111111 -0.00000000  0.25000000       0.019
   0.11111111  0.11111111  0.25000000       0.037
   0.22222222  0.11111111  0.25000000       0.037
   0.33333333  0.11111111  0.25000000       0.037
   0.44444444  0.11111111  0.25000000       0.037
  -0.44444444  0.11111111  0.25000000       0.037
  -0.33333333  0.11111111  0.25000000       0.037
   0.22222222  0.22222222  0.25000000       0.037
   0.33333333  0.22222222  0.25000000       0.037
   0.44444444  0.22222222  0.25000000       0.037
   0.33333333  0.33333333  0.25000000       0.012
   0.00000000  0.00000000  0.50000000       0.003
   0.11111111  0.00000000  0.50000000       0.019
   0.22222222  0.00000000  0.50000000       0.019
   0.33333333 -0.00000000  0.50000000       0.019
   0.44444444  0.00000000  0.50000000       0.019
   0.11111111  0.11111111  0.50000000       0.019
   0.22222222  0.11111111  0.50000000       0.037
   0.33333333  0.11111111  0.50000000       0.037
   0.44444444  0.11111111  0.50000000       0.019
   0.22222222  0.22222222  0.50000000       0.019
   0.33333333  0.22222222  0.50000000       0.037
   0.33333333  0.33333333  0.50000000       0.006
 
 position of ions in fractional coordinates (direct lattice) 
   0.26196900  0.00000000  0.33333334
   0.00000000  0.26196900  0.66666669
   0.73803103  0.73803103  0.00000000
 
 position of ions in cartesian coordinates  (Angst):
   1.16819837  0.00000000  1.97606665
  -0.58409919  1.01168947  3.95213330
   1.64555090  2.85017777  0.00000000
 


--------------------------------------------------------------------------------------------------------


 k-point  1 :   0.0000 0.0000 0.0000  plane waves:    2729
 k-point  2 :   0.1111 0.0000 0.0000  plane waves:    2751
 k-point  3 :   0.2222 0.0000 0.0000  plane waves:    2738
 k-point  4 :   0.3333-0.0000 0.0000  plane waves:    2748
 k-point  5 :   0.4444 0.0000 0.0000  plane waves:    2734
 k-point  6 :   0.1111 0.1111 0.0000  plane waves:    2745
 k-point  7 :   0.2222 0.1111 0.0000  plane waves:    2742
 k-point  8 :   0.3333 0.1111 0.0000  plane waves:    2750
 k-point  9 :   0.4444 0.1111 0.0000  plane waves:    2738
 k-point 10 :   0.2222 0.2222 0.0000  plane waves:    2744
 k-point 11 :   0.3333 0.2222 0.0000  plane waves:    2737
 k-point 12 :   0.3333 0.3333 0.0000  plane waves:    2742
 k-point 13 :   0.0000 0.0000 0.2500  plane waves:    2752
 k-point 14 :   0.1111 0.0000 0.2500  plane waves:    2750
 k-point 15 :   0.2222 0.0000 0.2500  plane waves:    2757
 k-point 16 :   0.3333-0.0000 0.2500  plane waves:    2743
 k-point 17 :   0.4444 0.0000 0.2500  plane waves:    2751
 k-point 18 :  -0.4444-0.0000 0.2500  plane waves:    2751
 k-point 19 :  -0.3333 0.0000 0.2500  plane waves:    2743
 k-point 20 :  -0.2222-0.0000 0.2500  plane waves:    2757
 k-point 21 :  -0.1111-0.0000 0.2500  plane waves:    2750
 k-point 22 :   0.1111 0.1111 0.2500  plane waves:    2754
 k-point 23 :   0.2222 0.1111 0.2500  plane waves:    2751
 k-point 24 :   0.3333 0.1111 0.2500  plane waves:    2747
 k-point 25 :   0.4444 0.1111 0.2500  plane waves:    2745
 k-point 26 :  -0.4444 0.1111 0.2500  plane waves:    2747
 k-point 27 :  -0.3333 0.1111 0.2500  plane waves:    2751
 k-point 28 :   0.2222 0.2222 0.2500  plane waves:    2759
 k-point 29 :   0.3333 0.2222 0.2500  plane waves:    2751
 k-point 30 :   0.4444 0.2222 0.2500  plane waves:    2751
 k-point 31 :   0.3333 0.3333 0.2500  plane waves:    2751
 k-point 32 :   0.0000 0.0000 0.5000  plane waves:    2722
 k-point 33 :   0.1111 0.0000 0.5000  plane waves:    2780
 k-point 34 :   0.2222 0.0000 0.5000  plane waves:    2758
 k-point 35 :   0.3333-0.0000 0.5000  plane waves:    2746
 k-point 36 :   0.4444 0.0000 0.5000  plane waves:    2762
 k-point 37 :   0.1111 0.1111 0.5000  plane waves:    2760
 k-point 38 :   0.2222 0.1111 0.5000  plane waves:    2740
 k-point 39 :   0.3333 0.1111 0.5000  plane waves:    2740
 k-point 40 :   0.4444 0.1111 0.5000  plane waves:    2752
 k-point 41 :   0.2222 0.2222 0.5000  plane waves:    2732
 k-point 42 :   0.3333 0.2222 0.5000  plane waves:    2756
 k-point 43 :   0.3333 0.3333 0.5000  plane waves:    2766

 maximum and minimum number of plane-waves per node :      1406     1352

 maximum number of plane-waves:      2780
 maximum index in each direction: 
   IXMAX=    8   IYMAX=    8   IZMAX=   11
   IXMIN=   -8   IYMIN=   -8   IZMIN=  -11


 parallel 3D FFT for wavefunctions:
    minimum data exchange during FFTs selected (reduces bandwidth)
 parallel 3D FFT for charge:
    minimum data exchange during FFTs selected (reduces bandwidth)


 total amount of memory used by VASP MPI-rank0    43509. kBytes
=======================================================================

   base      :      30000. kBytes
   nonl-proj :       6255. kBytes
   fftplans  :       1403. kBytes
   grid      :       1950. kBytes
   one-center:         16. kBytes
   wavefun   :       3885. kBytes
 
     INWAV:  cpu time    0.0000: real time    0.0000
 Broyden mixing: mesh for mixing (old mesh)
   NGX = 17   NGY = 17   NGZ = 23
  (NGX  = 56   NGY  = 56   NGZ  = 72)
  gives a total of   6647 points

 initial charge density was supplied:
 charge density of overlapping atoms calculated
 number of electron      18.0000000 magnetization 
 keeping initial charge density in first step


--------------------------------------------------------------------------------------------------------


 Maximum index for augmentation-charges         1934 (set IRDMAX)


--------------------------------------------------------------------------------------------------------


 First call to EWALD:  gamma=   0.379
 Maximum number of real-space cells 3x 3x 2
 Maximum number of reciprocal cells 3x 3x 3

    FEWALD:  cpu time    0.0010: real time    0.0010


--------------------------------------- Iteration      1(   1)  ---------------------------------------


    POTLOK:  cpu time    0.0141: real time    0.0169
    SETDIJ:  cpu time    0.0024: real time    0.0024
     EDDAV:  cpu time    0.2888: real time    0.2895
       DOS:  cpu time    0.0005: real time    0.0005
    --------------------------------------------
      LOOP:  cpu time    0.3059: real time    0.3094

 eigenvalue-minimisations  :  1376
 total energy-change (2. order) : 0.7305594E+02  (-0.6457892E+03)
 number of electron      18.0000000 magnetization 
 augmentation part       18.0000000 magnetization 

 Free energy of the ion-electron system (eV)
  ---------------------------------------------------
  alpha Z        PSCENC =         2.28965292
  Ewald energy   TEWEN  =      -672.62417676
  -Hartree energ DENC   =       -44.61341497
  -exchange      EXHF   =         0.00000000
  -V(xc)+E(xc)   XCENC  =       -84.05205210
  PAW double counting   =       623.23253030     -507.77874573
  entropy T*S    EENTRO =        -0.00049000
  eigenvalues    EBANDS =        86.78832936
  atomic energy  EATOM  =       669.81430600
  Solvation  Ediel_sol  =         0.00000000
  ---------------------------------------------------
  free energy    TOTEN  =        73.05593903 eV

  energy without entropy =       73.05642903  energy(sigma->0) =       73.05618403


--------------------------------------------------------------------------------------------------------




--------------------------------------- Iteration      1(   2)  ---------------------------------------


     EDDAV:  cpu time    0.3484: real time    0.3495
       DOS:  cpu time    0.0005: real time    0.0005
    --------------------------------------------
      LOOP:  cpu time    0.3489: real time    0.3499

 eigenvalue-minimisations  :  1800
 total energy-change (2. order) :-0.7766058E+02  (-0.7351931E+02)
 number of electron      18.0000000 magnetization 
 augmentation part       18.0000000 magnetization 

 Free energy of the ion-electron system (eV)
  ---------------------------------------------------
  alpha Z        PSCENC =         2.28965292
  Ewald energy   TEWEN  =      -672.62417676
  -Hartree energ DENC   =       -44.61341497
  -exchange      EXHF   =         0.00000000
  -V(xc)+E(xc)   XCENC  =       -84.05205210
  PAW double counting   =       623.23253030     -507.77874573
  entropy T*S    EENTRO =        -0.00006788
  eigenvalues    EBANDS =         9.12732930
  atomic energy  EATOM  =       669.81430600
  Solvation  Ediel_sol  =         0.00000000
  ---------------------------------------------------
  free energy    TOTEN  =        -4.60463891 eV

  energy without entropy =       -4.60457103  energy(sigma->0) =       -4.60460497


--------------------------------------------------------------------------------------------------------




--------------------------------------- Iteration      1(   3)  ---------------------------------------


     EDDAV:  cpu time    0.3260: real time    0.3268
       DOS:  cpu time    0.0010: real time    0.2133
    --------------------------------------------
      LOOP:  cpu time    0.3270: real time    0.5401

 eigenvalue-minimisations  :  1672
 total energy-change (2. order) :-0.4728212E+01  (-0.4703952E+01)
 number of electron      18.0000000 magnetization 
 augmentation part       18.0000000 magnetization 

 Free energy of the ion-electron system (eV)
  ---------------------------------------------------
  alpha Z        PSCENC =         2.28965292
  Ewald energy   TEWEN  =      -672.62417676
  -Hartree energ DENC   =       -44.61341497
  -exchange      EXHF   =         0.00000000
  -V(xc)+E(xc)   XCENC  =       -84.05205210
  PAW double counting   =       623.23253030     -507.77874573
  entropy T*S    EENTRO =        -0.00000117
  eigenvalues    EBANDS =         4.39905064
  atomic energy  EATOM  =       669.81430600
  Solvation  Ediel_sol  =         0.00000000
  ---------------------------------------------------
  free energy    TOTEN  =        -9.33285086 eV

  energy without entropy =       -9.33284969  energy(sigma->0) =       -9.33285027


--------------------------------------------------------------------------------------------------------




--------------------------------------- Iteration      1(   4)  ---------------------------------------


     EDDAV:  cpu time    0.4370: real time    0.4380
       DOS:  cpu time    0.0004: real time    0.0004
    --------------------------------------------
      LOOP:  cpu time    0.4374: real time    0.4384

 eigenvalue-minimisations  :  2144
 total energy-change (2. order) :-0.8435935E-01  (-0.8435251E-01)
 number of electron      18.0000000 magnetization 
 augmentation part       18.0000000 magnetization 

 Free energy of the ion-electron system (eV)
  ---------------------------------------------------
  alpha Z        PSCENC =         2.28965292
  Ewald energy   TEWEN  =      -672.62417676
  -Hartree energ DENC   =       -44.61341497
  -exchange      EXHF   =         0.00000000
  -V(xc)+E(xc)   XCENC  =       -84.05205210
  PAW double counting   =       623.23253030     -507.77874573
  entropy T*S    EENTRO =        -0.00000111
  eigenvalues    EBANDS =         4.31469124
  atomic energy  EATOM  =       669.81430600
  Solvation  Ediel_sol  =         0.00000000
  ---------------------------------------------------
  free energy    TOTEN  =        -9.41721021 eV

  energy without entropy =       -9.41720909  energy(sigma->0) =       -9.41720965


--------------------------------------------------------------------------------------------------------




--------------------------------------- Iteration      1(   5)  ---------------------------------------


     EDDAV:  cpu time    0.3592: real time    0.3601
       DOS:  cpu time    0.0005: real time    0.0005
    CHARGE:  cpu time    0.0220: real time    0.0220
    MIXING:  cpu time    0.0008: real time    0.0008
    --------------------------------------------
      LOOP:  cpu time    0.3824: real time    0.3834

 eigenvalue-minimisations  :  1760
 total energy-change (2. order) :-0.1027754E-02  (-0.1027749E-02)
 number of electron      17.9999998 magnetization 
 augmentation part       -3.6016850 magnetization 

 Broyden mixing:
  rms(total) = 0.12420E+01    rms(broyden)= 0.12420E+01
  rms(prec ) = 0.12609E+01
  weight for this iteration     100.00

 Free energy of the ion-electron system (eV)
  ---------------------------------------------------
  alpha Z        PSCENC =         2.28965292
  Ewald energy   TEWEN  =      -672.62417676
  -Hartree energ DENC   =       -44.61341497
  -exchange      EXHF   =         0.00000000
  -V(xc)+E(xc)   XCENC  =       -84.05205210
  PAW double counting   =       623.23253030     -507.77874573
  entropy T*S    EENTRO =        -0.00000111
  eigenvalues    EBANDS =         4.31366348
  atomic energy  EATOM  =       669.81430600
  Solvation  Ediel_sol  =         0.00000000
  ---------------------------------------------------
  free energy    TOTEN  =        -9.41823796 eV

  energy without entropy =       -9.41823685  energy(sigma->0) =       -9.41823740


--------------------------------------------------------------------------------------------------------




--------------------------------------- Iteration      1(   6)  ---------------------------------------


    POTLOK:  cpu time    0.0118: real time    0.0118
    SETDIJ:  cpu time    0.0023: real time    0.0023
     EDDAV:  cpu time    0.3675: real time    0.3684
       DOS:  cpu time    0.0004: real time    0.0004
    CHARGE:  cpu time    0.0206: real time    0.0206
    MIXING:  cpu time    0.0006: real time    0.0006
    --------------------------------------------
      LOOP:  cpu time    0.4033: real time    0.4043

 eigenvalue-minimisations  :  1816
 total energy-change (2. order) : 0.2243840E-01  (-0.1957187E-02)
 number of electron      17.9999998 magnetization 
 augmentation part       -3.6057392 magnetization 

 Broyden mixing:
  rms(total) = 0.78697E+00    rms(broyden)= 0.78697E+00
  rms(prec ) = 0.79717E+00
  weight for this iteration     100.00

 eigenvalues of (default mixing * dielectric matrix)
  average eigenvalue GAMMA=   2.7247
  2.7247

 Free energy of the ion-electron system (eV)
  ---------------------------------------------------
  alpha Z        PSCENC =         2.28965292
  Ewald energy   TEWEN  =      -672.62417676
  -Hartree energ DENC   =       -44.59643918
  -exchange      EXHF   =         0.00000000
  -V(xc)+E(xc)   XCENC  =       -84.00376474
  PAW double counting   =       928.53070101     -813.12878756
  entropy T*S    EENTRO =        -0.00001193
  eigenvalues    EBANDS =         4.32272067
  atomic energy  EATOM  =       669.81430600
  Solvation  Ediel_sol  =         0.00000000
  ---------------------------------------------------
  free energy    TOTEN  =        -9.39579957 eV

  energy without entropy =       -9.39578764  energy(sigma->0) =       -9.39579360


--------------------------------------------------------------------------------------------------------




--------------------------------------- Iteration      1(   7)  ---------------------------------------


    POTLOK:  cpu time    0.0107: real time    0.0107
    SETDIJ:  cpu time    0.0021: real time    0.0021
     EDDAV:  cpu time    0.3386: real time    0.3394
       DOS:  cpu time    0.0005: real time    0.0005
    CHARGE:  cpu time    0.0205: real time    0.0206
    MIXING:  cpu time    0.0006: real time    0.0006
    --------------------------------------------
      LOOP:  cpu time    0.3730: real time    0.3739

 eigenvalue-minimisations  :  1648
 total energy-change (2. order) : 0.4107900E-02  (-0.4310651E-02)
 number of electron      17.9999998 magnetization 
 augmentation part       -3.6099376 magnetization 

 Broyden mixing:
  rms(total) = 0.31137E-01    rms(broyden)= 0.31137E-01
  rms(prec ) = 0.41577E-01
  weight for this iteration     100.00

 eigenvalues of (default mixing * dielectric matrix)
  average eigenvalue GAMMA=   2.0920
  1.7216  2.4623

 Free energy of the ion-electron system (eV)
  ---------------------------------------------------
  alpha Z        PSCENC =         2.28965292
  Ewald energy   TEWEN  =      -672.62417676
  -Hartree energ DENC   =       -44.79279895
  -exchange      EXHF   =         0.00000000
  -V(xc)+E(xc)   XCENC  =       -83.90154329
  PAW double counting   =      1633.61340108    -1518.29249272
  entropy T*S    EENTRO =        -0.00009338
  eigenvalues    EBANDS =         4.50205344
  atomic energy  EATOM  =       669.81430600
  Solvation  Ediel_sol  =         0.00000000
  ---------------------------------------------------
  free energy    TOTEN  =        -9.39169167 eV

  energy without entropy =       -9.39159829  energy(sigma->0) =       -9.39164498


--------------------------------------------------------------------------------------------------------




--------------------------------------- Iteration      1(   8)  ---------------------------------------


    POTLOK:  cpu time    0.0107: real time    0.0107
    SETDIJ:  cpu time    0.0021: real time    0.0021
     EDDAV:  cpu time    0.3218: real time    0.3226
       DOS:  cpu time    0.0005: real time    0.0005
    CHARGE:  cpu time    0.0205: real time    0.0205
    MIXING:  cpu time    0.0006: real time    0.0006
    --------------------------------------------
      LOOP:  cpu time    0.3561: real time    0.3570

 eigenvalue-minimisations  :  1544
 total energy-change (2. order) : 0.8230883E-03  (-0.8036704E-03)
 number of electron      17.9999998 magnetization 
 augmentation part       -3.6085024 magnetization 

 Broyden mixing:
  rms(total) = 0.18741E-01    rms(broyden)= 0.18741E-01
  rms(prec ) = 0.19301E-01
  weight for this iteration     100.00

 eigenvalues of (default mixing * dielectric matrix)
  average eigenvalue GAMMA=   1.4995
  2.4835  1.5463  0.4688

 Free energy of the ion-electron system (eV)
  ---------------------------------------------------
  alpha Z        PSCENC =         2.28965292
  Ewald energy   TEWEN  =      -672.62417676
  -Hartree energ DENC   =       -44.85319254
  -exchange      EXHF   =         0.00000000
  -V(xc)+E(xc)   XCENC  =       -83.90745659
  PAW double counting   =      1584.64266699    -1469.31347777
  entropy T*S    EENTRO =        -0.00004757
  eigenvalues    EBANDS =         4.56085674
  atomic energy  EATOM  =       669.81430600
  Solvation  Ediel_sol  =         0.00000000
  ---------------------------------------------------
  free energy    TOTEN  =        -9.39086858 eV

  energy without entropy =       -9.39082101  energy(sigma->0) =       -9.39084479


--------------------------------------------------------------------------------------------------------




--------------------------------------- Iteration      1(   9)  ---------------------------------------


    POTLOK:  cpu time    0.0107: real time    0.0107
    SETDIJ:  cpu time    0.0021: real time    0.0021
     EDDAV:  cpu time    0.4005: real time    0.4014
       DOS:  cpu time    0.0005: real time    0.0005
    CHARGE:  cpu time    0.0218: real time    0.0219
    MIXING:  cpu time    0.0010: real time    0.0010
    --------------------------------------------
      LOOP:  cpu time    0.4366: real time    0.4377

 eigenvalue-minimisations  :  2056
 total energy-change (2. order) :-0.3322216E-04  (-0.2343363E-04)
 number of electron      17.9999998 magnetization 
 augmentation part       -3.6086256 magnetization 

 Broyden mixing:
  rms(total) = 0.13099E-01    rms(broyden)= 0.13099E-01
  rms(prec ) = 0.13607E-01
  weight for this iteration     100.00

 eigenvalues of (default mixing * dielectric matrix)
  average eigenvalue GAMMA=   1.8942
  2.5145  1.3723  1.8449  1.8449

 Free energy of the ion-electron system (eV)
  ---------------------------------------------------
  alpha Z        PSCENC =         2.28965292
  Ewald energy   TEWEN  =      -672.62417676
  -Hartree energ DENC   =       -44.85103791
  -exchange      EXHF   =         0.00000000
  -V(xc)+E(xc)   XCENC  =       -83.90715732
  PAW double counting   =      1580.70648633    -1465.37723047
  entropy T*S    EENTRO =        -0.00004861
  eigenvalues    EBANDS =         4.55830402
  atomic energy  EATOM  =       669.81430600
  Solvation  Ediel_sol  =         0.00000000
  ---------------------------------------------------
  free energy    TOTEN  =        -9.39090180 eV

  energy without entropy =       -9.39085319  energy(sigma->0) =       -9.39087750


--------------------------------------------------------------------------------------------------------




--------------------------------------- Iteration      1(  10)  ---------------------------------------


    POTLOK:  cpu time    0.0134: real time    0.0137
    SETDIJ:  cpu time    0.0023: real time    0.0023
     EDDAV:  cpu time    0.3414: real time    0.3422
       DOS:  cpu time    0.0005: real time    0.0005
    CHARGE:  cpu time    0.0211: real time    0.0212
    MIXING:  cpu time    0.0007: real time    0.0007
    --------------------------------------------
      LOOP:  cpu time    0.3794: real time    0.3806

 eigenvalue-minimisations  :  1656
 total energy-change (2. order) :-0.4860176E-04  (-0.5403059E-05)
 number of electron      17.9999998 magnetization 
 augmentation part       -3.6088117 magnetization 

 Broyden mixing:
  rms(total) = 0.24766E-02    rms(broyden)= 0.24766E-02
  rms(prec ) = 0.34050E-02
  weight for this iteration     100.00

 eigenvalues of (default mixing * dielectric matrix)
  average eigenvalue GAMMA=   1.7482
  2.5965  2.5255  1.5009  1.2425  0.8757

 Free energy of the ion-electron system (eV)
  ---------------------------------------------------
  alpha Z        PSCENC =         2.28965292
  Ewald energy   TEWEN  =      -672.62417676
  -Hartree energ DENC   =       -44.86012617
  -exchange      EXHF   =         0.00000000
  -V(xc)+E(xc)   XCENC  =       -83.90452291
  PAW double counting   =      1575.40581931    -1460.07678243
  entropy T*S    EENTRO =        -0.00005047
  eigenvalues    EBANDS =         4.56493012
  atomic energy  EATOM  =       669.81430600
  Solvation  Ediel_sol  =         0.00000000
  ---------------------------------------------------
  free energy    TOTEN  =        -9.39095040 eV

  energy without entropy =       -9.39089993  energy(sigma->0) =       -9.39092516


--------------------------------------------------------------------------------------------------------




--------------------------------------- Iteration      1(  11)  ---------------------------------------


    POTLOK:  cpu time    0.0112: real time    0.0112
    SETDIJ:  cpu time    0.0022: real time    0.0022
     EDDAV:  cpu time    0.2925: real time    0.2932
       DOS:  cpu time    0.0005: real time    0.0005
    --------------------------------------------
      LOOP:  cpu time    0.3063: real time    0.3071

 eigenvalue-minimisations  :  1312
 total energy-change (2. order) : 0.7248058E-05  (-0.2002219E-05)
 number of electron      17.9999998 magnetization 
 augmentation part       -3.6088117 magnetization 

 Free energy of the ion-electron system (eV)
  ---------------------------------------------------
  alpha Z        PSCENC =         2.28965292
  Ewald energy   TEWEN  =      -672.62417676
  -Hartree energ DENC   =       -44.86885533
  -exchange      EXHF   =         0.00000000
  -V(xc)+E(xc)   XCENC  =       -83.90416365
  PAW double counting   =      1573.66289995    -1458.33354363
  entropy T*S    EENTRO =        -0.00004783
  eigenvalues    EBANDS =         4.57298518
  atomic energy  EATOM  =       669.81430600
  Solvation  Ediel_sol  =         0.00000000
  ---------------------------------------------------
  free energy    TOTEN  =        -9.39094315 eV

  energy without entropy =       -9.39089533  energy(sigma->0) =       -9.39091924


--------------------------------------------------------------------------------------------------------




 average (electrostatic) potential at core
  the test charge radii are     1.1897
  (the norm of the test charge is              1.0000)
       1 -89.0485       2 -89.0485       3 -89.0485
 
 
 
 E-fermi :   5.9806     XC(G=0):  -9.0462     alpha+bet :-10.5335


 k-point     1 :       0.0000    0.0000    0.0000
  band No.  band energies     occupation 
      1      -7.7597      2.00000
      2      -4.4175      2.00000
      3      -4.4175      2.00000
      4       2.8125      2.00000
      5       3.0985      2.00000
      6       3.0985      2.00000
      7       4.2559      2.00000
      8       4.2559      2.00000
      9       5.1843      2.00000
     10       6.9402      0.00000
     11       6.9402      0.00000
     12       7.5823      0.00000
     13      10.8391      0.00000
     14      10.8391      0.00000
     15      11.8001      0.00000
     16      12.2473      0.00000

 k-point     2 :       0.1111    0.0000    0.0000
  band No.  band energies     occupation 
      1      -7.6794      2.00000
      2      -4.4416      2.00000
      3      -4.3931      2.00000
      4       2.2025      2.00000
      5       2.6988      2.00000
      6       2.9644      2.00000
      7       4.4807      2.00000
      8       4.7882      2.00000
      9       5.2687      2.00000
     10       6.7222      0.00000
     11       6.8959      0.00000
     12       7.4967      0.00000
     13      10.6462      0.00000
     14      10.8089      0.00000
     15      11.9731      0.00000
     16      12.2204      0.00000

 k-point     3 :       0.2222    0.0000    0.0000
  band No.  band energies     occupation 
      1      -7.4509      2.00000
      2      -4.5490      2.00000
      3      -4.3271      2.00000
      4       1.4319      2.00000
      5       2.1417      2.00000
      6       2.6310      2.00000
      7       4.5459      2.00000
      8       4.8635      2.00000
      9       5.0814      2.00000
     10       6.8396      0.00000
     11       7.0274      0.00000
     12       7.6963      0.00000
     13       9.9590      0.00000
     14      11.0438      0.00000
     15      12.2104      0.00000
     16      12.7790      0.00000

 k-point     4 :       0.3333   -0.0000    0.0000
  band No.  band energies     occupation 
      1      -7.1232      2.00000
      2      -4.7835      2.00000
      3      -4.2448      2.00000
      4       1.0454      2.00000
      5       1.7015      2.00000
      6       2.3495      2.00000
      7       3.5492      2.00000
      8       4.8488      2.00000
      9       5.0748      2.00000
     10       6.8563      0.00000
     11       7.0331      0.00000
     12       8.7380      0.00000
     13       9.3388      0.00000
     14      11.8198      0.00000
     15      12.9574      0.00000
     16      13.6808      0.00000

 k-point     5 :       0.4444    0.0000    0.0000
  band No.  band energies     occupation 
      1      -6.8325      2.00000
      2      -5.0424      2.00000
      3      -4.1868      2.00000
      4       0.9969      2.00000
      5       1.4928      2.00000
      6       2.2888      2.00000
      7       2.6848      2.00000
      8       4.7793      2.00000
      9       5.0538      2.00000
     10       6.8563      0.00000
     11       6.9770      0.00000
     12       9.0038      0.00000
     13       9.5585      0.00000
     14      12.9093      0.00000
     15      14.1642      0.00000
     16      14.5709      0.00000

 k-point     6 :       0.1111    0.1111    0.0000
  band No.  band energies     occupation 
      1      -7.5247      2.00000
      2      -4.4936      2.00000
      3      -4.3630      2.00000
      4       1.6812      2.00000
      5       2.0449      2.00000
      6       3.0074      2.00000
      7       4.3466      2.00000
      8       5.0440      2.00000
      9       5.1051      2.00000
     10       6.7741      0.00000
     11       7.0669      0.00000
     12       7.5683      0.00000
     13      10.4170      0.00000
     14      10.5406      0.00000
     15      12.2525      0.00000
     16      12.5562      0.00000

 k-point     7 :       0.2222    0.1111    0.0000
  band No.  band energies     occupation 
      1      -7.2433      2.00000
      2      -4.6417      2.00000
      3      -4.3230      2.00000
      4       1.2077      2.00000
      5       1.6080      2.00000
      6       2.7376      2.00000
      7       4.0600      2.00000
      8       4.4250      2.00000
      9       4.8060      2.00000
     10       7.2012      0.00000
     11       7.4748      0.00000
     12       8.1018      0.00000
     13       9.8859      0.00000
     14      10.8125      0.00000
     15      12.8393      0.00000
     16      13.2579      0.00000

 k-point     8 :       0.3333    0.1111    0.0000
  band No.  band energies     occupation 
      1      -6.9182      2.00000
      2      -4.8922      2.00000
      3      -4.2826      2.00000
      4       1.0484      2.00000
      5       1.4460      2.00000
      6       2.4229      2.00000
      7       3.1242      2.00000
      8       4.3574      2.00000
      9       4.5771      2.00000
     10       7.2906      0.00000
     11       7.5708      0.00000
     12       9.1131      0.00000
     13       9.4862      0.00000
     14      11.7172      0.00000
     15      13.7851      0.00000
     16      14.1308      0.00000

 k-point     9 :       0.4444    0.1111    0.0000
  band No.  band energies     occupation 
      1      -6.7505      2.00000
      2      -5.0426      2.00000
      3      -4.2652      2.00000
      4       1.0637      2.00000
      5       1.4363      2.00000
      6       2.4552      2.00000
      7       2.5100      2.00000
      8       4.3472      2.00000
      9       4.4906      2.00000
     10       7.2859      0.00000
     11       7.5954      0.00000
     12       9.3405      0.00000
     13       9.5853      0.00000
     14      12.6511      0.00000
     15      13.7163      0.00000
     16      14.7060      0.00000

 k-point    10 :       0.2222    0.2222    0.0000
  band No.  band energies     occupation 
      1      -6.9540      2.00000
      2      -4.7570      2.00000
      3      -4.4007      2.00000
      4       1.1670      2.00000
      5       1.2922      2.00000
      6       2.7082      2.00000
      7       3.5712      2.00000
      8       3.9196      2.00000
      9       3.9833      2.00000
     10       7.8986      0.00000
     11       8.2270      0.00000
     12       8.4573      0.00000
     13      10.2245      0.00000
     14      10.6642      0.00000
     15      13.1350      0.00000
     16      14.2990      0.00000

 k-point    11 :       0.3333    0.2222    0.0000
  band No.  band energies     occupation 
      1      -6.7110      2.00000
      2      -4.8879      2.00000
      3      -4.4768      2.00000
      4       1.2036      2.00000
      5       1.3496      2.00000
      6       2.5809      2.00000
      7       2.8989      2.00000
      8       3.6104      2.00000
      9       3.7150      2.00000
     10       8.1256      0.00000
     11       8.4952      0.00000
     12       9.1902      0.00000
     13      10.2004      0.00000
     14      11.5039      0.00000
     15      13.1160      0.00000
     16      14.0042      0.00000

 k-point    12 :       0.3333    0.3333    0.0000
  band No.  band energies     occupation 
      1      -6.6204      2.00000
      2      -4.7291      2.00000
      3      -4.7291      2.00000
      4       1.3425      2.00000
      5       1.3425      2.00000
      6       2.8585      2.00000
      7       2.8585      2.00000
      8       3.0452      2.00000
      9       3.3023      2.00000
     10       8.7843      0.00000
     11       8.7843      0.00000
     12       9.1507      0.00000
     13      10.7317      0.00000
     14      11.8236      0.00000
     15      11.8236      0.00000
     16      14.3923      0.00000

 k-point    13 :       0.0000    0.0000    0.2500
  band No.  band energies     occupation 
      1      -7.5323      2.00000
      2      -5.7900      2.00000
      3      -2.9964      2.00000
      4       2.3528      2.00000
      5       2.9474      2.00000
      6       3.3961      2.00000
      7       4.4215      2.00000
      8       4.4278      2.00000
      9       5.1095      2.00000
     10       6.6509      0.00000
     11       6.6671      0.00000
     12       7.0895      0.00000
     13      10.3232      0.00000
     14      11.4036      0.00000
     15      11.8549      0.00000
     16      11.9539      0.00000

 k-point    14 :       0.1111    0.0000    0.2500
  band No.  band energies     occupation 
      1      -7.4552      2.00000
      2      -5.7403      2.00000
      3      -3.0977      2.00000
      4       2.0874      2.00000
      5       2.7724      2.00000
      6       3.2491      2.00000
      7       4.1860      2.00000
      8       4.5301      2.00000
      9       4.7801      2.00000
     10       6.9063      0.00000
     11       7.0337      0.00000
     12       7.4216      0.00000
     13      10.4092      0.00000
     14      11.3640      0.00000
     15      11.5117      0.00000
     16      12.0188      0.00000

 k-point    15 :       0.2222    0.0000    0.2500
  band No.  band energies     occupation 
      1      -7.2394      2.00000
      2      -5.5994      2.00000
      3      -3.4146      2.00000
      4       1.7217      2.00000
      5       2.3633      2.00000
      6       2.9927      2.00000
      7       3.5248      2.00000
      8       4.1447      2.00000
      9       4.7010      2.00000
     10       7.2142      0.00000
     11       7.7913      0.00000
     12       8.2342      0.00000
     13      10.6798      0.00000
     14      11.0999      0.00000
     15      11.5794      0.00000
     16      12.2427      0.00000

 k-point    16 :       0.3333   -0.0000    0.2500
  band No.  band energies     occupation 
      1      -6.9368      2.00000
      2      -5.4275      2.00000
      3      -3.8458      2.00000
      4       1.3987      2.00000
      5       1.8055      2.00000
      6       2.6739      2.00000
      7       3.0978      2.00000
      8       4.1233      2.00000
      9       4.5934      2.00000
     10       7.2602      0.00000
     11       7.9645      0.00000
     12       9.0631      0.00000
     13      10.3051      0.00000
     14      11.5405      0.00000
     15      12.1448      0.00000
     16      12.9578      0.00000

 k-point    17 :       0.4444    0.0000    0.2500
  band No.  band energies     occupation 
      1      -6.6674      2.00000
      2      -5.3853      2.00000
      3      -4.0870      2.00000
      4       0.8806      2.00000
      5       1.4830      2.00000
      6       2.3921      2.00000
      7       3.4988      2.00000
      8       4.1424      2.00000
      9       4.5061      2.00000
     10       7.1601      0.00000
     11       7.9332      0.00000
     12       8.9222      0.00000
     13       9.9001      0.00000
     14      11.9248      0.00000
     15      13.5877      0.00000
     16      14.0271      0.00000

 k-point    18 :      -0.4444   -0.0000    0.2500
  band No.  band energies     occupation 
      1      -6.6441      2.00000
      2      -5.4900      2.00000
      3      -3.9396      2.00000
      4       0.5824      2.00000
      5       1.3904      2.00000
      6       2.3552      2.00000
      7       4.1325      2.00000
      8       4.2512      2.00000
      9       4.6320      2.00000
     10       7.0466      0.00000
     11       7.7523      0.00000
     12       8.2072      0.00000
     13       9.6182      0.00000
     14      12.4160      0.00000
     15      13.9244      0.00000
     16      14.5086      0.00000

 k-point    19 :      -0.3333    0.0000    0.2500
  band No.  band energies     occupation 
      1      -6.9109      2.00000
      2      -5.5583      2.00000
      3      -3.6139      2.00000
      4       0.7815      2.00000
      5       1.4883      2.00000
      6       2.5057      2.00000
      7       4.4141      2.00000
      8       4.4705      2.00000
      9       5.3422      2.00000
     10       6.7689      0.00000
     11       7.3942      0.00000
     12       7.5923      0.00000
     13       9.5021      0.00000
     14      12.4334      0.00000
     15      13.0009      0.00000
     16      13.7343      0.00000

 k-point    20 :      -0.2222   -0.0000    0.2500
  band No.  band energies     occupation 
      1      -7.2302      2.00000
      2      -5.6482      2.00000
      3      -3.2983      2.00000
      4       1.4589      2.00000
      5       1.7885      2.00000
      6       2.7975      2.00000
      7       4.6026      2.00000
      8       4.7666      2.00000
      9       5.4392      2.00000
     10       6.5811      0.00000
     11       7.0650      0.00000
     12       7.3331      0.00000
     13       9.6671      0.00000
     14      11.9376      0.00000
     15      12.1310      0.00000
     16      12.6238      0.00000

 k-point    21 :      -0.1111   -0.0000    0.2500
  band No.  band energies     occupation 
      1      -7.4540      2.00000
      2      -5.7467      2.00000
      3      -3.0789      2.00000
      4       2.1095      2.00000
      5       2.4808      2.00000
      6       3.1594      2.00000
      7       4.6311      2.00000
      8       4.6774      2.00000
      9       5.0210      2.00000
     10       6.6399      0.00000
     11       6.6645      0.00000
     12       7.4185      0.00000
     13      10.1281      0.00000
     14      11.4105      0.00000
     15      11.6847      0.00000
     16      12.1974      0.00000

 k-point    22 :       0.1111    0.1111    0.2500
  band No.  band energies     occupation 
      1      -7.3056      2.00000
      2      -5.6601      2.00000
      3      -3.2694      2.00000
      4       1.7623      2.00000
      5       2.1116      2.00000
      6       3.0159      2.00000
      7       4.0221      2.00000
      8       4.6206      2.00000
      9       5.0496      2.00000
     10       6.8398      0.00000
     11       7.4021      0.00000
     12       7.6260      0.00000
     13      10.1586      0.00000
     14      11.3910      0.00000
     15      11.7731      0.00000
     16      12.1525      0.00000

 k-point    23 :       0.2222    0.1111    0.2500
  band No.  band energies     occupation 
      1      -7.0421      2.00000
      2      -5.5047      2.00000
      3      -3.6510      2.00000
      4       1.4133      2.00000
      5       1.8229      2.00000
      6       2.8347      2.00000
      7       3.1395      2.00000
      8       4.2356      2.00000
      9       5.1624      2.00000
     10       6.9997      0.00000
     11       7.7520      0.00000
     12       8.6750      0.00000
     13      10.4909      0.00000
     14      10.9872      0.00000
     15      12.0577      0.00000
     16      12.8277      0.00000

 k-point    24 :       0.3333    0.1111    0.2500
  band No.  band energies     occupation 
      1      -6.7439      2.00000
      2      -5.3780      2.00000
      3      -4.0284      2.00000
      4       1.1189      2.00000
      5       1.3929      2.00000
      6       2.4999      2.00000
      7       3.1625      2.00000
      8       3.9214      2.00000
      9       5.1700      2.00000
     10       6.9451      0.00000
     11       8.0676      0.00000
     12       9.0613      0.00000
     13      10.1710      0.00000
     14      11.6334      0.00000
     15      12.5888      0.00000
     16      13.5460      0.00000

 k-point    25 :       0.4444    0.1111    0.2500
  band No.  band energies     occupation 
      1      -6.5790      2.00000
      2      -5.4170      2.00000
      3      -4.0926      2.00000
      4       0.7160      2.00000
      5       1.2661      2.00000
      6       2.3905      2.00000
      7       3.3827      2.00000
      8       4.0656      2.00000
      9       5.1667      2.00000
     10       6.8801      0.00000
     11       8.1196      0.00000
     12       8.5755      0.00000
     13       9.9570      0.00000
     14      12.2816      0.00000
     15      13.5083      0.00000
     16      13.8432      0.00000

 k-point    26 :      -0.4444    0.1111    0.2500
  band No.  band energies     occupation 
      1      -6.7200      2.00000
      2      -5.4926      2.00000
      3      -3.8566      2.00000
      4       0.6479      2.00000
      5       1.3936      2.00000
      6       2.4317      2.00000
      7       3.4373      2.00000
      8       4.7518      2.00000
      9       5.2500      2.00000
     10       6.7733      0.00000
     11       7.6754      0.00000
     12       8.1563      0.00000
     13       9.8511      0.00000
     14      12.2157      0.00000
     15      12.9496      0.00000
     16      14.0802      0.00000

 k-point    27 :      -0.3333    0.1111    0.2500
  band No.  band energies     occupation 
      1      -7.0315      2.00000
      2      -5.5599      2.00000
      3      -3.5421      2.00000
      4       1.0850      2.00000
      5       1.6452      2.00000
      6       2.6596      2.00000
      7       3.6429      2.00000
      8       4.9254      2.00000
      9       5.5768      2.00000
     10       6.5411      0.00000
     11       7.2934      0.00000
     12       7.9797      0.00000
     13       9.8663      0.00000
     14      11.6077      0.00000
     15      12.3904      0.00000
     16      13.2043      0.00000

 k-point    28 :       0.2222    0.2222    0.2500
  band No.  band energies     occupation 
      1      -6.7636      2.00000
      2      -5.4331      2.00000
      3      -3.9112      2.00000
      4       0.8846      2.00000
      5       1.4864      2.00000
      6       2.4321      2.00000
      7       2.9885      2.00000
      8       4.5523      2.00000
      9       5.4372      2.00000
     10       6.8643      0.00000
     11       7.6985      0.00000
     12       8.7711      0.00000
     13      10.4683      0.00000
     14      11.0367      0.00000
     15      12.7790      0.00000
     16      13.6315      0.00000

 k-point    29 :       0.3333    0.2222    0.2500
  band No.  band energies     occupation 
      1      -6.5407      2.00000
      2      -5.3649      2.00000
      3      -4.1712      2.00000
      4       0.8461      2.00000
      5       1.1476      2.00000
      6       2.0966      2.00000
      7       3.1876      2.00000
      8       4.2007      2.00000
      9       5.2426      2.00000
     10       7.1162      0.00000
     11       8.2190      0.00000
     12       8.7953      0.00000
     13      10.4988      0.00000
     14      11.5847      0.00000
     15      13.1944      0.00000
     16      13.3257      0.00000

 k-point    30 :       0.4444    0.2222    0.2500
  band No.  band energies     occupation 
      1      -6.5339      2.00000
      2      -5.3957      2.00000
      3      -4.1318      2.00000
      4       0.7104      2.00000
      5       1.2122      2.00000
      6       2.1121      2.00000
      7       3.1494      2.00000
      8       4.4695      2.00000
      9       5.1260      2.00000
     10       7.2242      0.00000
     11       8.0221      0.00000
     12       8.6448      0.00000
     13      10.4499      0.00000
     14      11.7904      0.00000
     15      12.9204      0.00000
     16      13.8228      0.00000

 k-point    31 :       0.3333    0.3333    0.2500
  band No.  band energies     occupation 
      1      -6.4513      2.00000
      2      -5.3537      2.00000
      3      -4.2467      2.00000
      4       0.7895      2.00000
      5       1.1184      2.00000
      6       1.7838      2.00000
      7       3.3288      2.00000
      8       4.3957      2.00000
      9       4.8652      2.00000
     10       7.6673      0.00000
     11       8.3481      0.00000
     12       8.4247      0.00000
     13      11.2053      0.00000
     14      11.5014      0.00000
     15      12.1080      0.00000
     16      14.0322      0.00000

 k-point    32 :       0.0000    0.0000    0.5000
  band No.  band energies     occupation 
      1      -6.8616      2.00000
      2      -6.8616      2.00000
      3      -2.2529      2.00000
      4       1.8322      2.00000
      5       3.2415      2.00000
      6       3.2415      2.00000
      7       4.5633      2.00000
      8       4.8425      2.00000
      9       4.8425      2.00000
     10       6.4590      0.00000
     11       6.5303      0.00000
     12       6.5303      0.00000
     13       9.9295      0.00000
     14      11.2293      0.00000
     15      11.2293      0.00000
     16      12.8629      0.00000

 k-point    33 :       0.1111    0.0000    0.5000
  band No.  band energies     occupation 
      1      -6.8014      2.00000
      2      -6.7853      2.00000
      3      -2.4302      2.00000
      4       1.7851      2.00000
      5       3.0449      2.00000
      6       3.1359      2.00000
      7       4.1410      2.00000
      8       4.4709      2.00000
      9       4.7235      2.00000
     10       6.6982      0.00000
     11       6.9064      0.00000
     12       7.3011      0.00000
     13      10.1584      0.00000
     14      10.9113      0.00000
     15      11.5446      0.00000
     16      12.8706      0.00000

 k-point    34 :       0.2222    0.0000    0.5000
  band No.  band energies     occupation 
      1      -6.6395      2.00000
      2      -6.5674      2.00000
      3      -2.8874      2.00000
      4       1.4737      2.00000
      5       2.4643      2.00000
      6       2.8347      2.00000
      7       3.9482      2.00000
      8       4.0896      2.00000
      9       4.5901      2.00000
     10       7.1013      0.00000
     11       7.6199      0.00000
     12       8.0780      0.00000
     13      10.4167      0.00000
     14      11.0514      0.00000
     15      11.9909      0.00000
     16      12.6421      0.00000

 k-point    35 :       0.3333   -0.0000    0.5000
  band No.  band energies     occupation 
      1      -6.4350      2.00000
      2      -6.2527      2.00000
      3      -3.4514      2.00000
      4       0.7948      2.00000
      5       2.1915      2.00000
      6       2.5156      2.00000
      7       3.7103      2.00000
      8       3.9709      2.00000
      9       4.9036      2.00000
     10       7.3030      0.00000
     11       7.9430      0.00000
     12       8.2032      0.00000
     13      10.4480      0.00000
     14      11.3889      0.00000
     15      12.7044      0.00000
     16      13.0842      0.00000

 k-point    36 :       0.4444    0.0000    0.5000
  band No.  band energies     occupation 
      1      -6.2866      2.00000
      2      -5.9714      2.00000
      3      -3.8849      2.00000
      4       0.3056      2.00000
      5       2.1529      2.00000
      6       2.2883      2.00000
      7       3.5499      2.00000
      8       3.8853      2.00000
      9       5.5220      2.00000
     10       6.8561      0.00000
     11       7.8322      0.00000
     12       8.4529      0.00000
     13      10.4679      0.00000
     14      11.2862      0.00000
     15      13.8167      0.00000
     16      13.9167      0.00000

 k-point    37 :       0.1111    0.1111    0.5000
  band No.  band energies     occupation 
      1      -6.6868      2.00000
      2      -6.6413      2.00000
      3      -2.7446      2.00000
      4       1.6250      2.00000
      5       2.6821      2.00000
      6       2.7513      2.00000
      7       3.9161      2.00000
      8       4.1169      2.00000
      9       4.9393      2.00000
     10       6.6414      0.00000
     11       7.6925      0.00000
     12       7.8946      0.00000
     13      10.5755      0.00000
     14      10.6546      0.00000
     15      12.0682      0.00000
     16      12.5331      0.00000

 k-point    38 :       0.2222    0.1111    0.5000
  band No.  band energies     occupation 
      1      -6.4928      2.00000
      2      -6.3814      2.00000
      3      -3.2443      2.00000
      4       1.1524      2.00000
      5       2.0916      2.00000
      6       2.2916      2.00000
      7       3.9162      2.00000
      8       4.2754      2.00000
      9       4.9686      2.00000
     10       6.9384      0.00000
     11       8.0013      0.00000
     12       8.1849      0.00000
     13      10.4803      0.00000
     14      11.2638      0.00000
     15      12.2455      0.00000
     16      12.9520      0.00000

 k-point    39 :       0.3333    0.1111    0.5000
  band No.  band energies     occupation 
      1      -6.3021      2.00000
      2      -6.0796      2.00000
      3      -3.7389      2.00000
      4       0.5551      2.00000
      5       1.8171      2.00000
      6       1.9652      2.00000
      7       4.0025      2.00000
      8       4.3425      2.00000
      9       5.2805      2.00000
     10       7.0677      0.00000
     11       7.7097      0.00000
     12       8.2497      0.00000
     13      10.5140      0.00000
     14      11.4952      0.00000
     15      12.7059      0.00000
     16      13.7188      0.00000

 k-point    40 :       0.4444    0.1111    0.5000
  band No.  band energies     occupation 
      1      -6.2204      2.00000
      2      -5.9235      2.00000
      3      -3.9673      2.00000
      4       0.3052      2.00000
      5       1.7767      2.00000
      6       1.8122      2.00000
      7       4.1305      2.00000
      8       4.1960      2.00000
      9       5.7378      2.00000
     10       6.6766      0.00000
     11       7.6902      0.00000
     12       8.2697      0.00000
     13      10.5815      0.00000
     14      11.3233      0.00000
     15      13.9045      0.00000
     16      13.9875      0.00000

 k-point    41 :       0.2222    0.2222    0.5000
  band No.  band energies     occupation 
      1      -6.2877      2.00000
      2      -6.1466      2.00000
      3      -3.6635      2.00000
      4       0.8389      2.00000
      5       1.4348      2.00000
      6       1.7249      2.00000
      7       4.2977      2.00000
      8       4.7050      2.00000
      9       5.3736      2.00000
     10       6.7964      0.00000
     11       7.8860      0.00000
     12       7.9604      0.00000
     13      10.7208      0.00000
     14      11.5824      0.00000
     15      12.3591      0.00000
     16      12.7124      0.00000

 k-point    42 :       0.3333    0.2222    0.5000
  band No.  band energies     occupation 
      1      -6.1286      2.00000
      2      -5.9629      2.00000
      3      -3.9659      2.00000
      4       0.5471      2.00000
      5       1.1808      2.00000
      6       1.3382      2.00000
      7       4.6022      2.00000
      8       5.0775      2.00000
      9       5.7060      2.00000
     10       6.6434      0.00000
     11       7.4619      0.00000
     12       7.7770      0.00000
     13      11.0594      0.00000
     14      11.8025      0.00000
     15      12.6978      0.00000
     16      13.0462      0.00000

 k-point    43 :       0.3333    0.3333    0.5000
  band No.  band energies     occupation 
      1      -5.9862      2.00000
      2      -5.9862      2.00000
      3      -4.0477      2.00000
      4       0.7004      2.00000
      5       0.9369      2.00000
      6       0.9369      2.00000
      7       4.8356      2.00000
      8       5.8995      1.97819
      9       5.8995      1.97819
     10       6.0519      0.04361
     11       7.3850      0.00000
     12       7.3850      0.00000
     13      11.7507      0.00000
     14      12.4161      0.00000
     15      12.4161      0.00000
     16      12.8865      0.00000


--------------------------------------------------------------------------------------------------------


 soft charge-density along one line, spin component           1
         0         1         2         3         4         5         6         7         8         9
 total charge-density along one line
 
 pseudopotential strength for first ion, spin component:           1
 51.667  56.215  -0.000  -0.000  -0.057  -0.000  -0.000  -0.083
 56.215  61.166  -0.000  -0.000  -0.063  -0.000  -0.000  -0.091
 -0.000  -0.000  12.719   0.010   0.000  18.334   0.015   0.000
 -0.000  -0.000   0.010  12.737   0.000   0.015  18.360   0.000
 -0.057  -0.063   0.000   0.000  12.736   0.000   0.000  18.358
 -0.000  -0.000  18.334   0.015   0.000  26.437   0.021   0.000
 -0.000  -0.000   0.015  18.360   0.000   0.021  26.474   0.000
 -0.083  -0.091   0.000   0.000  18.358   0.000   0.000  26.472
  0.000   0.000  -0.011   0.000  -0.000  -0.017   0.000  -0.000
  0.016   0.017   0.000  -0.000   0.000   0.000  -0.000   0.000
  0.008   0.009   0.000  -0.000   0.007   0.000  -0.000   0.010
  0.000   0.000   0.000  -0.011  -0.000   0.000  -0.016  -0.000
  0.013   0.014   0.000  -0.000  -0.011   0.000  -0.000  -0.016
 total augmentation occupancy for first ion, spin component:           1
 13.482  -9.951   0.000  -0.000   2.495   0.000   0.000  -0.687   0.000  -0.184  -0.115   0.000  -0.128
 -9.951   8.631   0.000  -0.000  -2.107   0.000   0.000   0.594   0.000   0.167   0.104   0.000   0.115
  0.000   0.000   2.606   0.286   0.000  -0.510  -0.230  -0.000  -0.064   0.000   0.000  -0.056   0.000
  0.000   0.000   0.286   3.071   0.000  -0.230  -0.892   0.000  -0.054   0.000   0.000  -0.144  -0.000
  2.495  -2.107   0.000   0.000   2.912   0.000   0.000  -0.798   0.000  -0.062  -0.020   0.000  -0.063
  0.000   0.000  -0.510  -0.230  -0.000   0.185   0.091  -0.000   0.016   0.000   0.000   0.021   0.000
 -0.000  -0.000  -0.230  -0.892  -0.000   0.091   0.330   0.000   0.022   0.000   0.000   0.046   0.000
 -0.687   0.594  -0.000   0.000  -0.798   0.000   0.000   0.284   0.000   0.019   0.005  -0.000   0.017
  0.000   0.000  -0.064  -0.054   0.000   0.016   0.022   0.000   0.009   0.000   0.000   0.011   0.000
 -0.184   0.167   0.000   0.000  -0.062   0.000   0.000   0.019   0.000   0.015   0.005   0.000   0.003
 -0.115   0.104  -0.000   0.000  -0.020   0.000   0.000   0.005   0.000   0.005   0.009   0.000  -0.001
  0.000   0.000  -0.056  -0.144   0.000   0.021   0.046  -0.000   0.011   0.000  -0.000   0.028   0.000
 -0.128   0.115   0.000   0.000  -0.063   0.000   0.000   0.017   0.000   0.003  -0.001   0.000   0.010


------------------------ aborting loop because EDIFF is reached ----------------------------------------


    CHARGE:  cpu time    0.0207: real time    0.0207
    FORLOC:  cpu time    0.0008: real time    0.0008
    FORNL :  cpu time    0.0770: real time    0.0772
    STRESS:  cpu time    0.2230: real time    0.2236
    FORCOR:  cpu time    0.0116: real time    0.0116
    FORHAR:  cpu time    0.0028: real time    0.0028
    MIXING:  cpu time    0.0006: real time    0.0006
    OFIELD:  cpu time    0.0000: real time    0.0000

 ---------------------------------------------------------------------------------------------

         DFTD3 V3.0 Rev 1        
 IVDW         = 11
 DF pbe       
 parameters
 VDW_S6       =    1.0000
 VDW_S8       =    0.7220
 VDW_SR       =    1.2170
 rs18     =    1.0000
 alpha6   =   14.0000
 alpha8   =   16.0000
 k1-k3    =   16.0000    1.3333   -4.0000
 VDW_RADIUS   =   50.2022 A
 VDW_CNRADIUS =   21.1671 A
 Edisp (eV)   -0.79634

 E6    (eV) :    -0.3032
 E8    (eV) :    -0.4932
 % E8        : 61.93
    FORVDW:  cpu time    0.0101: real time    0.0104

  FORCE on cell =-STRESS in cart. coord.  units (eV):
  Direction    XX          YY          ZZ          XY          YZ          ZX
  --------------------------------------------------------------------------------------
  Alpha Z     2.28965     2.28965     2.28965
  Ewald    -239.40015  -239.40015  -193.82453    -0.00000    -0.00001     0.00000
  Hartree    11.13508    11.13508    22.60564     0.00000     0.00000    -0.00000
  E(xc)     -70.58435   -70.58435   -70.09880    -0.00000     0.00000    -0.00000
  Local    -111.09592  -111.09597  -157.77405    -0.00004     0.00000    -0.00000
  n-local   333.12856   333.92411   329.33729    -1.25928    -0.73320    -1.24836
  augment   -81.13373   -81.13368   -78.67513     0.00004    -0.00000     0.00000
  Kinetic   153.21035   159.76922   147.78768    -7.45686     0.20492     1.50230
  Fock        0.00000     0.00000     0.00000     0.00000     0.00000     0.00000
  vdW        -0.75240    -0.75240    -0.84121     0.00000    -0.00000    -0.00000
  -------------------------------------------------------------------------------------
  Total       0.47430     0.47430     0.80656     0.00000     0.00000     0.00000
  in kB       7.44356     7.44356    12.65782     0.00000     0.00000     0.00000
  external pressure =        9.18 kB  Pullay stress =        0.00 kB


 VOLUME and BASIS-vectors are now :
 -----------------------------------------------------------------------------
  energy-cutoff  :      520.00
  volume of cell :      102.09
      direct lattice vectors                 reciprocal lattice vectors
     4.459300041  0.000000000  0.000000000     0.224250441  0.129471052  0.000000000
    -2.229650021  3.861867119  0.000000000     0.000000000  0.258942105  0.000000000
     0.000000000  0.000000000  5.928199768     0.000000000  0.000000000  0.168685274

  length of vectors
     4.459300041  4.459300041  5.928199768     0.258942105  0.258942105  0.168685274


 FORCES acting on ions
    electron-ion (+dipol)            ewald-force                    non-local-force                 convergence-correction
 -----------------------------------------------------------------------------------------------
   -.137E+02 0.119E-04 -.129E-05   0.194E+02 0.150E-05 0.187E-05   -.531E+01 0.555E-16 -.555E-16   0.496E-02 -.267E-07 -.161E-07
   0.685E+01 -.119E+02 -.179E-04   -.969E+01 0.168E+02 -.875E-05   0.266E+01 -.460E+01 0.000E+00   -.248E-02 0.430E-02 0.415E-06
   0.685E+01 0.119E+02 0.188E-04   -.969E+01 -.168E+02 0.687E-05   0.266E+01 0.460E+01 0.000E+00   -.248E-02 -.430E-02 -.399E-06
 -----------------------------------------------------------------------------------------------
   0.251E-04 -.742E-05 -.345E-06   0.000E+00 -.355E-14 0.000E+00   -.888E-15 0.000E+00 -.555E-16   -.133E-07 0.180E-08 0.409E-10
 
 
 POSITION                                       TOTAL-FORCE (eV/Angst)
 -----------------------------------------------------------------------------------
      1.16820      0.00000      1.97607         0.344392      0.000000     -0.000000
     -0.58410      1.01169      3.95213        -0.172196      0.298252      0.000000
      1.64555      2.85018      0.00000        -0.172196     -0.298252      0.000000
 -----------------------------------------------------------------------------------
    total drift:                                0.000025     -0.000007     -0.000000


--------------------------------------------------------------------------------------------------------



  FREE ENERGIE OF THE ION-ELECTRON SYSTEM (eV)
  ---------------------------------------------------
  free  energy   TOTEN  =       -10.18728451 eV

  energy  without entropy=      -10.18723668  energy(sigma->0) =      -10.18726060
 


--------------------------------------------------------------------------------------------------------


    POTLOK:  cpu time    0.0130: real time    0.0130


--------------------------------------------------------------------------------------------------------




--------------------------------------------------------------------------------------------------------


    WAVPRE:  cpu time    0.1866: real time    0.2150
    FEWALD:  cpu time    0.0001: real time    0.0001
    GENKIN:  cpu time    0.0142: real time    0.0142
    ORTHCH:  cpu time    0.0198: real time    0.0198
     LOOP+:  cpu time    4.6489: real time    4.9067


--------------------------------------- Iteration      2(   1)  ---------------------------------------


    POTLOK:  cpu time    0.0111: real time    0.0123
    SETDIJ:  cpu time    0.0022: real time    0.0022
     EDDAV:  cpu time    0.2963: real time    0.2970
       DOS:  cpu time    0.0005: real time    0.0005
    CHARGE:  cpu time    0.0206: real time    0.0206
    MIXING:  cpu time    0.0005: real time    0.0005
    --------------------------------------------
      LOOP:  cpu time    0.3312: real time    0.3332

 eigenvalue-minimisations  :  1376
 total energy-change (2. order) :-0.5615513E-01  (-0.9954090E-01)
 number of electron      17.9999989 magnetization 
 augmentation part       -3.6285753 magnetization 

 Broyden mixing:
  rms(total) = 0.12335E+00    rms(broyden)= 0.12335E+00
  rms(prec ) = 0.16555E+00
  weight for this iteration     100.00

 Free energy of the ion-electron system (eV)
  ---------------------------------------------------
  alpha Z        PSCENC =         2.22624629
  Ewald energy   TEWEN  =      -667.43198128
  -Hartree energ DENC   =       -43.78945740
  -exchange      EXHF   =         0.00000000
  -V(xc)+E(xc)   XCENC  =       -84.04889952
  PAW double counting   =      1574.60125913    -1459.27192048
  entropy T*S    EENTRO =        -0.00006581
  eigenvalues    EBANDS =        -1.54659246
  atomic energy  EATOM  =       669.81430600
  Solvation  Ediel_sol  =         0.00000000
  ---------------------------------------------------
  free energy    TOTEN  =        -9.44710553 eV

  energy without entropy =       -9.44703972  energy(sigma->0) =       -9.44707262


--------------------------------------------------------------------------------------------------------




--------------------------------------- Iteration      2(   2)  ---------------------------------------


    POTLOK:  cpu time    0.0108: real time    0.0109
    SETDIJ:  cpu time    0.0022: real time    0.0022
     EDDAV:  cpu time    0.3540: real time    0.3548
       DOS:  cpu time    0.0005: real time    0.0005
    CHARGE:  cpu time    0.0206: real time    0.0207
    MIXING:  cpu time    0.0005: real time    0.0005
    --------------------------------------------
      LOOP:  cpu time    0.3886: real time    0.3896

 eigenvalue-minimisations  :  1744
 total energy-change (2. order) : 0.1431797E-01  (-0.4764265E-02)
 number of electron      17.9999989 magnetization 
 augmentation part       -3.6308048 magnetization 

 Broyden mixing:
  rms(total) = 0.62711E-01    rms(broyden)= 0.62711E-01
  rms(prec ) = 0.90539E-01
  weight for this iteration     100.00

 eigenvalues of (default mixing * dielectric matrix)
  average eigenvalue GAMMA=   0.8704
  0.8704

 Free energy of the ion-electron system (eV)
  ---------------------------------------------------
  alpha Z        PSCENC =         2.22624629
  Ewald energy   TEWEN  =      -667.43198128
  -Hartree energ DENC   =       -44.60784679
  -exchange      EXHF   =         0.00000000
  -V(xc)+E(xc)   XCENC  =       -84.07271395
  PAW double counting   =      1523.42750024    -1408.09814845
  entropy T*S    EENTRO =        -0.00006299
  eigenvalues    EBANDS =        -0.69008663
  atomic energy  EATOM  =       669.81430600
  Solvation  Ediel_sol  =         0.00000000
  ---------------------------------------------------
  free energy    TOTEN  =        -9.43278756 eV

  energy without entropy =       -9.43272457  energy(sigma->0) =       -9.43275607


--------------------------------------------------------------------------------------------------------




--------------------------------------- Iteration      2(   3)  ---------------------------------------


    POTLOK:  cpu time    0.0107: real time    0.0108
    SETDIJ:  cpu time    0.0021: real time    0.0021
     EDDAV:  cpu time    0.3495: real time    0.3503
       DOS:  cpu time    0.0005: real time    0.0005
    CHARGE:  cpu time    0.0210: real time    0.0210
    MIXING:  cpu time    0.0008: real time    0.0008
    --------------------------------------------
      LOOP:  cpu time    0.3846: real time    0.3855

 eigenvalue-minimisations  :  1728
 total energy-change (2. order) : 0.6853291E-02  (-0.5828164E-03)
 number of electron      17.9999989 magnetization 
 augmentation part       -3.6201810 magnetization 

 Broyden mixing:
  rms(total) = 0.24329E-01    rms(broyden)= 0.24329E-01
  rms(prec ) = 0.41539E-01
  weight for this iteration     100.00

 eigenvalues of (default mixing * dielectric matrix)
  average eigenvalue GAMMA=   1.3544
  0.7985  1.9104

 Free energy of the ion-electron system (eV)
  ---------------------------------------------------
  alpha Z        PSCENC =         2.22624629
  Ewald energy   TEWEN  =      -667.43198128
  -Hartree energ DENC   =       -45.10535474
  -exchange      EXHF   =         0.00000000
  -V(xc)+E(xc)   XCENC  =       -84.09760090
  PAW double counting   =      1509.47778601    -1394.14146364
  entropy T*S    EENTRO =        -0.00006704
  eigenvalues    EBANDS =        -0.16780496
  atomic energy  EATOM  =       669.81430600
  Solvation  Ediel_sol  =         0.00000000
  ---------------------------------------------------
  free energy    TOTEN  =        -9.42593427 eV

  energy without entropy =       -9.42586723  energy(sigma->0) =       -9.42590075


--------------------------------------------------------------------------------------------------------




--------------------------------------- Iteration      2(   4)  ---------------------------------------


    POTLOK:  cpu time    0.0114: real time    0.0115
    SETDIJ:  cpu time    0.0021: real time    0.0021
     EDDAV:  cpu time    0.3276: real time    0.3284
       DOS:  cpu time    0.0005: real time    0.0005
    CHARGE:  cpu time    0.0206: real time    0.0206
    MIXING:  cpu time    0.0006: real time    0.0006
    --------------------------------------------
      LOOP:  cpu time    0.3628: real time    0.3638

 eigenvalue-minimisations  :  1512
 total energy-change (2. order) : 0.2639515E-02  (-0.4889817E-03)
 number of electron      17.9999989 magnetization 
 augmentation part       -3.6089911 magnetization 

 Broyden mixing:
  rms(total) = 0.40142E-01    rms(broyden)= 0.40142E-01
  rms(prec ) = 0.40251E-01
  weight for this iteration     100.00

 eigenvalues of (default mixing * dielectric matrix)
  average eigenvalue GAMMA=   1.7388
  2.3631  1.2294  1.6240

 Free energy of the ion-electron system (eV)
  ---------------------------------------------------
  alpha Z        PSCENC =         2.22624629
  Ewald energy   TEWEN  =      -667.43198128
  -Hartree energ DENC   =       -45.60108237
  -exchange      EXHF   =         0.00000000
  -V(xc)+E(xc)   XCENC  =       -84.12445122
  PAW double counting   =      1493.72189462    -1378.36986022
  entropy T*S    EENTRO =        -0.00007222
  eigenvalues    EBANDS =         0.34170564
  atomic energy  EATOM  =       669.81430600
  Solvation  Ediel_sol  =         0.00000000
  ---------------------------------------------------
  free energy    TOTEN  =        -9.42329476 eV

  energy without entropy =       -9.42322253  energy(sigma->0) =       -9.42325864


--------------------------------------------------------------------------------------------------------




--------------------------------------- Iteration      2(   5)  ---------------------------------------


    POTLOK:  cpu time    0.0107: real time    0.0107
    SETDIJ:  cpu time    0.0021: real time    0.0021
     EDDAV:  cpu time    0.3862: real time    0.3871
       DOS:  cpu time    0.0005: real time    0.0005
    CHARGE:  cpu time    0.0214: real time    0.0215
    MIXING:  cpu time    0.0009: real time    0.0009
    --------------------------------------------
      LOOP:  cpu time    0.4218: real time    0.4227

 eigenvalue-minimisations  :  1960
 total energy-change (2. order) : 0.1741522E-04  (-0.2397619E-04)
 number of electron      17.9999989 magnetization 
 augmentation part       -3.6071905 magnetization 

 Broyden mixing:
  rms(total) = 0.14232E-01    rms(broyden)= 0.14232E-01
  rms(prec ) = 0.14271E-01
  weight for this iteration     100.00

 eigenvalues of (default mixing * dielectric matrix)
  average eigenvalue GAMMA=   1.7037
  2.6994  2.0688  1.1705  0.8763

 Free energy of the ion-electron system (eV)
  ---------------------------------------------------
  alpha Z        PSCENC =         2.22624629
  Ewald energy   TEWEN  =      -667.43198128
  -Hartree energ DENC   =       -45.64628180
  -exchange      EXHF   =         0.00000000
  -V(xc)+E(xc)   XCENC  =       -84.12948892
  PAW double counting   =      1483.82725921    -1368.45927462
  entropy T*S    EENTRO =        -0.00007349
  eigenvalues    EBANDS =         0.37601128
  atomic energy  EATOM  =       669.81430600
  Solvation  Ediel_sol  =         0.00000000
  ---------------------------------------------------
  free energy    TOTEN  =        -9.42327734 eV

  energy without entropy =       -9.42320385  energy(sigma->0) =       -9.42324060


--------------------------------------------------------------------------------------------------------




--------------------------------------- Iteration      2(   6)  ---------------------------------------


    POTLOK:  cpu time    0.0139: real time    0.0141
    SETDIJ:  cpu time    0.0026: real time    0.0026
     EDDAV:  cpu time    0.2956: real time    0.2963
       DOS:  cpu time    0.0005: real time    0.0005
    --------------------------------------------
      LOOP:  cpu time    0.3125: real time    0.3135

 eigenvalue-minimisations  :  1304
 total energy-change (2. order) :-0.3327094E-05  (-0.8876247E-06)
 number of electron      17.9999989 magnetization 
 augmentation part       -3.6071905 magnetization 

 Free energy of the ion-electron system (eV)
  ---------------------------------------------------
  alpha Z        PSCENC =         2.22624629
  Ewald energy   TEWEN  =      -667.43198128
  -Hartree energ DENC   =       -45.63659286
  -exchange      EXHF   =         0.00000000
  -V(xc)+E(xc)   XCENC  =       -84.12861880
  PAW double counting   =      1481.09462466    -1365.72354642
  entropy T*S    EENTRO =        -0.00007339
  eigenvalues    EBANDS =         0.36235514
  atomic energy  EATOM  =       669.81430600
  Solvation  Ediel_sol  =         0.00000000
  ---------------------------------------------------
  free energy    TOTEN  =        -9.42328067 eV

  energy without entropy =       -9.42320727  energy(sigma->0) =       -9.42324397


--------------------------------------------------------------------------------------------------------




 average (electrostatic) potential at core
  the test charge radii are     1.1897
  (the norm of the test charge is              1.0000)
       1 -89.3607       2 -89.3607       3 -89.3607
 
 
 
 E-fermi :   5.6089     XC(G=0):  -8.9336     alpha+bet :-10.2418


 k-point     1 :       0.0000    0.0000    0.0000
  band No.  band energies     occupation 
      1      -7.8512      2.00000
      2      -4.6868      2.00000
      3      -4.6868      2.00000
      4       2.6170      2.00000
      5       2.8427      2.00000
      6       2.8427      2.00000
      7       3.9847      2.00000
      8       3.9847      2.00000
      9       4.8303      2.00000
     10       6.5394      0.00000
     11       6.5394      0.00000
     12       7.1844      0.00000
     13      10.5649      0.00000
     14      10.5649      0.00000
     15      11.4357      0.00000
     16      11.9008      0.00000

 k-point     2 :       0.1111    0.0000    0.0000
  band No.  band energies     occupation 
      1      -7.7724      2.00000
      2      -4.7113      2.00000
      3      -4.6660      2.00000
      4       2.0081      2.00000
      5       2.4560      2.00000
      6       2.7279      2.00000
      7       4.2055      2.00000
      8       4.5032      2.00000
      9       4.9501      2.00000
     10       6.3012      0.00000
     11       6.4908      0.00000
     12       7.0839      0.00000
     13      10.3558      0.00000
     14      10.5360      0.00000
     15      11.6552      0.00000
     16      11.9122      0.00000

 k-point     3 :       0.2222    0.0000    0.0000
  band No.  band energies     occupation 
      1      -7.5476      2.00000
      2      -4.8182      2.00000
      3      -4.6093      2.00000
      4       1.2622      2.00000
      5       1.9175      2.00000
      6       2.4047      2.00000
      7       4.2815      2.00000
      8       4.5862      2.00000
      9       4.7781      2.00000
     10       6.4247      0.00000
     11       6.5993      0.00000
     12       7.2329      0.00000
     13       9.6615      0.00000
     14      10.7770      0.00000
     15      11.9182      0.00000
     16      12.4627      0.00000

 k-point     4 :       0.3333   -0.0000    0.0000
  band No.  band energies     occupation 
      1      -7.2232      2.00000
      2      -5.0493      2.00000
      3      -4.5381      2.00000
      4       0.8950      2.00000
      5       1.4950      2.00000
      6       2.1264      2.00000
      7       3.2880      2.00000
      8       4.5993      2.00000
      9       4.7806      2.00000
     10       6.4274      0.00000
     11       6.6011      0.00000
     12       8.2283      0.00000
     13       9.0442      0.00000
     14      11.5389      0.00000
     15      12.6615      0.00000
     16      13.3361      0.00000

 k-point     5 :       0.4444    0.0000    0.0000
  band No.  band energies     occupation 
      1      -6.9310      2.00000
      2      -5.3071      2.00000
      3      -4.4879      2.00000
      4       0.8566      2.00000
      5       1.3036      2.00000
      6       2.0551      2.00000
      7       2.4331      2.00000
      8       4.5467      2.00000
      9       4.7638      2.00000
     10       6.4308      0.00000
     11       6.5346      0.00000
     12       8.7116      0.00000
     13       9.0120      0.00000
     14      12.5948      0.00000
     15      13.8362      0.00000
     16      14.2035      0.00000

 k-point     6 :       0.1111    0.1111    0.0000
  band No.  band energies     occupation 
      1      -7.6203      2.00000
      2      -4.7633      2.00000
      3      -4.6422      2.00000
      4       1.5054      2.00000
      5       1.8266      2.00000
      6       2.7672      2.00000
      7       4.0568      2.00000
      8       4.7715      2.00000
      9       4.8275      2.00000
     10       6.3259      0.00000
     11       6.6347      0.00000
     12       7.1449      0.00000
     13      10.1455      0.00000
     14      10.2388      0.00000
     15      11.9347      0.00000
     16      12.2341      0.00000

 k-point     7 :       0.2222    0.1111    0.0000
  band No.  band energies     occupation 
      1      -7.3426      2.00000
      2      -4.9098      2.00000
      3      -4.6112      2.00000
      4       1.0486      2.00000
      5       1.4127      2.00000
      6       2.4999      2.00000
      7       3.7952      2.00000
      8       4.1308      2.00000
      9       4.5335      2.00000
     10       6.7572      0.00000
     11       7.0617      0.00000
     12       7.6230      0.00000
     13       9.5880      0.00000
     14      10.5263      0.00000
     15      12.4955      0.00000
     16      12.9592      0.00000

 k-point     8 :       0.3333    0.1111    0.0000
  band No.  band energies     occupation 
      1      -7.0183      2.00000
      2      -5.1584      2.00000
      3      -4.5784      2.00000
      4       0.9033      2.00000
      5       1.2633      2.00000
      6       2.1854      2.00000
      7       2.8678      2.00000
      8       4.0796      2.00000
      9       4.2976      2.00000
     10       6.8806      0.00000
     11       7.1324      0.00000
     12       8.5964      0.00000
     13       9.1743      0.00000
     14      11.4207      0.00000
     15      13.4092      0.00000
     16      13.7948      0.00000

 k-point     9 :       0.4444    0.1111    0.0000
  band No.  band energies     occupation 
      1      -6.8480      2.00000
      2      -5.3098      2.00000
      3      -4.5640      2.00000
      4       0.9245      2.00000
      5       1.2629      2.00000
      6       2.2090      2.00000
      7       2.2592      2.00000
      8       4.0878      2.00000
      9       4.1977      2.00000
     10       6.8928      0.00000
     11       7.1455      0.00000
     12       9.0276      0.00000
     13       9.0426      0.00000
     14      12.3479      0.00000
     15      13.3453      0.00000
     16      14.3170      0.00000

 k-point    10 :       0.2222    0.2222    0.0000
  band No.  band energies     occupation 
      1      -7.0547      2.00000
      2      -5.0251      2.00000
      3      -4.6926      2.00000
      4       1.0165      2.00000
      5       1.1209      2.00000
      6       2.4638      2.00000
      7       3.3207      2.00000
      8       3.6274      2.00000
      9       3.6990      2.00000
     10       7.4924      0.00000
     11       7.7624      0.00000
     12       7.9708      0.00000
     13       9.9406      0.00000
     14      10.3267      0.00000
     15      12.7795      0.00000
     16      13.9589      0.00000

 k-point    11 :       0.3333    0.2222    0.0000
  band No.  band energies     occupation 
      1      -6.8091      2.00000
      2      -5.1599      2.00000
      3      -4.7678      2.00000
      4       1.0626      2.00000
      5       1.1930      2.00000
      6       2.3262      2.00000
      7       2.6450      2.00000
      8       3.3311      2.00000
      9       3.4308      2.00000
     10       7.7185      0.00000
     11       8.0193      0.00000
     12       8.6810      0.00000
     13       9.8826      0.00000
     14      11.1864      0.00000
     15      12.7603      0.00000
     16      13.6347      0.00000

 k-point    12 :       0.3333    0.3333    0.0000
  band No.  band energies     occupation 
      1      -6.7169      2.00000
      2      -5.0107      2.00000
      3      -5.0107      2.00000
      4       1.2022      2.00000
      5       1.2022      2.00000
      6       2.6058      2.00000
      7       2.6058      2.00000
      8       2.7500      2.00000
      9       3.0209      2.00000
     10       8.3246      0.00000
     11       8.3246      0.00000
     12       8.6327      0.00000
     13      10.4829      0.00000
     14      11.4617      0.00000
     15      11.4617      0.00000
     16      14.0045      0.00000

 k-point    13 :       0.0000    0.0000    0.2500
  band No.  band energies     occupation 
      1      -7.6343      2.00000
      2      -5.9789      2.00000
      3      -3.3739      2.00000
      4       2.1338      2.00000
      5       2.7399      2.00000
      6       3.1388      2.00000
      7       4.1546      2.00000
      8       4.1669      2.00000
      9       4.7857      2.00000
     10       6.2520      0.00000
     11       6.2926      0.00000
     12       6.6915      0.00000
     13      10.0272      0.00000
     14      11.1169      0.00000
     15      11.5212      0.00000
     16      11.6339      0.00000

 k-point    14 :       0.1111    0.0000    0.2500
  band No.  band energies     occupation 
      1      -7.5589      2.00000
      2      -5.9314      2.00000
      3      -3.4709      2.00000
      4       1.8920      2.00000
      5       2.5693      2.00000
      6       2.9977      2.00000
      7       3.8966      2.00000
      8       4.2774      2.00000
      9       4.4481      2.00000
     10       6.5180      0.00000
     11       6.6172      0.00000
     12       7.0312      0.00000
     13      10.1168      0.00000
     14      11.0831      0.00000
     15      11.2220      0.00000
     16      11.6696      0.00000

 k-point    15 :       0.2222    0.0000    0.2500
  band No.  band energies     occupation 
      1      -7.3477      2.00000
      2      -5.7958      2.00000
      3      -3.7734      2.00000
      4       1.5581      2.00000
      5       2.1707      2.00000
      6       2.7445      2.00000
      7       3.2641      2.00000
      8       3.8445      2.00000
      9       4.3604      2.00000
     10       6.8373      0.00000
     11       7.3861      0.00000
     12       7.7764      0.00000
     13      10.3835      0.00000
     14      10.8083      0.00000
     15      11.2951      0.00000
     16      11.8844      0.00000

 k-point    16 :       0.3333   -0.0000    0.2500
  band No.  band energies     occupation 
      1      -7.0504      2.00000
      2      -5.6286      2.00000
      3      -4.1882      2.00000
      4       1.2473      2.00000
      5       1.6267      2.00000
      6       2.4377      2.00000
      7       2.8283      2.00000
      8       3.8274      2.00000
      9       4.2611      2.00000
     10       6.8926      0.00000
     11       7.5412      0.00000
     12       8.5672      0.00000
     13       9.9658      0.00000
     14      11.2374      0.00000
     15      11.8592      0.00000
     16      12.6112      0.00000

 k-point    17 :       0.4444    0.0000    0.2500
  band No.  band energies     occupation 
      1      -6.7819      2.00000
      2      -5.5926      2.00000
      3      -4.4223      2.00000
      4       0.7206      2.00000
      5       1.3188      2.00000
      6       2.1676      2.00000
      7       3.2293      2.00000
      8       3.8547      2.00000
      9       4.1867      2.00000
     10       6.8058      0.00000
     11       7.4979      0.00000
     12       8.4197      0.00000
     13       9.5365      0.00000
     14      11.6211      0.00000
     15      13.2672      0.00000
     16      13.6492      0.00000

 k-point    18 :      -0.4444   -0.0000    0.2500
  band No.  band energies     occupation 
      1      -6.7551      2.00000
      2      -5.7062      2.00000
      3      -4.2759      2.00000
      4       0.4205      2.00000
      5       1.2286      2.00000
      6       2.1337      2.00000
      7       3.8823      2.00000
      8       3.9732      2.00000
      9       4.3009      2.00000
     10       6.6873      0.00000
     11       7.3144      0.00000
     12       7.7152      0.00000
     13       9.2601      0.00000
     14      12.1161      0.00000
     15      13.5823      0.00000
     16      14.1744      0.00000

 k-point    19 :      -0.3333    0.0000    0.2500
  band No.  band energies     occupation 
      1      -7.0215      2.00000
      2      -5.7677      2.00000
      3      -3.9639      2.00000
      4       0.6120      2.00000
      5       1.3219      2.00000
      6       2.2790      2.00000
      7       4.1653      2.00000
      8       4.2003      2.00000
      9       5.0134      2.00000
     10       6.3758      0.00000
     11       6.9601      0.00000
     12       7.1247      0.00000
     13       9.1786      0.00000
     14      12.1562      0.00000
     15      12.7033      0.00000
     16      13.4135      0.00000

 k-point    20 :      -0.2222   -0.0000    0.2500
  band No.  band energies     occupation 
      1      -7.3376      2.00000
      2      -5.8471      2.00000
      3      -3.6635      2.00000
      4       1.2757      2.00000
      5       1.6066      2.00000
      6       2.5594      2.00000
      7       4.3624      2.00000
      8       4.4928      2.00000
      9       5.1005      2.00000
     10       6.1816      0.00000
     11       6.6274      0.00000
     12       6.9013      0.00000
     13       9.3824      0.00000
     14      11.6498      0.00000
     15      11.8415      0.00000
     16      12.3205      0.00000

 k-point    21 :      -0.1111   -0.0000    0.2500
  band No.  band energies     occupation 
      1      -7.5576      2.00000
      2      -5.9381      2.00000
      3      -3.4534      2.00000
      4       1.9072      2.00000
      5       2.2818      2.00000
      6       2.9077      2.00000
      7       4.3216      2.00000
      8       4.4302      2.00000
      9       4.7336      2.00000
     10       6.2272      0.00000
     11       6.2515      0.00000
     12       7.0228      0.00000
     13       9.8434      0.00000
     14      11.1238      0.00000
     15      11.3860      0.00000
     16      11.8685      0.00000

 k-point    22 :       0.1111    0.1111    0.2500
  band No.  band energies     occupation 
      1      -7.4121      2.00000
      2      -5.8558      2.00000
      3      -3.6354      2.00000
      4       1.5857      2.00000
      5       1.9143      2.00000
      6       2.7698      2.00000
      7       3.7690      2.00000
      8       4.3279      2.00000
      9       4.7127      2.00000
     10       6.4529      0.00000
     11       6.9884      0.00000
     12       7.1980      0.00000
     13       9.8739      0.00000
     14      11.1046      0.00000
     15      11.4661      0.00000
     16      11.8443      0.00000

 k-point    23 :       0.2222    0.1111    0.2500
  band No.  band energies     occupation 
      1      -7.1536      2.00000
      2      -5.7060      2.00000
      3      -4.0004      2.00000
      4       1.2531      2.00000
      5       1.6443      2.00000
      6       2.5971      2.00000
      7       2.8801      2.00000
      8       3.9304      2.00000
      9       4.8276      2.00000
     10       6.6085      0.00000
     11       7.3375      0.00000
     12       8.2081      0.00000
     13      10.2016      0.00000
     14      10.6747      0.00000
     15      11.7421      0.00000
     16      12.5052      0.00000

 k-point    24 :       0.3333    0.1111    0.2500
  band No.  band energies     occupation 
      1      -6.8587      2.00000
      2      -5.5831      2.00000
      3      -4.3666      2.00000
      4       0.9653      2.00000
      5       1.2226      2.00000
      6       2.2779      2.00000
      7       2.9038      2.00000
      8       3.6104      2.00000
      9       4.8533      2.00000
     10       6.5425      0.00000
     11       7.6516      0.00000
     12       8.5647      0.00000
     13       9.8448      0.00000
     14      11.3263      0.00000
     15      12.2644      0.00000
     16      13.1673      0.00000

 k-point    25 :       0.4444    0.1111    0.2500
  band No.  band energies     occupation 
      1      -6.6914      2.00000
      2      -5.6309      2.00000
      3      -4.4270      2.00000
      4       0.5570      2.00000
      5       1.1069      2.00000
      6       2.1740      2.00000
      7       3.1267      2.00000
      8       3.7575      2.00000
      9       4.8645      2.00000
     10       6.4678      0.00000
     11       7.7123      0.00000
     12       8.0885      0.00000
     13       9.5950      0.00000
     14      11.9726      0.00000
     15      13.1885      0.00000
     16      13.4929      0.00000

 k-point    26 :      -0.4444    0.1111    0.2500
  band No.  band energies     occupation 
      1      -6.8314      2.00000
      2      -5.7067      2.00000
      3      -4.1971      2.00000
      4       0.4862      2.00000
      5       1.2338      2.00000
      6       2.2086      2.00000
      7       3.1801      2.00000
      8       4.4684      2.00000
      9       4.9359      2.00000
     10       6.3573      0.00000
     11       7.2089      0.00000
     12       7.7444      0.00000
     13       9.4922      0.00000
     14      11.9327      0.00000
     15      12.6405      0.00000
     16      13.7303      0.00000

 k-point    27 :      -0.3333    0.1111    0.2500
  band No.  band energies     occupation 
      1      -7.1418      2.00000
      2      -5.7644      2.00000
      3      -3.8960      2.00000
      4       0.9137      2.00000
      5       1.4748      2.00000
      6       2.4249      2.00000
      7       3.3895      2.00000
      8       4.6475      2.00000
      9       5.2484      2.00000
     10       6.1308      0.00000
     11       6.8483      0.00000
     12       7.5534      0.00000
     13       9.5519      0.00000
     14      11.3195      0.00000
     15      12.1002      0.00000
     16      12.8988      0.00000

 k-point    28 :       0.2222    0.2222    0.2500
  band No.  band energies     occupation 
      1      -6.8769      2.00000
      2      -5.6423      2.00000
      3      -4.2521      2.00000
      4       0.7265      2.00000
      5       1.3287      2.00000
      6       2.1994      2.00000
      7       2.7397      2.00000
      8       4.2473      2.00000
      9       5.1160      2.00000
     10       6.4364      0.00000
     11       7.2609      0.00000
     12       8.3199      0.00000
     13      10.1590      0.00000
     14      10.7338      0.00000
     15      12.4683      0.00000
     16      13.2764      0.00000

 k-point    29 :       0.3333    0.2222    0.2500
  band No.  band energies     occupation 
      1      -6.6536      2.00000
      2      -5.5774      2.00000
      3      -4.5073      2.00000
      4       0.6987      2.00000
      5       0.9873      2.00000
      6       1.8734      2.00000
      7       2.9538      2.00000
      8       3.8794      2.00000
      9       4.9196      2.00000
     10       6.6818      0.00000
     11       7.7789      0.00000
     12       8.3083      0.00000
     13      10.2078      0.00000
     14      11.2760      0.00000
     15      12.8599      0.00000
     16      12.9999      0.00000

 k-point    30 :       0.4444    0.2222    0.2500
  band No.  band energies     occupation 
      1      -6.6456      2.00000
      2      -5.6115      2.00000
      3      -4.4674      2.00000
      4       0.5591      2.00000
      5       1.0577      2.00000
      6       1.8885      2.00000
      7       2.9092      2.00000
      8       4.1644      2.00000
      9       4.7915      2.00000
     10       6.8006      0.00000
     11       7.5511      0.00000
     12       8.1993      0.00000
     13      10.1278      0.00000
     14      11.5023      0.00000
     15      12.5879      0.00000
     16      13.5104      0.00000

 k-point    31 :       0.3333    0.3333    0.2500
  band No.  band energies     occupation 
      1      -6.5622      2.00000
      2      -5.5695      2.00000
      3      -4.5825      2.00000
      4       0.6500      2.00000
      5       0.9623      2.00000
      6       1.5567      2.00000
      7       3.1096      2.00000
      8       4.0761      2.00000
      9       4.5162      2.00000
     10       7.2387      0.00000
     11       7.8682      0.00000
     12       7.9554      0.00000
     13      10.9324      0.00000
     14      11.2139      0.00000
     15      11.7724      0.00000
     16      13.7393      0.00000

 k-point    32 :       0.0000    0.0000    0.5000
  band No.  band energies     occupation 
      1      -6.9956      2.00000
      2      -6.9956      2.00000
      3      -2.7108      2.00000
      4       1.6689      2.00000
      5       3.0036      2.00000
      6       3.0036      2.00000
      7       4.2997      2.00000
      8       4.5796      2.00000
      9       4.5796      2.00000
     10       6.0862      0.00000
     11       6.1219      0.00000
     12       6.1219      0.00000
     13       9.6646      0.00000
     14      10.9287      0.00000
     15      10.9287      0.00000
     16      12.6513      0.00000

 k-point    33 :       0.1111    0.0000    0.5000
  band No.  band energies     occupation 
      1      -6.9373      2.00000
      2      -6.9214      2.00000
      3      -2.8726      2.00000
      4       1.6300      2.00000
      5       2.8191      2.00000
      6       2.9037      2.00000
      7       3.8514      2.00000
      8       4.1969      2.00000
      9       4.4334      2.00000
     10       6.3128      0.00000
     11       6.5125      0.00000
     12       6.9071      0.00000
     13       9.8899      0.00000
     14      10.6257      0.00000
     15      11.2295      0.00000
     16      12.5233      0.00000

 k-point    34 :       0.2222    0.0000    0.5000
  band No.  band energies     occupation 
      1      -6.7807      2.00000
      2      -6.7089      2.00000
      3      -3.2949      2.00000
      4       1.3330      2.00000
      5       2.2456      2.00000
      6       2.6160      2.00000
      7       3.6540      2.00000
      8       3.8137      2.00000
      9       4.2574      2.00000
     10       6.7282      0.00000
     11       7.2095      0.00000
     12       7.6531      0.00000
     13      10.1093      0.00000
     14      10.7824      0.00000
     15      11.6932      0.00000
     16      12.2771      0.00000

 k-point    35 :       0.3333   -0.0000    0.5000
  band No.  band energies     occupation 
      1      -6.5835      2.00000
      2      -6.3994      2.00000
      3      -3.8255      2.00000
      4       0.6535      2.00000
      5       1.9913      2.00000
      6       2.3077      2.00000
      7       3.4273      2.00000
      8       3.6839      2.00000
      9       4.5459      2.00000
     10       6.9421      0.00000
     11       7.4984      0.00000
     12       7.7786      0.00000
     13      10.1108      0.00000
     14      11.0828      0.00000
     15      12.3968      0.00000
     16      12.7407      0.00000

 k-point    36 :       0.4444    0.0000    0.5000
  band No.  band energies     occupation 
      1      -6.4410      2.00000
      2      -6.1178      2.00000
      3      -4.2432      2.00000
      4       0.1687      2.00000
      5       1.9633      2.00000
      6       2.0825      2.00000
      7       3.2691      2.00000
      8       3.5897      2.00000
      9       5.1622      2.00000
     10       6.4630      0.00000
     11       7.4222      0.00000
     12       8.0298      0.00000
     13      10.1413      0.00000
     14      10.9032      0.00000
     15      13.4552      0.00000
     16      13.5390      0.00000

 k-point    37 :       0.1111    0.1111    0.5000
  band No.  band energies     occupation 
      1      -6.8261      2.00000
      2      -6.7813      2.00000
      3      -3.1624      2.00000
      4       1.4828      2.00000
      5       2.4654      2.00000
      6       2.5304      2.00000
      7       3.6233      2.00000
      8       3.8017      2.00000
      9       4.6605      2.00000
     10       6.2348      0.00000
     11       7.3120      0.00000
     12       7.4727      0.00000
     13      10.2951      0.00000
     14      10.3672      0.00000
     15      11.7450      0.00000
     16      12.1962      0.00000

 k-point    38 :       0.2222    0.1111    0.5000
  band No.  band energies     occupation 
      1      -6.6382      2.00000
      2      -6.5272      2.00000
      3      -3.6300      2.00000
      4       1.0146      2.00000
      5       1.8846      2.00000
      6       2.0855      2.00000
      7       3.6222      2.00000
      8       3.9640      2.00000
      9       4.6538      2.00000
     10       6.5379      0.00000
     11       7.5908      0.00000
     12       7.7502      0.00000
     13      10.1844      0.00000
     14      10.9773      0.00000
     15      11.9196      0.00000
     16      12.6032      0.00000

 k-point    39 :       0.3333    0.1111    0.5000
  band No.  band energies     occupation 
      1      -6.4544      2.00000
      2      -6.2281      2.00000
      3      -4.1024      2.00000
      4       0.4158      2.00000
      5       1.6235      2.00000
      6       1.7713      2.00000
      7       3.7055      2.00000
      8       4.0571      2.00000
      9       4.9169      2.00000
     10       6.6873      0.00000
     11       7.2675      0.00000
     12       7.8192      0.00000
     13      10.2119      0.00000
     14      11.1575      0.00000
     15      12.3886      0.00000
     16      13.3753      0.00000

 k-point    40 :       0.4444    0.1111    0.5000
  band No.  band energies     occupation 
      1      -6.3758      2.00000
      2      -6.0704      2.00000
      3      -4.3254      2.00000
      4       0.1678      2.00000
      5       1.5792      2.00000
      6       1.6299      2.00000
      7       3.8291      2.00000
      8       3.9120      2.00000
      9       5.3728      2.00000
     10       6.2809      0.00000
     11       7.2677      0.00000
     12       7.8331      0.00000
     13      10.2874      0.00000
     14      10.9523      0.00000
     15      13.5726      0.00000
     16      13.6335      0.00000

 k-point    41 :       0.2222    0.2222    0.5000
  band No.  band energies     occupation 
      1      -6.4380      2.00000
      2      -6.2971      2.00000
      3      -4.0309      2.00000
      4       0.7060      2.00000
      5       1.2373      2.00000
      6       1.5372      2.00000
      7       4.0203      2.00000
      8       4.3566      2.00000
      9       5.0588      2.00000
     10       6.3787      0.00000
     11       7.4611      0.00000
     12       7.5143      0.00000
     13      10.4499      0.00000
     14      11.2941      0.00000
     15      12.0429      0.00000
     16      12.3456      0.00000

 k-point    42 :       0.3333    0.2222    0.5000
  band No.  band energies     occupation 
      1      -6.2829      2.00000
      2      -6.1136      2.00000
      3      -4.3264      2.00000
      4       0.4080      2.00000
      5       1.0011      2.00000
      6       1.1621      2.00000
      7       4.3343      2.00000
      8       4.7413      2.00000
      9       5.3384      2.00000
     10       6.2558      0.00000
     11       7.0080      0.00000
     12       7.3290      0.00000
     13      10.7831      0.00000
     14      11.4776      0.00000
     15      12.3913      0.00000
     16      12.7166      0.00000

 k-point    43 :       0.3333    0.3333    0.5000
  band No.  band energies     occupation 
      1      -6.1394      2.00000
      2      -6.1394      2.00000
      3      -4.4087      2.00000
      4       0.5680      2.00000
      5       0.7629      2.00000
      6       0.7629      2.00000
      7       4.5831      2.00000
      8       5.5348      1.96386
      9       5.5348      1.96386
     10       5.6725      0.07228
     11       6.9232      0.00000
     12       6.9232      0.00000
     13      11.4764      0.00000
     14      12.0815      0.00000
     15      12.0815      0.00000
     16      12.6160      0.00000


--------------------------------------------------------------------------------------------------------


 soft charge-density along one line, spin component           1
         0         1         2         3         4         5         6         7         8         9
 total charge-density along one line
 
 pseudopotential strength for first ion, spin component:           1
 51.787  56.346  -0.000  -0.000  -0.052  -0.000  -0.000  -0.075
 56.346  61.309  -0.000  -0.000  -0.056  -0.000  -0.000  -0.081
 -0.000  -0.000  12.744   0.010   0.000  18.369   0.014   0.000
 -0.000  -0.000   0.010  12.760   0.000   0.014  18.393   0.000
 -0.052  -0.056   0.000   0.000  12.760   0.000   0.000  18.393
 -0.000  -0.000  18.369   0.014   0.000  26.488   0.020   0.000
 -0.000  -0.000   0.014  18.393   0.000   0.020  26.523   0.000
 -0.075  -0.081   0.000   0.000  18.393   0.000   0.000  26.522
  0.000   0.000  -0.010   0.000  -0.000  -0.015   0.000  -0.000
  0.015   0.017   0.000  -0.000   0.000   0.000  -0.000   0.000
  0.008   0.008   0.000  -0.000   0.006   0.000  -0.000   0.009
  0.000   0.000   0.000  -0.009  -0.000   0.000  -0.014  -0.000
  0.013   0.014   0.000  -0.000  -0.010   0.000  -0.000  -0.014
 total augmentation occupancy for first ion, spin component:           1
 12.867  -9.348   0.000  -0.000   2.241   0.000  -0.000  -0.591   0.000  -0.165  -0.103   0.000  -0.116
 -9.348   8.043   0.000   0.000  -1.880   0.000   0.000   0.505   0.000   0.150   0.093   0.000   0.105
  0.000  -0.000   2.501   0.235   0.000  -0.464  -0.202   0.000  -0.056   0.000   0.000  -0.050   0.000
 -0.000  -0.000   0.235   2.884   0.000  -0.202  -0.799  -0.000  -0.049   0.000   0.000  -0.127   0.000
  2.241  -1.880   0.000   0.000   2.748   0.000   0.000  -0.720   0.000  -0.056  -0.018   0.000  -0.055
  0.000   0.000  -0.464  -0.202   0.000   0.165   0.076   0.000   0.013   0.000   0.000   0.018   0.000
  0.000  -0.000  -0.202  -0.799  -0.000   0.076   0.288   0.000   0.019   0.000   0.000   0.039  -0.000
 -0.591   0.505   0.000   0.000  -0.720   0.000   0.000   0.249   0.000   0.016   0.004   0.000   0.014
  0.000   0.000  -0.056  -0.049   0.000   0.013   0.019   0.000   0.009   0.000   0.000   0.010   0.000
 -0.165   0.150   0.000   0.000  -0.056   0.000   0.000   0.016   0.000   0.013   0.004   0.000   0.003
 -0.103   0.093   0.000   0.000  -0.018   0.000   0.000   0.004   0.000   0.004   0.008  -0.000  -0.001
  0.000   0.000  -0.050  -0.127   0.000   0.018   0.039  -0.000   0.010   0.000   0.000   0.025   0.000
 -0.116   0.105   0.000  -0.000  -0.055   0.000   0.000   0.014   0.000   0.003  -0.001   0.000   0.009


------------------------ aborting loop because EDIFF is reached ----------------------------------------


    CHARGE:  cpu time    0.0213: real time    0.0213
    FORLOC:  cpu time    0.0008: real time    0.0008
    FORNL :  cpu time    0.0773: real time    0.0775
    STRESS:  cpu time    0.2226: real time    0.2231
    FORCOR:  cpu time    0.0114: real time    0.0115
    FORHAR:  cpu time    0.0029: real time    0.0029
    MIXING:  cpu time    0.0007: real time    0.0007
    OFIELD:  cpu time    0.0000: real time    0.0000

 ---------------------------------------------------------------------------------------------

         DFTD3 V3.0 Rev 1        
 Edisp (eV)   -0.77292

 E6    (eV) :    -0.2954
 E8    (eV) :    -0.4775
 % E8        : 61.78
    FORVDW:  cpu time    0.0099: real time    0.0099

  FORCE on cell =-STRESS in cart. coord.  units (eV):
  Direction    XX          YY          ZZ          XY          YZ          ZX
  --------------------------------------------------------------------------------------
  Alpha Z     2.22625     2.22625     2.22625
  Ewald    -236.51964  -236.51964  -194.39337    -0.00000    -0.00001     0.00000
  Hartree    11.56510    11.56510    22.50610     0.00000     0.00000    -0.00000
  E(xc)     -70.27555   -70.27555   -69.77726    -0.00000     0.00000    -0.00000
  Local    -113.31721  -113.31727  -156.70350    -0.00004     0.00000    -0.00000
  n-local   331.79489   332.57952   327.83390    -1.22749    -0.73448    -1.26811
  augment   -81.09044   -81.09039   -78.73205     0.00004    -0.00000     0.00000
  Kinetic   152.26659   158.59290   147.06565    -7.12348     0.11236     1.39474
  Fock        0.00000     0.00000     0.00000     0.00000     0.00000     0.00000
  vdW        -0.75296    -0.75296    -0.83440     0.00000    -0.00000    -0.00000
  -------------------------------------------------------------------------------------
  Total      -0.54751    -0.54751    -0.80868     0.00000     0.00000     0.00000
  in kB      -8.35441    -8.35441   -12.33964     0.00000     0.00000     0.00000
  external pressure =       -9.68 kB  Pullay stress =        0.00 kB


 VOLUME and BASIS-vectors are now :
 -----------------------------------------------------------------------------
  energy-cutoff  :      520.00
  volume of cell :      105.00
      direct lattice vectors                 reciprocal lattice vectors
     4.493312167  0.000000000  0.000000000     0.222552977  0.128491021  0.000000000
    -2.246656084  3.891322484  0.000000000     0.000000000  0.256982043  0.000000000
    -0.000000000  0.000000000  6.005089446    -0.000000000 -0.000000000  0.166525413

  length of vectors
     4.493312167  4.493312167  6.005089446     0.256982043  0.256982043  0.166525413


 FORCES acting on ions
    electron-ion (+dipol)            ewald-force                    non-local-force                 convergence-correction
 -----------------------------------------------------------------------------------------------
   -.123E+02 0.120E-04 -.116E-05   0.176E+02 0.148E-05 0.172E-05   -.521E+01 0.278E-16 0.278E-16   0.135E-02 -.132E-07 -.107E-08
   0.617E+01 -.107E+02 -.185E-04   -.882E+01 0.153E+02 -.844E-05   0.261E+01 -.451E+01 0.000E+00   -.676E-03 0.117E-02 0.403E-07
   0.617E+01 0.107E+02 0.193E-04   -.882E+01 -.153E+02 0.672E-05   0.261E+01 0.451E+01 0.000E+00   -.676E-03 -.117E-02 -.393E-07
 -----------------------------------------------------------------------------------------------
   0.260E-04 -.739E-05 -.324E-06   0.000E+00 0.000E+00 0.348E-17   -.444E-15 0.000E+00 0.278E-16   -.756E-10 -.825E-10 0.101E-10
 
 
 POSITION                                       TOTAL-FORCE (eV/Angst)
 -----------------------------------------------------------------------------------
      1.19385      0.00000      2.00170         0.060864      0.000000      0.000000
     -0.59692      1.03390      4.00339        -0.030432      0.052710      0.000000
      1.64973      2.85742      0.00000        -0.030432     -0.052710     -0.000000
 -----------------------------------------------------------------------------------
    total drift:                                0.000026     -0.000007     -0.000000


--------------------------------------------------------------------------------------------------------



  FREE ENERGIE OF THE ION-ELECTRON SYSTEM (eV)
  ---------------------------------------------------
  free  energy   TOTEN  =       -10.19619814 eV

  energy  without entropy=      -10.19612474  energy(sigma->0) =      -10.19616144
 
 d Force = 0.1017663E-01[ 0.306E-02, 0.173E-01]  d Energy = 0.8913630E-02 0.126E-02
 d Force = 0.9295454E+00[ 0.886E+00, 0.973E+00]  d Ewald  =-0.5192195E+01 0.612E+01


--------------------------------------------------------------------------------------------------------


    POTLOK:  cpu time    0.0181: real time    0.0181


--------------------------------------------------------------------------------------------------------


 Steepest descent step on ions:
 trial-energy change:   -0.008914  1 .order   -0.009528   -0.034862    0.015807
  (g-gl).g = 0.349E-01      g.g   = 0.349E-01  gl.gl    = 0.000E+00
 g(Force)  = 0.172E-01   g(Stress)= 0.177E-01 ortho     = 0.000E+00
 gamma     =   0.00000
 trial     =   1.00000
 opt step  =   0.67201  (harmonic =   0.68804) maximal distance =0.01116505
 next E    =   -10.198812   (d E  =  -0.01153)


--------------------------------------------------------------------------------------------------------


    WAVPRE:  cpu time    0.0025: real time    0.0044
    FEWALD:  cpu time    0.0001: real time    0.0003
    GENKIN:  cpu time    0.0070: real time    0.0070
    ORTHCH:  cpu time    0.0197: real time    0.0198
     LOOP+:  cpu time    2.6062: real time    2.6194


--------------------------------------- Iteration      3(   1)  ---------------------------------------


    POTLOK:  cpu time    0.0110: real time    0.0123
    SETDIJ:  cpu time    0.0022: real time    0.0022
     EDDAV:  cpu time    0.2939: real time    0.2946
       DOS:  cpu time    0.0005: real time    0.0005
    CHARGE:  cpu time    0.0207: real time    0.0208
    MIXING:  cpu time    0.0005: real time    0.0005
    --------------------------------------------
      LOOP:  cpu time    0.3289: real time    0.3309

 eigenvalue-minimisations  :  1376
 total energy-change (2. order) : 0.2503614E-02  (-0.1091568E-01)
 number of electron      17.9999991 magnetization 
 augmentation part       -3.6001977 magnetization 

 Broyden mixing:
  rms(total) = 0.38955E-01    rms(broyden)= 0.38955E-01
  rms(prec ) = 0.53411E-01
  weight for this iteration     100.00

 Free energy of the ion-electron system (eV)
  ---------------------------------------------------
  alpha Z        PSCENC =         2.24677735
  Ewald energy   TEWEN  =      -669.13545066
  -Hartree energ DENC   =       -45.98981079
  -exchange      EXHF   =         0.00000000
  -V(xc)+E(xc)   XCENC  =       -84.08141674
  PAW double counting   =      1480.68906752    -1365.31845223
  entropy T*S    EENTRO =        -0.00006764
  eigenvalues    EBANDS =         2.35427347
  atomic energy  EATOM  =       669.81430600
  Solvation  Ediel_sol  =         0.00000000
  ---------------------------------------------------
  free energy    TOTEN  =        -9.42077373 eV

  energy without entropy =       -9.42070608  energy(sigma->0) =       -9.42073990


--------------------------------------------------------------------------------------------------------




--------------------------------------- Iteration      3(   2)  ---------------------------------------


    POTLOK:  cpu time    0.0107: real time    0.0107
    SETDIJ:  cpu time    0.0022: real time    0.0022
     EDDAV:  cpu time    0.3531: real time    0.3539
       DOS:  cpu time    0.0005: real time    0.0005
    CHARGE:  cpu time    0.0205: real time    0.0205
    MIXING:  cpu time    0.0005: real time    0.0005
    --------------------------------------------
      LOOP:  cpu time    0.3874: real time    0.3883

 eigenvalue-minimisations  :  1752
 total energy-change (2. order) : 0.1581758E-02  (-0.4941067E-03)
 number of electron      17.9999991 magnetization 
 augmentation part       -3.6001368 magnetization 

 Broyden mixing:
  rms(total) = 0.20044E-01    rms(broyden)= 0.20044E-01
  rms(prec ) = 0.29358E-01
  weight for this iteration     100.00

 eigenvalues of (default mixing * dielectric matrix)
  average eigenvalue GAMMA=   0.9007
  0.9007

 Free energy of the ion-electron system (eV)
  ---------------------------------------------------
  alpha Z        PSCENC =         2.24677735
  Ewald energy   TEWEN  =      -669.13545066
  -Hartree energ DENC   =       -45.71426128
  -exchange      EXHF   =         0.00000000
  -V(xc)+E(xc)   XCENC  =       -84.07352353
  PAW double counting   =      1496.73974798    -1381.36894630
  entropy T*S    EENTRO =        -0.00006771
  eigenvalues    EBANDS =         2.07222618
  atomic energy  EATOM  =       669.81430600
  Solvation  Ediel_sol  =         0.00000000
  ---------------------------------------------------
  free energy    TOTEN  =        -9.41919197 eV

  energy without entropy =       -9.41912425  energy(sigma->0) =       -9.41915811


--------------------------------------------------------------------------------------------------------




--------------------------------------- Iteration      3(   3)  ---------------------------------------


    POTLOK:  cpu time    0.0106: real time    0.0107
    SETDIJ:  cpu time    0.0021: real time    0.0021
     EDDAV:  cpu time    0.3465: real time    0.3473
       DOS:  cpu time    0.0005: real time    0.0005
    CHARGE:  cpu time    0.0207: real time    0.0208
    MIXING:  cpu time    0.0006: real time    0.0006
    --------------------------------------------
      LOOP:  cpu time    0.3809: real time    0.3819

 eigenvalue-minimisations  :  1688
 total energy-change (2. order) : 0.7492787E-03  (-0.6814331E-04)
 number of electron      17.9999991 magnetization 
 augmentation part       -3.6038343 magnetization 

 Broyden mixing:
  rms(total) = 0.74009E-02    rms(broyden)= 0.74009E-02
  rms(prec ) = 0.12828E-01
  weight for this iteration     100.00

 eigenvalues of (default mixing * dielectric matrix)
  average eigenvalue GAMMA=   1.3277
  0.7973  1.8581

 Free energy of the ion-electron system (eV)
  ---------------------------------------------------
  alpha Z        PSCENC =         2.24677735
  Ewald energy   TEWEN  =      -669.13545066
  -Hartree energ DENC   =       -45.54153873
  -exchange      EXHF   =         0.00000000
  -V(xc)+E(xc)   XCENC  =       -84.06475784
  PAW double counting   =      1501.39339357    -1386.02495639
  entropy T*S    EENTRO =        -0.00006585
  eigenvalues    EBANDS =         1.89384987
  atomic energy  EATOM  =       669.81430600
  Solvation  Ediel_sol  =         0.00000000
  ---------------------------------------------------
  free energy    TOTEN  =        -9.41844269 eV

  energy without entropy =       -9.41837684  energy(sigma->0) =       -9.41840976


--------------------------------------------------------------------------------------------------------




--------------------------------------- Iteration      3(   4)  ---------------------------------------


    POTLOK:  cpu time    0.0107: real time    0.0108
    SETDIJ:  cpu time    0.0021: real time    0.0021
     EDDAV:  cpu time    0.3242: real time    0.3250
       DOS:  cpu time    0.0005: real time    0.0005
    CHARGE:  cpu time    0.0206: real time    0.0207
    MIXING:  cpu time    0.0006: real time    0.0006
    --------------------------------------------
      LOOP:  cpu time    0.3588: real time    0.3597

 eigenvalue-minimisations  :  1544
 total energy-change (2. order) : 0.2395452E-03  (-0.4571390E-04)
 number of electron      17.9999991 magnetization 
 augmentation part       -3.6072923 magnetization 

 Broyden mixing:
  rms(total) = 0.12708E-01    rms(broyden)= 0.12708E-01
  rms(prec ) = 0.12752E-01
  weight for this iteration     100.00

 eigenvalues of (default mixing * dielectric matrix)
  average eigenvalue GAMMA=   1.8491
  2.6646  1.2063  1.6764

 Free energy of the ion-electron system (eV)
  ---------------------------------------------------
  alpha Z        PSCENC =         2.24677735
  Ewald energy   TEWEN  =      -669.13545066
  -Hartree energ DENC   =       -45.39261417
  -exchange      EXHF   =         0.00000000
  -V(xc)+E(xc)   XCENC  =       -84.05612516
  PAW double counting   =      1505.80914768    -1390.44556761
  entropy T*S    EENTRO =        -0.00006407
  eigenvalues    EBANDS =         1.74138750
  atomic energy  EATOM  =       669.81430600
  Solvation  Ediel_sol  =         0.00000000
  ---------------------------------------------------
  free energy    TOTEN  =        -9.41820314 eV

  energy without entropy =       -9.41813907  energy(sigma->0) =       -9.41817111


--------------------------------------------------------------------------------------------------------




--------------------------------------- Iteration      3(   5)  ---------------------------------------


    POTLOK:  cpu time    0.0107: real time    0.0107
    SETDIJ:  cpu time    0.0021: real time    0.0021
     EDDAV:  cpu time    0.3390: real time    0.3398
       DOS:  cpu time    0.0005: real time    0.0005
    --------------------------------------------
      LOOP:  cpu time    0.3523: real time    0.3531

 eigenvalue-minimisations  :  1640
 total energy-change (2. order) : 0.1447729E-05  (-0.2627998E-05)
 number of electron      17.9999991 magnetization 
 augmentation part       -3.6072923 magnetization 

 Free energy of the ion-electron system (eV)
  ---------------------------------------------------
  alpha Z        PSCENC =         2.24677735
  Ewald energy   TEWEN  =      -669.13545066
  -Hartree energ DENC   =       -45.37444764
  -exchange      EXHF   =         0.00000000
  -V(xc)+E(xc)   XCENC  =       -84.05410140
  PAW double counting   =      1509.02145648    -1393.66352440
  entropy T*S    EENTRO =        -0.00006376
  eigenvalues    EBANDS =         1.72684634
  atomic energy  EATOM  =       669.81430600
  Solvation  Ediel_sol  =         0.00000000
  ---------------------------------------------------
  free energy    TOTEN  =        -9.41820170 eV

  energy without entropy =       -9.41813794  energy(sigma->0) =       -9.41816982


--------------------------------------------------------------------------------------------------------




 average (electrostatic) potential at core
  the test charge radii are     1.1897
  (the norm of the test charge is              1.0000)
       1 -89.2611       2 -89.2611       3 -89.2611
 
 
 
 E-fermi :   5.7289     XC(G=0):  -8.9702     alpha+bet :-10.3362


 k-point     1 :       0.0000    0.0000    0.0000
  band No.  band energies     occupation 
      1      -7.8210      2.00000
      2      -4.5991      2.00000
      3      -4.5991      2.00000
      4       2.6801      2.00000
      5       2.9249      2.00000
      6       2.9249      2.00000
      7       4.0733      2.00000
      8       4.0733      2.00000
      9       4.9448      2.00000
     10       6.6683      0.00000
     11       6.6683      0.00000
     12       7.3132      0.00000
     13      10.6543      0.00000
     14      10.6543      0.00000
     15      11.5563      0.00000
     16      12.0125      0.00000

 k-point     2 :       0.1111    0.0000    0.0000
  band No.  band energies     occupation 
      1      -7.7417      2.00000
      2      -4.6236      2.00000
      3      -4.5772      2.00000
      4       2.0711      2.00000
      5       2.5341      2.00000
      6       2.8038      2.00000
      7       4.2953      2.00000
      8       4.5963      2.00000
      9       5.0531      2.00000
     10       6.4368      0.00000
     11       6.6211      0.00000
     12       7.2172      0.00000
     13      10.4502      0.00000
     14      10.6251      0.00000
     15      11.7587      0.00000
     16      12.0118      0.00000

 k-point     3 :       0.2222    0.0000    0.0000
  band No.  band energies     occupation 
      1      -7.5156      2.00000
      2      -4.7307      2.00000
      3      -4.5175      2.00000
      4       1.3172      2.00000
      5       1.9895      2.00000
      6       2.4775      2.00000
      7       4.3675      2.00000
      8       4.6766      2.00000
      9       4.8763      2.00000
     10       6.5584      0.00000
     11       6.7374      0.00000
     12       7.3824      0.00000
     13       9.7578      0.00000
     14      10.8642      0.00000
     15      12.0127      0.00000
     16      12.5650      0.00000

 k-point     4 :       0.3333   -0.0000    0.0000
  band No.  band energies     occupation 
      1      -7.1900      2.00000
      2      -4.9630      2.00000
      3      -4.4428      2.00000
      4       0.9439      2.00000
      5       1.5614      2.00000
      6       2.1982      2.00000
      7       3.3726      2.00000
      8       4.6808      2.00000
      9       4.8757      2.00000
     10       6.5659      0.00000
     11       6.7405      0.00000
     12       8.3928      0.00000
     13       9.1395      0.00000
     14      11.6307      0.00000
     15      12.7573      0.00000
     16      13.4475      0.00000

 k-point     5 :       0.4444    0.0000    0.0000
  band No.  band energies     occupation 
      1      -6.8982      2.00000
      2      -5.2213      2.00000
      3      -4.3901      2.00000
      4       0.9023      2.00000
      5       1.3644      2.00000
      6       2.1304      2.00000
      7       2.5144      2.00000
      8       4.6226      2.00000
      9       4.8576      2.00000
     10       6.5685      0.00000
     11       6.6774      0.00000
     12       8.8061      0.00000
     13       9.1883      0.00000
     14      12.6975      0.00000
     15      13.9432      0.00000
     16      14.3217      0.00000

 k-point     6 :       0.1111    0.1111    0.0000
  band No.  band energies     occupation 
      1      -7.5886      2.00000
      2      -4.6756      2.00000
      3      -4.5514      2.00000
      4       1.5624      2.00000
      5       1.8968      2.00000
      6       2.8443      2.00000
      7       4.1513      2.00000
      8       4.8601      2.00000
      9       4.9172      2.00000
     10       6.4704      0.00000
     11       6.7745      0.00000
     12       7.2814      0.00000
     13      10.2339      0.00000
     14      10.3366      0.00000
     15      12.0383      0.00000
     16      12.3387      0.00000

 k-point     7 :       0.2222    0.1111    0.0000
  band No.  band energies     occupation 
      1      -7.3097      2.00000
      2      -4.8227      2.00000
      3      -4.5176      2.00000
      4       1.1003      2.00000
      5       1.4756      2.00000
      6       2.5762      2.00000
      7       3.8813      2.00000
      8       4.2262      2.00000
      9       4.6217      2.00000
     10       6.9010      0.00000
     11       7.1951      0.00000
     12       7.7775      0.00000
     13       9.6844      0.00000
     14      10.6191      0.00000
     15      12.6075      0.00000
     16      13.0561      0.00000

 k-point     8 :       0.3333    0.1111    0.0000
  band No.  band energies     occupation 
      1      -6.9850      2.00000
      2      -5.0720      2.00000
      3      -4.4823      2.00000
      4       0.9504      2.00000
      5       1.3222      2.00000
      6       2.2618      2.00000
      7       2.9508      2.00000
      8       4.1701      2.00000
      9       4.3877      2.00000
     10       7.0141      0.00000
     11       7.2735      0.00000
     12       8.7636      0.00000
     13       9.2745      0.00000
     14      11.5170      0.00000
     15      13.5315      0.00000
     16      13.9043      0.00000

 k-point     9 :       0.4444    0.1111    0.0000
  band No.  band energies     occupation 
      1      -6.8156      2.00000
      2      -5.2231      2.00000
      3      -4.4670      2.00000
      4       0.9698      2.00000
      5       1.3187      2.00000
      6       2.2884      2.00000
      7       2.3401      2.00000
      8       4.1721      2.00000
      9       4.2924      2.00000
     10       7.0206      0.00000
     11       7.2907      0.00000
     12       9.1283      0.00000
     13       9.2178      0.00000
     14      12.4468      0.00000
     15      13.4660      0.00000
     16      14.4423      0.00000

 k-point    10 :       0.2222    0.2222    0.0000
  band No.  band energies     occupation 
      1      -7.0213      2.00000
      2      -4.9381      2.00000
      3      -4.5979      2.00000
      4       1.0655      2.00000
      5       1.1761      2.00000
      6       2.5423      2.00000
      7       3.4022      2.00000
      8       3.7219      2.00000
      9       3.7907      2.00000
     10       7.6246      0.00000
     11       7.9131      0.00000
     12       8.1278      0.00000
     13      10.0322      0.00000
     14      10.4354      0.00000
     15      12.8951      0.00000
     16      14.0699      0.00000

 k-point    11 :       0.3333    0.2222    0.0000
  band No.  band energies     occupation 
      1      -6.7764      2.00000
      2      -5.0717      2.00000
      3      -4.6734      2.00000
      4       1.1085      2.00000
      5       1.2436      2.00000
      6       2.4082      2.00000
      7       2.7271      2.00000
      8       3.4214      2.00000
      9       3.5226      2.00000
     10       7.8514      0.00000
     11       8.1732      0.00000
     12       8.8458      0.00000
     13       9.9848      0.00000
     14      11.2890      0.00000
     15      12.8757      0.00000
     16      13.7545      0.00000

 k-point    12 :       0.3333    0.3333    0.0000
  band No.  band energies     occupation 
      1      -6.6848      2.00000
      2      -4.9194      2.00000
      3      -4.9194      2.00000
      4       1.2477      2.00000
      5       1.2477      2.00000
      6       2.6874      2.00000
      7       2.6874      2.00000
      8       2.8451      2.00000
      9       3.1119      2.00000
     10       8.4739      0.00000
     11       8.4739      0.00000
     12       8.7999      0.00000
     13      10.5641      0.00000
     14      11.5782      0.00000
     15      11.5782      0.00000
     16      14.1303      0.00000

 k-point    13 :       0.0000    0.0000    0.2500
  band No.  band energies     occupation 
      1      -7.6006      2.00000
      2      -5.9172      2.00000
      3      -3.2517      2.00000
      4       2.2042      2.00000
      5       2.8069      2.00000
      6       3.2216      2.00000
      7       4.2413      2.00000
      8       4.2523      2.00000
      9       4.8907      2.00000
     10       6.3806      0.00000
     11       6.4139      0.00000
     12       6.8203      0.00000
     13      10.1231      0.00000
     14      11.2096      0.00000
     15      11.6293      0.00000
     16      11.7371      0.00000

 k-point    14 :       0.1111    0.0000    0.2500
  band No.  band energies     occupation 
      1      -7.5247      2.00000
      2      -5.8690      2.00000
      3      -3.3501      2.00000
      4       1.9550      2.00000
      5       2.6348      2.00000
      6       3.0787      2.00000
      7       3.9905      2.00000
      8       4.3598      2.00000
      9       4.5553      2.00000
     10       6.6452      0.00000
     11       6.7503      0.00000
     12       7.1577      0.00000
     13      10.2115      0.00000
     14      11.1740      0.00000
     15      11.3160      0.00000
     16      11.7825      0.00000

 k-point    15 :       0.2222    0.0000    0.2500
  band No.  band energies     occupation 
      1      -7.3119      2.00000
      2      -5.7317      2.00000
      3      -3.6573      2.00000
      4       1.6110      2.00000
      5       2.2329      2.00000
      6       2.8246      2.00000
      7       3.3485      2.00000
      8       3.9417      2.00000
      9       4.4703      2.00000
     10       6.9595      0.00000
     11       7.5176      0.00000
     12       7.9245      0.00000
     13      10.4793      0.00000
     14      10.9034      0.00000
     15      11.3873      0.00000
     16      11.9997      0.00000

 k-point    16 :       0.3333   -0.0000    0.2500
  band No.  band energies     occupation 
      1      -7.0128      2.00000
      2      -5.5629      2.00000
      3      -4.0775      2.00000
      4       1.2962      2.00000
      5       1.6846      2.00000
      6       2.5138      2.00000
      7       2.9155      2.00000
      8       3.9232      2.00000
      9       4.3682      2.00000
     10       7.0121      0.00000
     11       7.6784      0.00000
     12       8.7277      0.00000
     13      10.0751      0.00000
     14      11.3360      0.00000
     15      11.9523      0.00000
     16      12.7231      0.00000

 k-point    17 :       0.4444    0.0000    0.2500
  band No.  band energies     occupation 
      1      -6.7439      2.00000
      2      -5.5250      2.00000
      3      -4.3139      2.00000
      4       0.7722      2.00000
      5       1.3721      2.00000
      6       2.2399      2.00000
      7       3.3168      2.00000
      8       3.9478      2.00000
      9       4.2895      2.00000
     10       6.9213      0.00000
     11       7.6388      0.00000
     12       8.5821      0.00000
     13       9.6531      0.00000
     14      11.7199      0.00000
     15      13.3719      0.00000
     16      13.7725      0.00000

 k-point    18 :      -0.4444   -0.0000    0.2500
  band No.  band energies     occupation 
      1      -6.7183      2.00000
      2      -5.6357      2.00000
      3      -4.1671      2.00000
      4       0.4726      2.00000
      5       1.2811      2.00000
      6       2.2050      2.00000
      7       3.9644      2.00000
      8       4.0627      2.00000
      9       4.4075      2.00000
     10       6.8044      0.00000
     11       7.4561      0.00000
     12       7.8739      0.00000
     13       9.3748      0.00000
     14      12.2139      0.00000
     15      13.6943      0.00000
     16      14.2834      0.00000

 k-point    19 :      -0.3333    0.0000    0.2500
  band No.  band energies     occupation 
      1      -6.9849      2.00000
      2      -5.6994      2.00000
      3      -3.8507      2.00000
      4       0.6665      2.00000
      5       1.3759      2.00000
      6       2.3519      2.00000
      7       4.2476      2.00000
      8       4.2867      2.00000
      9       5.1195      2.00000
     10       6.5033      0.00000
     11       7.1006      0.00000
     12       7.2754      0.00000
     13       9.2826      0.00000
     14      12.2468      0.00000
     15      12.8006      0.00000
     16      13.5174      0.00000

 k-point    20 :      -0.2222   -0.0000    0.2500
  band No.  band energies     occupation 
      1      -7.3021      2.00000
      2      -5.7821      2.00000
      3      -3.5454      2.00000
      4       1.3347      2.00000
      5       1.6656      2.00000
      6       2.6361      2.00000
      7       4.4408      2.00000
      8       4.5814      2.00000
      9       5.2101      2.00000
     10       6.3107      0.00000
     11       6.7690      0.00000
     12       7.0406      0.00000
     13       9.4745      0.00000
     14      11.7435      0.00000
     15      11.9359      0.00000
     16      12.4190      0.00000

 k-point    21 :      -0.1111   -0.0000    0.2500
  band No.  band energies     occupation 
      1      -7.5234      2.00000
      2      -5.8755      2.00000
      3      -3.3322      2.00000
      4       1.9723      2.00000
      5       2.3462      2.00000
      6       2.9888      2.00000
      7       4.4228      2.00000
      8       4.5102      2.00000
      9       4.8263      2.00000
     10       6.3624      0.00000
     11       6.3834      0.00000
     12       7.1508      0.00000
     13       9.9356      0.00000
     14      11.2170      0.00000
     15      11.4830      0.00000
     16      11.9749      0.00000

 k-point    22 :       0.1111    0.1111    0.2500
  band No.  band energies     occupation 
      1      -7.3769      2.00000
      2      -5.7918      2.00000
      3      -3.5169      2.00000
      4       1.6427      2.00000
      5       1.9781      2.00000
      6       2.8491      2.00000
      7       3.8513      2.00000
      8       4.4228      2.00000
      9       4.8216      2.00000
     10       6.5781      0.00000
     11       7.1224      0.00000
     12       7.3362      0.00000
     13       9.9661      0.00000
     14      11.1978      0.00000
     15      11.5658      0.00000
     16      11.9442      0.00000

 k-point    23 :       0.2222    0.1111    0.2500
  band No.  band energies     occupation 
      1      -7.1168      2.00000
      2      -5.6402      2.00000
      3      -3.8874      2.00000
      4       1.3049      2.00000
      5       1.7020      2.00000
      6       2.6739      2.00000
      7       2.9640      2.00000
      8       4.0292      2.00000
      9       4.9358      2.00000
     10       6.7351      0.00000
     11       7.4718      0.00000
     12       8.3595      0.00000
     13      10.2952      0.00000
     14      10.7762      0.00000
     15      11.8443      0.00000
     16      12.6102      0.00000

 k-point    24 :       0.3333    0.1111    0.2500
  band No.  band energies     occupation 
      1      -6.8207      2.00000
      2      -5.5162      2.00000
      3      -4.2573      2.00000
      4       1.0149      2.00000
      5       1.2778      2.00000
      6       2.3494      2.00000
      7       2.9876      2.00000
      8       3.7108      2.00000
      9       4.9557      2.00000
     10       6.6728      0.00000
     11       7.7867      0.00000
     12       8.7255      0.00000
     13       9.9498      0.00000
     14      11.4262      0.00000
     15      12.3692      0.00000
     16      13.2907      0.00000

 k-point    25 :       0.4444    0.1111    0.2500
  band No.  band energies     occupation 
      1      -6.6541      2.00000
      2      -5.5611      2.00000
      3      -4.3189      2.00000
      4       0.6083      2.00000
      5       1.1585      2.00000
      6       2.2437      2.00000
      7       3.2099      2.00000
      8       3.8569      2.00000
      9       4.9621      2.00000
     10       6.6013      0.00000
     11       7.8451      0.00000
     12       8.2458      0.00000
     13       9.7108      0.00000
     14      12.0732      0.00000
     15      13.2930      0.00000
     16      13.6065      0.00000

 k-point    26 :      -0.4444    0.1111    0.2500
  band No.  band energies     occupation 
      1      -6.7945      2.00000
      2      -5.6368      2.00000
      3      -4.0870      2.00000
      4       0.5383      2.00000
      5       1.2856      2.00000
      6       2.2804      2.00000
      7       3.2636      2.00000
      8       4.5604      2.00000
      9       5.0371      2.00000
     10       6.4919      0.00000
     11       7.3598      0.00000
     12       7.8786      0.00000
     13       9.6068      0.00000
     14      12.0251      0.00000
     15      12.7412      0.00000
     16      13.8440      0.00000

 k-point    27 :      -0.3333    0.1111    0.2500
  band No.  band energies     occupation 
      1      -7.1053      2.00000
      2      -5.6976      2.00000
      3      -3.7816      2.00000
      4       0.9690      2.00000
      5       1.5300      2.00000
      6       2.5005      2.00000
      7       3.4718      2.00000
      8       4.7376      2.00000
      9       5.3546      2.00000
     10       6.2633      0.00000
     11       6.9919      0.00000
     12       7.6920      0.00000
     13       9.6530      0.00000
     14      11.4134      0.00000
     15      12.1947      0.00000
     16      12.9982      0.00000

 k-point    28 :       0.2222    0.2222    0.2500
  band No.  band energies     occupation 
      1      -6.8393      2.00000
      2      -5.5740      2.00000
      3      -4.1419      2.00000
      4       0.7776      2.00000
      5       1.3797      2.00000
      6       2.2745      2.00000
      7       2.8204      2.00000
      8       4.3458      2.00000
      9       5.2198      2.00000
     10       6.5746      0.00000
     11       7.4023      0.00000
     12       8.4670      0.00000
     13      10.2587      0.00000
     14      10.8319      0.00000
     15      12.5690      0.00000
     16      13.3922      0.00000

 k-point    29 :       0.3333    0.2222    0.2500
  band No.  band energies     occupation 
      1      -6.6161      2.00000
      2      -5.5081      2.00000
      3      -4.3987      2.00000
      4       0.7464      2.00000
      5       1.0392      2.00000
      6       1.9453      2.00000
      7       3.0297      2.00000
      8       3.9830      2.00000
      9       5.0239      2.00000
     10       6.8221      0.00000
     11       7.9216      0.00000
     12       8.4659      0.00000
     13      10.3021      0.00000
     14      11.3764      0.00000
     15      12.9688      0.00000
     16      13.1056      0.00000

 k-point    30 :       0.4444    0.2222    0.2500
  band No.  band energies     occupation 
      1      -6.6085      2.00000
      2      -5.5411      2.00000
      3      -4.3589      2.00000
      4       0.6080      2.00000
      5       1.1077      2.00000
      6       1.9606      2.00000
      7       2.9872      2.00000
      8       4.2629      2.00000
      9       4.8995      2.00000
     10       6.9375      0.00000
     11       7.7033      0.00000
     12       8.3444      0.00000
     13      10.2313      0.00000
     14      11.5962      0.00000
     15      12.6962      0.00000
     16      13.6119      0.00000

 k-point    31 :       0.3333    0.3333    0.2500
  band No.  band energies     occupation 
      1      -6.5254      2.00000
      2      -5.4991      2.00000
      3      -4.4740      2.00000
      4       0.6952      2.00000
      5       1.0127      2.00000
      6       1.6300      2.00000
      7       3.1808      2.00000
      8       4.1791      2.00000
      9       4.6288      2.00000
     10       7.3773      0.00000
     11       8.0232      0.00000
     12       8.1073      0.00000
     13      11.0212      0.00000
     14      11.3075      0.00000
     15      11.8816      0.00000
     16      13.8348      0.00000

 k-point    32 :       0.0000    0.0000    0.5000
  band No.  band energies     occupation 
      1      -6.9517      2.00000
      2      -6.9517      2.00000
      3      -2.5635      2.00000
      4       1.7221      2.00000
      5       3.0804      2.00000
      6       3.0804      2.00000
      7       4.3850      2.00000
      8       4.6650      2.00000
      9       4.6650      2.00000
     10       6.2073      0.00000
     11       6.2540      0.00000
     12       6.2540      0.00000
     13       9.7506      0.00000
     14      11.0258      0.00000
     15      11.0258      0.00000
     16      12.7214      0.00000

 k-point    33 :       0.1111    0.0000    0.5000
  band No.  band energies     occupation 
      1      -6.8927      2.00000
      2      -6.8767      2.00000
      3      -2.7302      2.00000
      4       1.6805      2.00000
      5       2.8921      2.00000
      6       2.9787      2.00000
      7       3.9452      2.00000
      8       4.2856      2.00000
      9       4.5275      2.00000
     10       6.4378      0.00000
     11       6.6403      0.00000
     12       7.0347      0.00000
     13       9.9771      0.00000
     14      10.7184      0.00000
     15      11.3310      0.00000
     16      12.6366      0.00000

 k-point    34 :       0.2222    0.0000    0.5000
  band No.  band energies     occupation 
      1      -6.7343      2.00000
      2      -6.6624      2.00000
      3      -3.1636      2.00000
      4       1.3787      2.00000
      5       2.3164      2.00000
      6       2.6866      2.00000
      7       3.7491      2.00000
      8       3.9031      2.00000
      9       4.3648      2.00000
     10       6.8495      0.00000
     11       7.3429      0.00000
     12       7.7906      0.00000
     13      10.2088      0.00000
     14      10.8698      0.00000
     15      11.7894      0.00000
     16      12.3952      0.00000

 k-point    35 :       0.3333   -0.0000    0.5000
  band No.  band energies     occupation 
      1      -6.5348      2.00000
      2      -6.3511      2.00000
      3      -3.7048      2.00000
      4       0.6994      2.00000
      5       2.0561      2.00000
      6       2.3747      2.00000
      7       3.5188      2.00000
      8       3.7769      2.00000
      9       4.6612      2.00000
     10       7.0597      0.00000
     11       7.6422      0.00000
     12       7.9166      0.00000
     13      10.2194      0.00000
     14      11.1818      0.00000
     15      12.4976      0.00000
     16      12.8511      0.00000

 k-point    36 :       0.4444    0.0000    0.5000
  band No.  band energies     occupation 
      1      -6.3903      2.00000
      2      -6.0695      2.00000
      3      -4.1276      2.00000
      4       0.2131      2.00000
      5       2.0248      2.00000
      6       2.1486      2.00000
      7       3.3598      2.00000
      8       3.6854      2.00000
      9       5.2782      2.00000
     10       6.5907      0.00000
     11       7.5548      0.00000
     12       8.1679      0.00000
     13      10.2461      0.00000
     14      11.0265      0.00000
     15      13.5730      0.00000
     16      13.6619      0.00000

 k-point    37 :       0.1111    0.1111    0.5000
  band No.  band energies     occupation 
      1      -6.7804      2.00000
      2      -6.7354      2.00000
      3      -3.0277      2.00000
      4       1.5290      2.00000
      5       2.5355      2.00000
      6       2.6018      2.00000
      7       3.7181      2.00000
      8       3.9034      2.00000
      9       4.7508      2.00000
     10       6.3665      0.00000
     11       7.4359      0.00000
     12       7.6095      0.00000
     13      10.3861      0.00000
     14      10.4605      0.00000
     15      11.8489      0.00000
     16      12.3057      0.00000

 k-point    38 :       0.2222    0.1111    0.5000
  band No.  band energies     occupation 
      1      -6.5905      2.00000
      2      -6.4792      2.00000
      3      -3.5056      2.00000
      4       1.0594      2.00000
      5       1.9515      2.00000
      6       2.1521      2.00000
      7       3.7173      2.00000
      8       4.0645      2.00000
      9       4.7554      2.00000
     10       6.6677      0.00000
     11       7.7243      0.00000
     12       7.8909      0.00000
     13      10.2804      0.00000
     14      11.0701      0.00000
     15      12.0253      0.00000
     16      12.7161      0.00000

 k-point    39 :       0.3333    0.1111    0.5000
  band No.  band energies     occupation 
      1      -6.4044      2.00000
      2      -6.1792      2.00000
      3      -3.9852      2.00000
      4       0.4610      2.00000
      5       1.6860      2.00000
      6       1.8339      2.00000
      7       3.8016      2.00000
      8       4.1494      2.00000
      9       5.0341      2.00000
     10       6.8109      0.00000
     11       7.4104      0.00000
     12       7.9590      0.00000
     13      10.3097      0.00000
     14      11.2665      0.00000
     15      12.4916      0.00000
     16      13.4875      0.00000

 k-point    40 :       0.4444    0.1111    0.5000
  band No.  band energies     occupation 
      1      -6.3248      2.00000
      2      -6.0219      2.00000
      3      -4.2099      2.00000
      4       0.2124      2.00000
      5       1.6429      2.00000
      6       1.6889      2.00000
      7       3.9265      2.00000
      8       4.0041      2.00000
      9       5.4904      2.00000
     10       6.4094      0.00000
     11       7.4042      0.00000
     12       7.9750      0.00000
     13      10.3823      0.00000
     14      11.0720      0.00000
     15      13.6808      0.00000
     16      13.7489      0.00000

 k-point    41 :       0.2222    0.2222    0.5000
  band No.  band energies     occupation 
      1      -6.3887      2.00000
      2      -6.2475      2.00000
      3      -3.9124      2.00000
      4       0.7492      2.00000
      5       1.3011      2.00000
      6       1.5979      2.00000
      7       4.1103      2.00000
      8       4.4688      2.00000
      9       5.1605      2.00000
     10       6.5139      0.00000
     11       7.5988      0.00000
     12       7.6585      0.00000
     13      10.5383      0.00000
     14      11.3874      0.00000
     15      12.1457      0.00000
     16      12.4643      0.00000

 k-point    42 :       0.3333    0.2222    0.5000
  band No.  band energies     occupation 
      1      -6.2322      2.00000
      2      -6.0640      2.00000
      3      -4.2102      2.00000
      4       0.4532      2.00000
      5       1.0591      2.00000
      6       1.2190      2.00000
      7       4.4213      2.00000
      8       4.8497      2.00000
      9       5.4570      2.00000
     10       6.3812      0.00000
     11       7.1545      0.00000
     12       7.4738      0.00000
     13      10.8733      0.00000
     14      11.5831      0.00000
     15      12.4908      0.00000
     16      12.8239      0.00000

 k-point    43 :       0.3333    0.3333    0.5000
  band No.  band energies     occupation 
      1      -6.0890      2.00000
      2      -6.0890      2.00000
      3      -4.2923      2.00000
      4       0.6110      2.00000
      5       0.8191      2.00000
      6       0.8191      2.00000
      7       4.6650      2.00000
      8       5.6525      1.96944
      9       5.6525      1.96944
     10       5.7952      0.06113
     11       7.0722      0.00000
     12       7.0722      0.00000
     13      11.5660      0.00000
     14      12.1905      0.00000
     15      12.1905      0.00000
     16      12.7039      0.00000


--------------------------------------------------------------------------------------------------------


 soft charge-density along one line, spin component           1
         0         1         2         3         4         5         6         7         8         9
 total charge-density along one line
 
 pseudopotential strength for first ion, spin component:           1
 51.749  56.304  -0.000  -0.000  -0.053  -0.000  -0.000  -0.077
 56.304  61.264  -0.000  -0.000  -0.058  -0.000  -0.000  -0.084
 -0.000  -0.000  12.736   0.010   0.000  18.358   0.014   0.000
 -0.000  -0.000   0.010  12.753   0.000   0.014  18.383   0.000
 -0.053  -0.058   0.000   0.000  12.752   0.000   0.000  18.382
 -0.000  -0.000  18.358   0.014   0.000  26.472   0.021   0.000
 -0.000  -0.000   0.014  18.383   0.000   0.021  26.507   0.000
 -0.077  -0.084   0.000   0.000  18.382   0.000   0.000  26.506
  0.000   0.000  -0.010   0.000  -0.000  -0.015   0.000  -0.000
  0.016   0.017   0.000  -0.000   0.000   0.000  -0.000   0.000
  0.008   0.009   0.000  -0.000   0.006   0.000  -0.000   0.009
  0.000   0.000   0.000  -0.010  -0.000   0.000  -0.014  -0.000
  0.013   0.014   0.000  -0.000  -0.010   0.000  -0.000  -0.015
 total augmentation occupancy for first ion, spin component:           1
 13.013  -9.508   0.000   0.000   2.318   0.000   0.000  -0.621   0.000  -0.171  -0.107   0.000  -0.119
 -9.508   8.213   0.000   0.000  -1.948   0.000   0.000   0.532   0.000   0.156   0.096   0.000   0.108
  0.000   0.000   2.536   0.251   0.000  -0.479  -0.211   0.000  -0.059   0.000   0.000  -0.052   0.000
  0.000   0.000   0.251   2.944   0.000  -0.211  -0.829  -0.000  -0.050   0.000  -0.000  -0.132  -0.000
  2.318  -1.948   0.000   0.000   2.802   0.000   0.000  -0.745   0.000  -0.058  -0.018   0.000  -0.058
  0.000   0.000  -0.479  -0.211   0.000   0.172   0.081   0.000   0.014   0.000   0.000   0.019   0.000
  0.000   0.000  -0.211  -0.829   0.000   0.081   0.301   0.000   0.020   0.000   0.000   0.041   0.000
 -0.621   0.532   0.000   0.000  -0.745   0.000   0.000   0.260   0.000   0.017   0.004   0.000   0.015
  0.000   0.000  -0.059  -0.050   0.000   0.014   0.020   0.000   0.009   0.000   0.000   0.010   0.000
 -0.171   0.156   0.000   0.000  -0.058   0.000   0.000   0.017   0.000   0.014   0.004   0.000   0.003
 -0.107   0.096   0.000  -0.000  -0.018   0.000   0.000   0.004  -0.000   0.004   0.008   0.000  -0.001
  0.000   0.000  -0.052  -0.132   0.000   0.019   0.041   0.000   0.010   0.000   0.000   0.026   0.000
 -0.119   0.108   0.000  -0.000  -0.058   0.000   0.000   0.015   0.000   0.003  -0.001   0.000   0.010


------------------------ aborting loop because EDIFF is reached ----------------------------------------


    CHARGE:  cpu time    0.0207: real time    0.0207
    FORLOC:  cpu time    0.0008: real time    0.0008
    FORNL :  cpu time    0.0764: real time    0.0765
    STRESS:  cpu time    0.2232: real time    0.2237
    FORCOR:  cpu time    0.0114: real time    0.0114
    FORHAR:  cpu time    0.0029: real time    0.0029
    MIXING:  cpu time    0.0006: real time    0.0006
    OFIELD:  cpu time    0.0000: real time    0.0000

 ---------------------------------------------------------------------------------------------

         DFTD3 V3.0 Rev 1        
 Edisp (eV)   -0.78057

 E6    (eV) :    -0.2979
 E8    (eV) :    -0.4827
 % E8        : 61.84
    FORVDW:  cpu time    0.0091: real time    0.0091

  FORCE on cell =-STRESS in cart. coord.  units (eV):
  Direction    XX          YY          ZZ          XY          YZ          ZX
  --------------------------------------------------------------------------------------
  Alpha Z     2.24678     2.24678     2.24678
  Ewald    -237.44917  -237.44917  -194.23778    -0.00000    -0.00001     0.00000
  Hartree    11.42471    11.42471    22.53295     0.00000     0.00000    -0.00000
  E(xc)     -70.37307   -70.37307   -69.87844    -0.00000     0.00000    -0.00000
  Local    -112.59697  -112.59702  -157.01836    -0.00004     0.00000    -0.00000
  n-local   332.23258   333.02036   328.31989    -1.23713    -0.73386    -1.26169
  augment   -81.11145   -81.11140   -78.72024     0.00004    -0.00000     0.00000
  Kinetic   152.57281   158.97473   147.30109    -7.23127     0.14185     1.43016
  Fock        0.00000     0.00000     0.00000     0.00000     0.00000     0.00000
  vdW        -0.75300    -0.75300    -0.83737     0.00000    -0.00000    -0.00000
  -------------------------------------------------------------------------------------
  Total      -0.21194    -0.21194    -0.29147     0.00000     0.00000    -0.00000
  in kB      -3.26383    -3.26383    -4.48863     0.00000     0.00000    -0.00000
  external pressure =       -3.67 kB  Pullay stress =        0.00 kB


 VOLUME and BASIS-vectors are now :
 -----------------------------------------------------------------------------
  energy-cutoff  :      520.00
  volume of cell :      104.04
      direct lattice vectors                 reciprocal lattice vectors
     4.482156603  0.000000000  0.000000000     0.223106886  0.128810820  0.000000000
    -2.241078301  3.881661482  0.000000000     0.000000000  0.257621641  0.000000000
    -0.000000000  0.000000000  5.979870565    -0.000000000 -0.000000000  0.167227700

  length of vectors
     4.482156603  4.482156603  5.979870565     0.257621641  0.257621641  0.167227700


 FORCES acting on ions
    electron-ion (+dipol)            ewald-force                    non-local-force                 convergence-correction
 -----------------------------------------------------------------------------------------------
   -.128E+02 0.120E-04 -.120E-05   0.182E+02 0.149E-05 0.177E-05   -.525E+01 0.278E-16 0.278E-16   0.303E-03 0.466E-08 -.251E-09
   0.639E+01 -.111E+02 -.183E-04   -.910E+01 0.158E+02 -.854E-05   0.263E+01 -.455E+01 0.000E+00   -.152E-03 0.263E-03 0.592E-08
   0.639E+01 0.111E+02 0.191E-04   -.910E+01 -.158E+02 0.677E-05   0.263E+01 0.455E+01 0.000E+00   -.152E-03 -.263E-03 -.567E-08
 -----------------------------------------------------------------------------------------------
   0.257E-04 -.741E-05 -.329E-06   0.178E-14 0.178E-14 0.174E-17   -.888E-15 0.888E-15 0.278E-16   -.147E-09 0.860E-10 -.729E-11
 
 
 POSITION                                       TOTAL-FORCE (eV/Angst)
 -----------------------------------------------------------------------------------
      1.18545      0.00000      1.99329         0.146915      0.000000      0.000000
     -0.59272      1.02663      3.98658        -0.073458      0.127232      0.000000
      1.64835      2.85503      0.00000        -0.073458     -0.127232     -0.000000
 -----------------------------------------------------------------------------------
    total drift:                                0.000026     -0.000007     -0.000000


--------------------------------------------------------------------------------------------------------



  FREE ENERGIE OF THE ION-ELECTRON SYSTEM (eV)
  ---------------------------------------------------
  free  energy   TOTEN  =       -10.19877539 eV

  energy  without entropy=      -10.19871164  energy(sigma->0) =      -10.19874351
 
 d Force =-0.1694164E-02[-0.240E-02,-0.993E-03]  d Energy = 0.2577252E-02-0.427E-02
 d Force =-0.2921365E+00[-0.297E+00,-0.288E+00]  d Ewald  = 0.1703469E+01-0.200E+01


--------------------------------------------------------------------------------------------------------


    POTLOK:  cpu time    0.0130: real time    0.0131


--------------------------------------------------------------------------------------------------------




--------------------------------------------------------------------------------------------------------


    WAVPRE:  cpu time    0.0026: real time    0.0047
    FEWALD:  cpu time    0.0001: real time    0.0001
    GENKIN:  cpu time    0.0069: real time    0.0069
    ORTHCH:  cpu time    0.0199: real time    0.0199
     LOOP+:  cpu time    2.2060: real time    2.2170


--------------------------------------- Iteration      4(   1)  ---------------------------------------


    POTLOK:  cpu time    0.0110: real time    0.0122
    SETDIJ:  cpu time    0.0022: real time    0.0022
     EDDAV:  cpu time    0.3065: real time    0.3072
       DOS:  cpu time    0.0005: real time    0.0005
    CHARGE:  cpu time    0.0208: real time    0.0209
    MIXING:  cpu time    0.0006: real time    0.0006
    --------------------------------------------
      LOOP:  cpu time    0.3416: real time    0.3436

 eigenvalue-minimisations  :  1408
 total energy-change (2. order) :-0.2031230E-02  (-0.1423044E-01)
 number of electron      17.9999990 magnetization 
 augmentation part       -3.6032600 magnetization 

 Broyden mixing:
  rms(total) = 0.20920E-01    rms(broyden)= 0.20919E-01
  rms(prec ) = 0.35606E-01
  weight for this iteration     100.00

 Free energy of the ion-electron system (eV)
  ---------------------------------------------------
  alpha Z        PSCENC =         2.26142974
  Ewald energy   TEWEN  =      -671.06665058
  -Hartree energ DENC   =       -45.14638112
  -exchange      EXHF   =         0.00000000
  -V(xc)+E(xc)   XCENC  =       -84.05025373
  PAW double counting   =      1509.58446964    -1394.22715720
  entropy T*S    EENTRO =        -0.00006052
  eigenvalues    EBANDS =         3.41006339
  atomic energy  EATOM  =       669.81430600
  Solvation  Ediel_sol  =         0.00000000
  ---------------------------------------------------
  free energy    TOTEN  =        -9.42023437 eV

  energy without entropy =       -9.42017386  energy(sigma->0) =       -9.42020411


--------------------------------------------------------------------------------------------------------




--------------------------------------- Iteration      4(   2)  ---------------------------------------


    POTLOK:  cpu time    0.0112: real time    0.0112
    SETDIJ:  cpu time    0.0022: real time    0.0022
     EDDAV:  cpu time    0.3697: real time    0.3706
       DOS:  cpu time    0.0005: real time    0.0005
    CHARGE:  cpu time    0.0207: real time    0.0207
    MIXING:  cpu time    0.0005: real time    0.0005
    --------------------------------------------
      LOOP:  cpu time    0.4048: real time    0.4057

 eigenvalue-minimisations  :  1816
 total energy-change (2. order) : 0.6421582E-03  (-0.6381001E-03)
 number of electron      17.9999990 magnetization 
 augmentation part       -3.6020182 magnetization 

 Broyden mixing:
  rms(total) = 0.14001E-01    rms(broyden)= 0.14001E-01
  rms(prec ) = 0.22677E-01
  weight for this iteration     100.00

 eigenvalues of (default mixing * dielectric matrix)
  average eigenvalue GAMMA=   0.7680
  0.7680

 Free energy of the ion-electron system (eV)
  ---------------------------------------------------
  alpha Z        PSCENC =         2.26142974
  Ewald energy   TEWEN  =      -671.06665058
  -Hartree energ DENC   =       -44.93098475
  -exchange      EXHF   =         0.00000000
  -V(xc)+E(xc)   XCENC  =       -84.04550232
  PAW double counting   =      1507.80886053    -1392.44818707
  entropy T*S    EENTRO =        -0.00005701
  eigenvalues    EBANDS =         3.18719323
  atomic energy  EATOM  =       669.81430600
  Solvation  Ediel_sol  =         0.00000000
  ---------------------------------------------------
  free energy    TOTEN  =        -9.41959222 eV

  energy without entropy =       -9.41953521  energy(sigma->0) =       -9.41956371


--------------------------------------------------------------------------------------------------------




--------------------------------------- Iteration      4(   3)  ---------------------------------------


    POTLOK:  cpu time    0.0107: real time    0.0107
    SETDIJ:  cpu time    0.0021: real time    0.0021
     EDDAV:  cpu time    0.3390: real time    0.3398
       DOS:  cpu time    0.0005: real time    0.0005
    CHARGE:  cpu time    0.0206: real time    0.0206
    MIXING:  cpu time    0.0006: real time    0.0006
    --------------------------------------------
      LOOP:  cpu time    0.3734: real time    0.3742

 eigenvalue-minimisations  :  1648
 total energy-change (2. order) : 0.5245498E-03  (-0.5712985E-04)
 number of electron      17.9999990 magnetization 
 augmentation part       -3.6054030 magnetization 

 Broyden mixing:
  rms(total) = 0.59707E-02    rms(broyden)= 0.59707E-02
  rms(prec ) = 0.10090E-01
  weight for this iteration     100.00

 eigenvalues of (default mixing * dielectric matrix)
  average eigenvalue GAMMA=   1.2558
  0.7831  1.7284

 Free energy of the ion-electron system (eV)
  ---------------------------------------------------
  alpha Z        PSCENC =         2.26142974
  Ewald energy   TEWEN  =      -671.06665058
  -Hartree energ DENC   =       -44.78150357
  -exchange      EXHF   =         0.00000000
  -V(xc)+E(xc)   XCENC  =       -84.03837424
  PAW double counting   =      1510.45696165    -1395.09443038
  entropy T*S    EENTRO =        -0.00005668
  eigenvalues    EBANDS =         3.02925039
  atomic energy  EATOM  =       669.81430600
  Solvation  Ediel_sol  =         0.00000000
  ---------------------------------------------------
  free energy    TOTEN  =        -9.41906767 eV

  energy without entropy =       -9.41901099  energy(sigma->0) =       -9.41903933


--------------------------------------------------------------------------------------------------------




--------------------------------------- Iteration      4(   4)  ---------------------------------------


    POTLOK:  cpu time    0.0107: real time    0.0107
    SETDIJ:  cpu time    0.0021: real time    0.0021
     EDDAV:  cpu time    0.3324: real time    0.3332
       DOS:  cpu time    0.0005: real time    0.0005
    CHARGE:  cpu time    0.0206: real time    0.0206
    MIXING:  cpu time    0.0006: real time    0.0006
    --------------------------------------------
      LOOP:  cpu time    0.3668: real time    0.3677

 eigenvalue-minimisations  :  1592
 total energy-change (2. order) : 0.1401100E-03  (-0.3122707E-04)
 number of electron      17.9999990 magnetization 
 augmentation part       -3.6083136 magnetization 

 Broyden mixing:
  rms(total) = 0.10971E-01    rms(broyden)= 0.10971E-01
  rms(prec ) = 0.10995E-01
  weight for this iteration     100.00

 eigenvalues of (default mixing * dielectric matrix)
  average eigenvalue GAMMA=   1.3702
  1.3524  1.3791  1.3791

 Free energy of the ion-electron system (eV)
  ---------------------------------------------------
  alpha Z        PSCENC =         2.26142974
  Ewald energy   TEWEN  =      -671.06665058
  -Hartree energ DENC   =       -44.66404802
  -exchange      EXHF   =         0.00000000
  -V(xc)+E(xc)   XCENC  =       -84.03192766
  PAW double counting   =      1513.19029084    -1397.82826884
  entropy T*S    EENTRO =        -0.00005619
  eigenvalues    EBANDS =         2.90599715
  atomic energy  EATOM  =       669.81430600
  Solvation  Ediel_sol  =         0.00000000
  ---------------------------------------------------
  free energy    TOTEN  =        -9.41892756 eV

  energy without entropy =       -9.41887137  energy(sigma->0) =       -9.41889946


--------------------------------------------------------------------------------------------------------




--------------------------------------- Iteration      4(   5)  ---------------------------------------


    POTLOK:  cpu time    0.0107: real time    0.0107
    SETDIJ:  cpu time    0.0021: real time    0.0021
     EDDAV:  cpu time    0.2601: real time    0.2607
       DOS:  cpu time    0.0005: real time    0.0005
    --------------------------------------------
      LOOP:  cpu time    0.2733: real time    0.2740

 eigenvalue-minimisations  :  1072
 total energy-change (2. order) : 0.1145486E-05  (-0.8818173E-06)
 number of electron      17.9999990 magnetization 
 augmentation part       -3.6083136 magnetization 

 Free energy of the ion-electron system (eV)
  ---------------------------------------------------
  alpha Z        PSCENC =         2.26142974
  Ewald energy   TEWEN  =      -671.06665058
  -Hartree energ DENC   =       -44.66066021
  -exchange      EXHF   =         0.00000000
  -V(xc)+E(xc)   XCENC  =       -84.03147657
  PAW double counting   =      1514.32290475    -1398.96291396
  entropy T*S    EENTRO =        -0.00005604
  eigenvalues    EBANDS =         2.90419045
  atomic energy  EATOM  =       669.81430600
  Solvation  Ediel_sol  =         0.00000000
  ---------------------------------------------------
  free energy    TOTEN  =        -9.41892641 eV

  energy without entropy =       -9.41887037  energy(sigma->0) =       -9.41889839


--------------------------------------------------------------------------------------------------------




 average (electrostatic) potential at core
  the test charge radii are     1.1897
  (the norm of the test charge is              1.0000)
       1 -89.1907       2 -89.1907       3 -89.1907
 
 
 
 E-fermi :   5.8222     XC(G=0):  -9.0014     alpha+bet :-10.4036


 k-point     1 :       0.0000    0.0000    0.0000
  band No.  band energies     occupation 
      1      -7.7658      2.00000
      2      -4.5270      2.00000
      3      -4.5270      2.00000
      4       2.7495      2.00000
      5       3.0164      2.00000
      6       3.0164      2.00000
      7       4.1342      2.00000
      8       4.1342      2.00000
      9       4.9843      2.00000
     10       6.7503      0.00000
     11       6.7503      0.00000
     12       7.3784      0.00000
     13      10.7351      0.00000
     14      10.7351      0.00000
     15      11.6786      0.00000
     16      12.0690      0.00000

 k-point     2 :       0.1111    0.0000    0.0000
  band No.  band energies     occupation 
      1      -7.6849      2.00000
      2      -4.5515      2.00000
      3      -4.5049      2.00000
      4       2.1350      2.00000
      5       2.6121      2.00000
      6       2.8719      2.00000
      7       4.3739      2.00000
      8       4.6714      2.00000
      9       5.1229      2.00000
     10       6.5026      0.00000
     11       6.6966      0.00000
     12       7.2721      0.00000
     13      10.5135      0.00000
     14      10.7040      0.00000
     15      11.8405      0.00000
     16      12.0877      0.00000

 k-point     3 :       0.2222    0.0000    0.0000
  band No.  band energies     occupation 
      1      -7.4537      2.00000
      2      -4.6611      2.00000
      3      -4.4445      2.00000
      4       1.3712      2.00000
      5       2.0566      2.00000
      6       2.5305      2.00000
      7       4.4573      2.00000
      8       4.7670      2.00000
      9       4.9505      2.00000
     10       6.6216      0.00000
     11       6.8052      0.00000
     12       7.4345      0.00000
     13       9.7996      0.00000
     14      10.9411      0.00000
     15      12.0805      0.00000
     16      12.6637      0.00000

 k-point     4 :       0.3333   -0.0000    0.0000
  band No.  band energies     occupation 
      1      -7.1189      2.00000
      2      -4.9019      2.00000
      3      -4.3686      2.00000
      4       0.9994      2.00000
      5       1.6211      2.00000
      6       2.2425      2.00000
      7       3.4356      2.00000
      8       4.7857      2.00000
      9       4.9599      2.00000
     10       6.6217      0.00000
     11       6.7903      0.00000
     12       8.4780      0.00000
     13       9.1720      0.00000
     14      11.7127      0.00000
     15      12.8291      0.00000
     16      13.5640      0.00000

 k-point     5 :       0.4444    0.0000    0.0000
  band No.  band energies     occupation 
      1      -6.8150      2.00000
      2      -5.1733      2.00000
      3      -4.3149      2.00000
      4       0.9666      2.00000
      5       1.4236      2.00000
      6       2.1686      2.00000
      7       2.5592      2.00000
      8       4.7281      2.00000
      9       4.9478      2.00000
     10       6.6252      0.00000
     11       6.7186      0.00000
     12       8.8348      0.00000
     13       9.2891      0.00000
     14      12.7979      0.00000
     15      14.0261      0.00000
     16      14.4511      0.00000

 k-point     6 :       0.1111    0.1111    0.0000
  band No.  band energies     occupation 
      1      -7.5285      2.00000
      2      -4.6041      2.00000
      3      -4.4793      2.00000
      4       1.6204      2.00000
      5       1.9542      2.00000
      6       2.9190      2.00000
      7       4.2130      2.00000
      8       4.9603      2.00000
      9       5.0032      2.00000
     10       6.5272      0.00000
     11       6.8402      0.00000
     12       7.3379      0.00000
     13      10.2935      0.00000
     14      10.3895      0.00000
     15      12.1223      0.00000
     16      12.4345      0.00000

 k-point     7 :       0.2222    0.1111    0.0000
  band No.  band energies     occupation 
      1      -7.2424      2.00000
      2      -4.7558      2.00000
      3      -4.4459      2.00000
      4       1.1545      2.00000
      5       1.5292      2.00000
      6       2.6391      2.00000
      7       3.9539      2.00000
      8       4.2926      2.00000
      9       4.7090      2.00000
     10       6.9654      0.00000
     11       7.2730      0.00000
     12       7.8453      0.00000
     13       9.7262      0.00000
     14      10.6776      0.00000
     15      12.7009      0.00000
     16      13.1486      0.00000

 k-point     8 :       0.3333    0.1111    0.0000
  band No.  band energies     occupation 
      1      -6.9063      2.00000
      2      -5.0167      2.00000
      3      -4.4106      2.00000
      4       1.0112      2.00000
      5       1.3789      2.00000
      6       2.3091      2.00000
      7       3.0052      2.00000
      8       4.2457      2.00000
      9       4.4662      2.00000
     10       7.0865      0.00000
     11       7.3378      0.00000
     12       8.8565      0.00000
     13       9.3106      0.00000
     14      11.5868      0.00000
     15      13.6358      0.00000
     16      14.0123      0.00000

 k-point     9 :       0.4444    0.1111    0.0000
  band No.  band energies     occupation 
      1      -6.7284      2.00000
      2      -5.1771      2.00000
      3      -4.3951      2.00000
      4       1.0373      2.00000
      5       1.3813      2.00000
      6       2.3273      2.00000
      7       2.3825      2.00000
      8       4.2577      2.00000
      9       4.3617      2.00000
     10       7.0951      0.00000
     11       7.3517      0.00000
     12       9.1625      0.00000
     13       9.3197      0.00000
     14      12.5386      0.00000
     15      13.5338      0.00000
     16      14.5574      0.00000

 k-point    10 :       0.2222    0.2222    0.0000
  band No.  band energies     occupation 
      1      -6.9444      2.00000
      2      -4.8765      2.00000
      3      -4.5313      2.00000
      4       1.1255      2.00000
      5       1.2300      2.00000
      6       2.6057      2.00000
      7       3.4641      2.00000
      8       3.7901      2.00000
      9       3.8421      2.00000
     10       7.7167      0.00000
     11       7.9989      0.00000
     12       8.1989      0.00000
     13      10.0879      0.00000
     14      10.4770      0.00000
     15      12.9867      0.00000
     16      14.1901      0.00000

 k-point    11 :       0.3333    0.2222    0.0000
  band No.  band energies     occupation 
      1      -6.6883      2.00000
      2      -5.0201      2.00000
      3      -4.6100      2.00000
      4       1.1778      2.00000
      5       1.3094      2.00000
      6       2.4563      2.00000
      7       2.7768      2.00000
      8       3.4824      2.00000
      9       3.5717      2.00000
     10       7.9438      0.00000
     11       8.2550      0.00000
     12       8.9402      0.00000
     13      10.0352      0.00000
     14      11.3482      0.00000
     15      12.9453      0.00000
     16      13.8579      0.00000

 k-point    12 :       0.3333    0.3333    0.0000
  band No.  band energies     occupation 
      1      -6.5917      2.00000
      2      -4.8651      2.00000
      3      -4.8651      2.00000
      4       1.3226      2.00000
      5       1.3226      2.00000
      6       2.7400      2.00000
      7       2.7400      2.00000
      8       2.8926      2.00000
      9       3.1437      2.00000
     10       8.5747      0.00000
     11       8.5747      0.00000
     12       8.8839      0.00000
     13      10.6368      0.00000
     14      11.6272      0.00000
     15      11.6272      0.00000
     16      14.2368      0.00000

 k-point    13 :       0.0000    0.0000    0.2500
  band No.  band energies     occupation 
      1      -7.5443      2.00000
      2      -5.8522      2.00000
      3      -3.1718      2.00000
      4       2.3005      2.00000
      5       2.8751      2.00000
      6       3.2928      2.00000
      7       4.3082      2.00000
      8       4.3323      2.00000
      9       4.9449      2.00000
     10       6.4425      0.00000
     11       6.4855      0.00000
     12       6.8759      0.00000
     13      10.1792      0.00000
     14      11.2643      0.00000
     15      11.6832      0.00000
     16      11.8264      0.00000

 k-point    14 :       0.1111    0.0000    0.2500
  band No.  band energies     occupation 
      1      -7.4668      2.00000
      2      -5.8028      2.00000
      3      -3.2729      2.00000
      4       2.0385      2.00000
      5       2.7098      2.00000
      6       3.1534      2.00000
      7       4.0448      2.00000
      8       4.4444      2.00000
      9       4.6004      2.00000
     10       6.7134      0.00000
     11       6.8237      0.00000
     12       7.2278      0.00000
     13      10.2671      0.00000
     14      11.2416      0.00000
     15      11.3969      0.00000
     16      11.8320      0.00000

 k-point    15 :       0.2222    0.0000    0.2500
  band No.  band energies     occupation 
      1      -7.2495      2.00000
      2      -5.6617      2.00000
      3      -3.5897      2.00000
      4       1.6908      2.00000
      5       2.3090      2.00000
      6       2.8870      2.00000
      7       3.4036      2.00000
      8       4.0001      2.00000
      9       4.5162      2.00000
     10       7.0578      0.00000
     11       7.5983      0.00000
     12       8.0034      0.00000
     13      10.5433      0.00000
     14      10.9703      0.00000
     15      11.4672      0.00000
     16      12.0496      0.00000

 k-point    16 :       0.3333   -0.0000    0.2500
  band No.  band energies     occupation 
      1      -6.9423      2.00000
      2      -5.4870      2.00000
      3      -4.0248      2.00000
      4       1.3713      2.00000
      5       1.7556      2.00000
      6       2.5637      2.00000
      7       2.9646      2.00000
      8       3.9882      2.00000
      9       4.4177      2.00000
     10       7.1088      0.00000
     11       7.7593      0.00000
     12       8.8259      0.00000
     13      10.1244      0.00000
     14      11.4152      0.00000
     15      12.0371      0.00000
     16      12.7941      0.00000

 k-point    17 :       0.4444    0.0000    0.2500
  band No.  band energies     occupation 
      1      -6.6631      2.00000
      2      -5.4509      2.00000
      3      -4.2680      2.00000
      4       0.8232      2.00000
      5       1.4458      2.00000
      6       2.2868      2.00000
      7       3.3777      2.00000
      8       4.0172      2.00000
      9       4.3445      2.00000
     10       7.0094      0.00000
     11       7.7185      0.00000
     12       8.6781      0.00000
     13       9.6902      0.00000
     14      11.8215      0.00000
     15      13.4615      0.00000
     16      13.8694      0.00000

 k-point    18 :      -0.4444   -0.0000    0.2500
  band No.  band energies     occupation 
      1      -6.6350      2.00000
      2      -5.5712      2.00000
      3      -4.1107      2.00000
      4       0.5120      2.00000
      5       1.3523      2.00000
      6       2.2513      2.00000
      7       4.0446      2.00000
      8       4.1368      2.00000
      9       4.4667      2.00000
     10       6.8847      0.00000
     11       7.5331      0.00000
     12       7.9526      0.00000
     13       9.4060      0.00000
     14      12.3340      0.00000
     15      13.7830      0.00000
     16      14.3782      0.00000

 k-point    19 :      -0.3333    0.0000    0.2500
  band No.  band energies     occupation 
      1      -6.9125      2.00000
      2      -5.6328      2.00000
      3      -3.7841      2.00000
      4       0.7065      2.00000
      5       1.4458      2.00000
      6       2.3992      2.00000
      7       4.3277      2.00000
      8       4.3696      2.00000
      9       5.2050      2.00000
     10       6.5819      0.00000
     11       7.1562      0.00000
     12       7.3391      0.00000
     13       9.3128      0.00000
     14      12.3610      0.00000
     15      12.8978      0.00000
     16      13.6087      0.00000

 k-point    20 :      -0.2222   -0.0000    0.2500
  band No.  band energies     occupation 
      1      -7.2392      2.00000
      2      -5.7148      2.00000
      3      -3.4716      2.00000
      4       1.3886      2.00000
      5       1.7356      2.00000
      6       2.6870      2.00000
      7       4.5321      2.00000
      8       4.6658      2.00000
      9       5.2962      2.00000
     10       6.3795      0.00000
     11       6.8254      0.00000
     12       7.0899      0.00000
     13       9.5107      0.00000
     14      11.8392      0.00000
     15      12.0275      0.00000
     16      12.5077      0.00000

 k-point    21 :      -0.1111   -0.0000    0.2500
  band No.  band energies     occupation 
      1      -7.4655      2.00000
      2      -5.8097      2.00000
      3      -3.2540      2.00000
      4       2.0587      2.00000
      5       2.4096      2.00000
      6       3.0502      2.00000
      7       4.4854      2.00000
      8       4.6041      2.00000
      9       4.9037      2.00000
     10       6.4112      0.00000
     11       6.4380      0.00000
     12       7.2262      0.00000
     13       9.9832      0.00000
     14      11.2865      0.00000
     15      11.5672      0.00000
     16      12.0554      0.00000

 k-point    22 :       0.1111    0.1111    0.2500
  band No.  band energies     occupation 
      1      -7.3159      2.00000
      2      -5.7240      2.00000
      3      -3.4439      2.00000
      4       1.7169      2.00000
      5       2.0419      2.00000
      6       2.9101      2.00000
      7       3.9222      2.00000
      8       4.4913      2.00000
      9       4.8896      2.00000
     10       6.6583      0.00000
     11       7.1963      0.00000
     12       7.3987      0.00000
     13      10.0130      0.00000
     14      11.2804      0.00000
     15      11.6409      0.00000
     16      12.0263      0.00000

 k-point    23 :       0.2222    0.1111    0.2500
  band No.  band energies     occupation 
      1      -7.0492      2.00000
      2      -5.5678      2.00000
      3      -3.8267      2.00000
      4       1.3712      2.00000
      5       1.7732      2.00000
      6       2.7325      2.00000
      7       3.0159      2.00000
      8       4.0819      2.00000
      9       5.0118      2.00000
     10       6.8218      0.00000
     11       7.5453      0.00000
     12       8.4495      0.00000
     13      10.3572      0.00000
     14      10.8311      0.00000
     15      11.9251      0.00000
     16      12.7066      0.00000

 k-point    24 :       0.3333    0.1111    0.2500
  band No.  band energies     occupation 
      1      -6.7434      2.00000
      2      -5.4396      2.00000
      3      -4.2105      2.00000
      4       1.0758      2.00000
      5       1.3386      2.00000
      6       2.4088      2.00000
      7       3.0453      2.00000
      8       3.7552      2.00000
      9       5.0398      2.00000
     10       6.7458      0.00000
     11       7.8732      0.00000
     12       8.8239      0.00000
     13       9.9986      0.00000
     14      11.5020      0.00000
     15      12.4492      0.00000
     16      13.3860      0.00000

 k-point    25 :       0.4444    0.1111    0.2500
  band No.  band energies     occupation 
      1      -6.5686      2.00000
      2      -5.4922      2.00000
      3      -4.2707      2.00000
      4       0.6532      2.00000
      5       1.2211      2.00000
      6       2.3035      2.00000
      7       3.2663      2.00000
      8       3.9156      2.00000
      9       5.0512      2.00000
     10       6.6647      0.00000
     11       7.9345      0.00000
     12       8.3323      0.00000
     13       9.7528      0.00000
     14      12.1773      0.00000
     15      13.3805      0.00000
     16      13.6852      0.00000

 k-point    26 :      -0.4444    0.1111    0.2500
  band No.  band energies     occupation 
      1      -6.7151      2.00000
      2      -5.5702      2.00000
      3      -4.0284      2.00000
      4       0.5777      2.00000
      5       1.3541      2.00000
      6       2.3338      2.00000
      7       3.3188      2.00000
      8       4.6487      2.00000
      9       5.1223      2.00000
     10       6.5558      0.00000
     11       7.4272      0.00000
     12       7.9601      0.00000
     13       9.6460      0.00000
     14      12.1130      0.00000
     15      12.8513      0.00000
     16      13.9414      0.00000

 k-point    27 :      -0.3333    0.1111    0.2500
  band No.  band energies     occupation 
      1      -7.0371      2.00000
      2      -5.6288      2.00000
      3      -3.7147      2.00000
      4       1.0159      2.00000
      5       1.6024      2.00000
      6       2.5518      2.00000
      7       3.5336      2.00000
      8       4.8274      2.00000
      9       5.4485      2.00000
     10       6.3324      0.00000
     11       7.0381      0.00000
     12       7.7696      0.00000
     13       9.6924      0.00000
     14      11.4902      0.00000
     15      12.2928      0.00000
     16      13.1010      0.00000

 k-point    28 :       0.2222    0.2222    0.2500
  band No.  band energies     occupation 
      1      -6.7626      2.00000
      2      -5.5017      2.00000
      3      -4.0884      2.00000
      4       0.8237      2.00000
      5       1.4532      2.00000
      6       2.3258      2.00000
      7       2.8709      2.00000
      8       4.4163      2.00000
      9       5.3099      2.00000
     10       6.6492      0.00000
     11       7.4658      0.00000
     12       8.5603      0.00000
     13      10.3162      0.00000
     14      10.8894      0.00000
     15      12.6623      0.00000
     16      13.5007      0.00000

 k-point    29 :       0.3333    0.2222    0.2500
  band No.  band energies     occupation 
      1      -6.5296      2.00000
      2      -5.4346      2.00000
      3      -4.3562      2.00000
      4       0.7959      2.00000
      5       1.0980      2.00000
      6       1.9926      2.00000
      7       3.0993      2.00000
      8       4.0393      2.00000
      9       5.1064      2.00000
     10       6.8962      0.00000
     11       8.0076      0.00000
     12       8.5564      0.00000
     13      10.3589      0.00000
     14      11.4427      0.00000
     15      13.0489      0.00000
     16      13.1976      0.00000

 k-point    30 :       0.4444    0.2222    0.2500
  band No.  band energies     occupation 
      1      -6.5212      2.00000
      2      -5.4710      2.00000
      3      -4.3131      2.00000
      4       0.6522      2.00000
      5       1.1703      2.00000
      6       2.0083      2.00000
      7       3.0497      2.00000
      8       4.3371      2.00000
      9       4.9715      2.00000
     10       7.0211      0.00000
     11       7.7755      0.00000
     12       8.4349      0.00000
     13      10.2847      0.00000
     14      11.6679      0.00000
     15      12.7841      0.00000
     16      13.7095      0.00000

 k-point    31 :       0.3333    0.3333    0.2500
  band No.  band energies     occupation 
      1      -6.4339      2.00000
      2      -5.4266      2.00000
      3      -4.4349      2.00000
      4       0.7446      2.00000
      5       1.0750      2.00000
      6       1.6631      2.00000
      7       3.2632      2.00000
      8       4.2476      2.00000
      9       4.6847      2.00000
     10       7.4842      0.00000
     11       8.0987      0.00000
     12       8.1844      0.00000
     13      11.0920      0.00000
     14      11.3797      0.00000
     15      11.9321      0.00000
     16      13.9447      0.00000

 k-point    32 :       0.0000    0.0000    0.5000
  band No.  band energies     occupation 
      1      -6.8920      2.00000
      2      -6.8920      2.00000
      3      -2.4792      2.00000
      4       1.8176      2.00000
      5       3.1455      2.00000
      6       3.1455      2.00000
      7       4.4610      2.00000
      8       4.7496      2.00000
      9       4.7496      2.00000
     10       6.2646      0.00000
     11       6.2960      0.00000
     12       6.2960      0.00000
     13       9.8113      0.00000
     14      11.0680      0.00000
     15      11.0680      0.00000
     16      12.8058      0.00000

 k-point    33 :       0.1111    0.0000    0.5000
  band No.  band energies     occupation 
      1      -6.8317      2.00000
      2      -6.8157      2.00000
      3      -2.6504      2.00000
      4       1.7765      2.00000
      5       2.9593      2.00000
      6       3.0496      2.00000
      7       3.9985      2.00000
      8       4.3538      2.00000
      9       4.5952      2.00000
     10       6.4997      0.00000
     11       6.7007      0.00000
     12       7.1091      0.00000
     13      10.0391      0.00000
     14      10.7658      0.00000
     15      11.3763      0.00000
     16      12.7520      0.00000

 k-point    34 :       0.2222    0.0000    0.5000
  band No.  band energies     occupation 
      1      -6.6694      2.00000
      2      -6.5968      2.00000
      3      -3.0950      2.00000
      4       1.4620      2.00000
      5       2.3820      2.00000
      6       2.7603      2.00000
      7       3.7997      2.00000
      8       3.9596      2.00000
      9       4.4174      2.00000
     10       6.9357      0.00000
     11       7.4183      0.00000
     12       7.8809      0.00000
     13      10.2549      0.00000
     14      10.9478      0.00000
     15      11.8699      0.00000
     16      12.4643      0.00000

 k-point    35 :       0.3333   -0.0000    0.5000
  band No.  band energies     occupation 
      1      -6.4645      2.00000
      2      -6.2769      2.00000
      3      -3.6512      2.00000
      4       0.7545      2.00000
      5       2.1312      2.00000
      6       2.4497      2.00000
      7       3.5637      2.00000
      8       3.8249      2.00000
      9       4.7251      2.00000
     10       7.1690      0.00000
     11       7.7207      0.00000
     12       8.0025      0.00000
     13      10.2715      0.00000
     14      11.2633      0.00000
     15      12.5810      0.00000
     16      12.9206      0.00000

 k-point    36 :       0.4444    0.0000    0.5000
  band No.  band energies     occupation 
      1      -6.3158      2.00000
      2      -5.9835      2.00000
      3      -4.0893      2.00000
      4       0.2547      2.00000
      5       2.1038      2.00000
      6       2.2228      2.00000
      7       3.4011      2.00000
      8       3.7275      2.00000
      9       5.3629      2.00000
     10       6.6755      0.00000
     11       7.6504      0.00000
     12       8.2579      0.00000
     13      10.3139      0.00000
     14      11.0775      0.00000
     15      13.6637      0.00000
     16      13.7581      0.00000

 k-point    37 :       0.1111    0.1111    0.5000
  band No.  band energies     occupation 
      1      -6.7166      2.00000
      2      -6.6715      2.00000
      3      -2.9557      2.00000
      4       1.6208      2.00000
      5       2.5994      2.00000
      6       2.6712      2.00000
      7       3.7660      2.00000
      8       3.9516      2.00000
      9       4.8331      2.00000
     10       6.4183      0.00000
     11       7.5307      0.00000
     12       7.6905      0.00000
     13      10.4501      0.00000
     14      10.5119      0.00000
     15      11.9122      0.00000
     16      12.4073      0.00000

 k-point    38 :       0.2222    0.1111    0.5000
  band No.  band energies     occupation 
      1      -6.5218      2.00000
      2      -6.4090      2.00000
      3      -3.4460      2.00000
      4       1.1293      2.00000
      5       2.0116      2.00000
      6       2.2142      2.00000
      7       3.7681      2.00000
      8       4.1297      2.00000
      9       4.8268      2.00000
     10       6.7411      0.00000
     11       7.8180      0.00000
     12       7.9785      0.00000
     13      10.3366      0.00000
     14      11.1437      0.00000
     15      12.1095      0.00000
     16      12.8037      0.00000

 k-point    39 :       0.3333    0.1111    0.5000
  band No.  band energies     occupation 
      1      -6.3303      2.00000
      2      -6.0986      2.00000
      3      -3.9405      2.00000
      4       0.5090      2.00000
      5       1.7456      2.00000
      6       1.8953      2.00000
      7       3.8568      2.00000
      8       4.2203      2.00000
      9       5.1061      2.00000
     10       6.9130      0.00000
     11       7.4820      0.00000
     12       8.0453      0.00000
     13      10.3734      0.00000
     14      11.3354      0.00000
     15      12.5655      0.00000
     16      13.5810      0.00000

 k-point    40 :       0.4444    0.1111    0.5000
  band No.  band energies     occupation 
      1      -6.2482      2.00000
      2      -5.9334      2.00000
      3      -4.1748      2.00000
      4       0.2532      2.00000
      5       1.6970      2.00000
      6       1.7546      2.00000
      7       3.9860      2.00000
      8       4.0681      2.00000
      9       5.5813      2.00000
     10       6.4881      0.00000
     11       7.4941      0.00000
     12       8.0549      0.00000
     13      10.4560      0.00000
     14      11.1225      0.00000
     15      13.7662      0.00000
     16      13.8557      0.00000

 k-point    41 :       0.2222    0.2222    0.5000
  band No.  band energies     occupation 
      1      -6.3139      2.00000
      2      -6.1700      2.00000
      3      -3.8646      2.00000
      4       0.8101      2.00000
      5       1.3427      2.00000
      6       1.6513      2.00000
      7       4.1842      2.00000
      8       4.5406      2.00000
      9       5.2464      2.00000
     10       6.5872      0.00000
     11       7.6802      0.00000
     12       7.7381      0.00000
     13      10.6066      0.00000
     14      11.4588      0.00000
     15      12.2297      0.00000
     16      12.5331      0.00000

 k-point    42 :       0.3333    0.2222    0.5000
  band No.  band energies     occupation 
      1      -6.1523      2.00000
      2      -5.9779      2.00000
      3      -4.1737      2.00000
      4       0.5000      2.00000
      5       1.1013      2.00000
      6       1.2674      2.00000
      7       4.5111      2.00000
      8       4.9310      2.00000
      9       5.5398      2.00000
     10       6.4785      0.00000
     11       7.2131      0.00000
     12       7.5373      0.00000
     13      10.9495      0.00000
     14      11.6494      0.00000
     15      12.5659      0.00000
     16      12.9035      0.00000

 k-point    43 :       0.3333    0.3333    0.5000
  band No.  band energies     occupation 
      1      -6.0035      2.00000
      2      -6.0035      2.00000
      3      -4.2590      2.00000
      4       0.6678      2.00000
      5       0.8542      2.00000
      6       0.8542      2.00000
      7       4.7717      2.00000
      8       5.7436      1.97375
      9       5.7436      1.97375
     10       5.8908      0.05250
     11       7.1183      0.00000
     12       7.1183      0.00000
     13      11.6557      0.00000
     14      12.2578      0.00000
     15      12.2578      0.00000
     16      12.7924      0.00000


--------------------------------------------------------------------------------------------------------


 soft charge-density along one line, spin component           1
         0         1         2         3         4         5         6         7         8         9
 total charge-density along one line
 
 pseudopotential strength for first ion, spin component:           1
 51.719  56.271  -0.000  -0.000  -0.052  -0.000  -0.000  -0.076
 56.271  61.228  -0.000  -0.000  -0.057  -0.000  -0.000  -0.082
 -0.000  -0.000  12.730   0.010   0.000  18.349   0.014   0.000
 -0.000  -0.000   0.010  12.746   0.000   0.014  18.373   0.000
 -0.052  -0.057   0.000   0.000  12.746   0.000   0.000  18.372
 -0.000  -0.000  18.349   0.014   0.000  26.459   0.020   0.000
 -0.000  -0.000   0.014  18.373   0.000   0.020  26.493   0.000
 -0.076  -0.082   0.000   0.000  18.372   0.000   0.000  26.492
  0.000   0.000  -0.010   0.000  -0.000  -0.015   0.000  -0.000
  0.015   0.017   0.000  -0.000   0.000   0.000  -0.000   0.000
  0.008   0.008   0.000  -0.000   0.006   0.000  -0.000   0.009
  0.000   0.000   0.000  -0.010  -0.000   0.000  -0.014  -0.000
  0.013   0.014   0.000  -0.000  -0.010   0.000  -0.000  -0.015
 total augmentation occupancy for first ion, spin component:           1
 13.150  -9.618   0.000   0.000   2.265   0.000   0.000  -0.602   0.000  -0.170  -0.104   0.000  -0.120
 -9.618   8.301   0.000   0.000  -1.904   0.000  -0.000   0.516   0.000   0.154   0.094   0.000   0.108
  0.000   0.000   2.542   0.243   0.000  -0.485  -0.205   0.000  -0.057   0.000   0.000  -0.051   0.000
 -0.000  -0.000   0.243   2.934   0.000  -0.205  -0.823   0.000  -0.050   0.000   0.000  -0.129   0.000
  2.265  -1.904   0.000   0.000   2.802   0.000   0.000  -0.746   0.000  -0.057  -0.017   0.000  -0.057
  0.000   0.000  -0.485  -0.205   0.000   0.174   0.078   0.000   0.014   0.000   0.000   0.019  -0.000
  0.000  -0.000  -0.205  -0.823   0.000   0.078   0.299   0.000   0.019   0.000   0.000   0.039   0.000
 -0.602   0.516   0.000   0.000  -0.746   0.000   0.000   0.261   0.000   0.017   0.004   0.000   0.014
 -0.000   0.000  -0.057  -0.050   0.000   0.014   0.019   0.000   0.009   0.000   0.000   0.010   0.000
 -0.170   0.154   0.000   0.000  -0.057   0.000   0.000   0.017   0.000   0.014   0.004   0.000   0.003
 -0.104   0.094   0.000   0.000  -0.017  -0.000   0.000   0.004   0.000   0.004   0.008   0.000  -0.001
  0.000   0.000  -0.051  -0.129   0.000   0.019   0.039  -0.000   0.010   0.000   0.000   0.026   0.000
 -0.120   0.108   0.000   0.000  -0.057  -0.000   0.000   0.014   0.000   0.003  -0.001   0.000   0.010


------------------------ aborting loop because EDIFF is reached ----------------------------------------


    CHARGE:  cpu time    0.0205: real time    0.0205
    FORLOC:  cpu time    0.0008: real time    0.0008
    FORNL :  cpu time    0.0765: real time    0.0767
    STRESS:  cpu time    0.2233: real time    0.2238
    FORCOR:  cpu time    0.0115: real time    0.0115
    FORHAR:  cpu time    0.0028: real time    0.0029
    MIXING:  cpu time    0.0006: real time    0.0006
    OFIELD:  cpu time    0.0000: real time    0.0000

 ---------------------------------------------------------------------------------------------

         DFTD3 V3.0 Rev 1        
 Edisp (eV)   -0.78506

 E6    (eV) :    -0.2996
 E8    (eV) :    -0.4855
 % E8        : 61.84
    FORVDW:  cpu time    0.0090: real time    0.0091

  FORCE on cell =-STRESS in cart. coord.  units (eV):
  Direction    XX          YY          ZZ          XY          YZ          ZX
  --------------------------------------------------------------------------------------
  Alpha Z     2.26143     2.26143     2.26143
  Ewald    -237.46883  -237.46883  -196.12952    -0.00000    -0.00001     0.00000
  Hartree    11.36177    11.36176    21.93419     0.00000     0.00000    -0.00000
  E(xc)     -70.38185   -70.38185   -69.89838    -0.00000     0.00000    -0.00000
  Local    -112.41532  -112.41537  -154.73831    -0.00004     0.00000    -0.00000
  n-local   332.19888   333.00273   328.36320    -1.23977    -0.72704    -1.25025
  augment   -81.09504   -81.09500   -78.77231     0.00004    -0.00000     0.00000
  Kinetic   152.43618   158.95806   147.60176    -7.32403     0.15485     1.48969
  Fock        0.00000     0.00000     0.00000     0.00000     0.00000     0.00000
  vdW        -0.75418    -0.75418    -0.84679     0.00000    -0.00000    -0.00000
  -------------------------------------------------------------------------------------
  Total      -0.19410    -0.19410    -0.22471     0.00000     0.00000     0.00000
  in kB      -3.00860    -3.00860    -3.48298     0.00000     0.00000     0.00000
  external pressure =       -3.17 kB  Pullay stress =        0.00 kB


 VOLUME and BASIS-vectors are now :
 -----------------------------------------------------------------------------
  energy-cutoff  :      520.00
  volume of cell :      103.36
      direct lattice vectors                 reciprocal lattice vectors
     4.473037243  0.000000000 -0.000000000     0.223561742  0.129073432  0.000000000
    -2.236518621  3.873763884  0.000000000     0.000000000  0.258146864  0.000000000
    -0.000000000  0.000000000  5.965374934     0.000000000 -0.000000000  0.167634057

  length of vectors
     4.473037243  4.473037243  5.965374934     0.258146864  0.258146864  0.167634057


 FORCES acting on ions
    electron-ion (+dipol)            ewald-force                    non-local-force                 convergence-correction
 -----------------------------------------------------------------------------------------------
   -.123E+02 0.119E-04 -.116E-05   0.176E+02 0.151E-05 0.172E-05   -.515E+01 0.000E+00 -.278E-16   0.198E-02 0.193E-07 -.106E-08
   0.617E+01 -.107E+02 -.183E-04   -.882E+01 0.153E+02 -.846E-05   0.258E+01 -.446E+01 0.000E+00   -.991E-03 0.172E-02 0.301E-08
   0.617E+01 0.107E+02 0.191E-04   -.882E+01 -.153E+02 0.674E-05   0.258E+01 0.446E+01 0.000E+00   -.991E-03 -.172E-02 -.198E-08
 -----------------------------------------------------------------------------------------------
   0.257E-04 -.751E-05 -.328E-06   -.178E-14 0.000E+00 0.347E-17   0.444E-15 0.000E+00 -.278E-16   0.718E-08 0.166E-07 -.326E-10
 
 
 POSITION                                       TOTAL-FORCE (eV/Angst)
 -----------------------------------------------------------------------------------
      1.19215      0.00000      1.98846         0.126755      0.000000     -0.000000
     -0.59607      1.03243      3.97692        -0.063377      0.109773      0.000000
      1.64045      2.84133      0.00000        -0.063377     -0.109773     -0.000000
 -----------------------------------------------------------------------------------
    total drift:                                0.000026     -0.000007     -0.000000


--------------------------------------------------------------------------------------------------------



  FREE ENERGIE OF THE ION-ELECTRON SYSTEM (eV)
  ---------------------------------------------------
  free  energy   TOTEN  =       -10.20398796 eV

  energy  without entropy=      -10.20393192  energy(sigma->0) =      -10.20395994
 
 d Force = 0.3739359E-02[ 0.346E-02, 0.401E-02]  d Energy = 0.5212568E-02-0.147E-02
 d Force = 0.4897318E+00[ 0.482E+00, 0.497E+00]  d Ewald  = 0.1931200E+01-0.144E+01


--------------------------------------------------------------------------------------------------------


    POTLOK:  cpu time    0.0129: real time    0.0129


--------------------------------------------------------------------------------------------------------


 Conjugate gradient step on ions:
 trial-energy change:   -0.005213  1 .order   -0.005199   -0.005592   -0.004805
  (g-gl).g = 0.563E-02      g.g   = 0.593E-02  gl.gl    = 0.349E-01
 g(Force)  = 0.312E-02   g(Stress)= 0.281E-02 ortho     = 0.309E-03
 gamma     =   0.16136
 trial     =   0.93440
 opt step  =   3.73761  (harmonic =   6.64359) maximal distance =0.03651095
 next E    =   -10.218655   (d E  =  -0.01988)


--------------------------------------------------------------------------------------------------------


    WAVPRE:  cpu time    0.0026: real time    0.0048
    FEWALD:  cpu time    0.0001: real time    0.0001
    GENKIN:  cpu time    0.0069: real time    0.0069
    ORTHCH:  cpu time    0.0199: real time    0.0199
     LOOP+:  cpu time    2.1578: real time    2.1690


--------------------------------------- Iteration      5(   1)  ---------------------------------------


    POTLOK:  cpu time    0.0131: real time    0.0174
    SETDIJ:  cpu time    0.0024: real time    0.0024
     EDDAV:  cpu time    0.3126: real time    0.3134
       DOS:  cpu time    0.0005: real time    0.0005
    CHARGE:  cpu time    0.0215: real time    0.0215
    MIXING:  cpu time    0.0005: real time    0.0005
    --------------------------------------------
      LOOP:  cpu time    0.3506: real time    0.3557

 eigenvalue-minimisations  :  1392
 total energy-change (2. order) :-0.8101404E-02  (-0.1289650E+00)
 number of electron      17.9999998 magnetization 
 augmentation part       -3.5936934 magnetization 

 Broyden mixing:
  rms(total) = 0.61625E-01    rms(broyden)= 0.61624E-01
  rms(prec ) = 0.10682E+00
  weight for this iteration     100.00

 Free energy of the ion-electron system (eV)
  ---------------------------------------------------
  alpha Z        PSCENC =         2.30616006
  Ewald energy   TEWEN  =      -676.81423320
  -Hartree energ DENC   =       -44.01827758
  -exchange      EXHF   =         0.00000000
  -V(xc)+E(xc)   XCENC  =       -84.01494730
  PAW double counting   =      1515.83010736    -1400.47256940
  entropy T*S    EENTRO =        -0.00004803
  eigenvalues    EBANDS =         7.94247313
  atomic energy  EATOM  =       669.81430600
  Solvation  Ediel_sol  =         0.00000000
  ---------------------------------------------------
  free energy    TOTEN  =        -9.42702896 eV

  energy without entropy =       -9.42698093  energy(sigma->0) =       -9.42700495


--------------------------------------------------------------------------------------------------------




--------------------------------------- Iteration      5(   2)  ---------------------------------------


    POTLOK:  cpu time    0.0113: real time    0.0115
    SETDIJ:  cpu time    0.0022: real time    0.0022
     EDDAV:  cpu time    0.3768: real time    0.3777
       DOS:  cpu time    0.0005: real time    0.0005
    CHARGE:  cpu time    0.0208: real time    0.0208
    MIXING:  cpu time    0.0006: real time    0.0006
    --------------------------------------------
      LOOP:  cpu time    0.4122: real time    0.4133

 eigenvalue-minimisations  :  1832
 total energy-change (2. order) : 0.5896945E-02  (-0.5670219E-02)
 number of electron      17.9999998 magnetization 
 augmentation part       -3.5913128 magnetization 

 Broyden mixing:
  rms(total) = 0.41123E-01    rms(broyden)= 0.41123E-01
  rms(prec ) = 0.67488E-01
  weight for this iteration     100.00

 eigenvalues of (default mixing * dielectric matrix)
  average eigenvalue GAMMA=   0.8117
  0.8117

 Free energy of the ion-electron system (eV)
  ---------------------------------------------------
  alpha Z        PSCENC =         2.30616006
  Ewald energy   TEWEN  =      -676.81423320
  -Hartree energ DENC   =       -43.37697081
  -exchange      EXHF   =         0.00000000
  -V(xc)+E(xc)   XCENC  =       -83.99915622
  PAW double counting   =      1513.35031394    -1397.98313535
  entropy T*S    EENTRO =        -0.00004136
  eigenvalues    EBANDS =         7.28162493
  atomic energy  EATOM  =       669.81430600
  Solvation  Ediel_sol  =         0.00000000
  ---------------------------------------------------
  free energy    TOTEN  =        -9.42113202 eV

  energy without entropy =       -9.42109066  energy(sigma->0) =       -9.42111134


--------------------------------------------------------------------------------------------------------




--------------------------------------- Iteration      5(   3)  ---------------------------------------


    POTLOK:  cpu time    0.0109: real time    0.0109
    SETDIJ:  cpu time    0.0021: real time    0.0021
     EDDAV:  cpu time    0.3315: real time    0.3323
       DOS:  cpu time    0.0005: real time    0.0005
    CHARGE:  cpu time    0.0207: real time    0.0207
    MIXING:  cpu time    0.0006: real time    0.0006
    --------------------------------------------
      LOOP:  cpu time    0.3662: real time    0.3671

 eigenvalue-minimisations  :  1568
 total energy-change (2. order) : 0.4905868E-02  (-0.5777338E-03)
 number of electron      17.9999998 magnetization 
 augmentation part       -3.6022050 magnetization 

 Broyden mixing:
  rms(total) = 0.18245E-01    rms(broyden)= 0.18245E-01
  rms(prec ) = 0.28622E-01
  weight for this iteration     100.00

 eigenvalues of (default mixing * dielectric matrix)
  average eigenvalue GAMMA=   1.2671
  0.7568  1.7775

 Free energy of the ion-electron system (eV)
  ---------------------------------------------------
  alpha Z        PSCENC =         2.30616006
  Ewald energy   TEWEN  =      -676.81423320
  -Hartree energ DENC   =       -42.90313566
  -exchange      EXHF   =         0.00000000
  -V(xc)+E(xc)   XCENC  =       -83.97523129
  PAW double counting   =      1521.97910853    -1406.60671120
  entropy T*S    EENTRO =        -0.00004180
  eigenvalues    EBANDS =         6.78355242
  atomic energy  EATOM  =       669.81430600
  Solvation  Ediel_sol  =         0.00000000
  ---------------------------------------------------
  free energy    TOTEN  =        -9.41622615 eV

  energy without entropy =       -9.41618435  energy(sigma->0) =       -9.41620525


--------------------------------------------------------------------------------------------------------




--------------------------------------- Iteration      5(   4)  ---------------------------------------


    POTLOK:  cpu time    0.0108: real time    0.0108
    SETDIJ:  cpu time    0.0021: real time    0.0021
     EDDAV:  cpu time    0.3467: real time    0.3475
       DOS:  cpu time    0.0005: real time    0.0005
    CHARGE:  cpu time    0.0208: real time    0.0208
    MIXING:  cpu time    0.0006: real time    0.0006
    --------------------------------------------
      LOOP:  cpu time    0.3814: real time    0.3824

 eigenvalue-minimisations  :  1664
 total energy-change (2. order) : 0.1026680E-02  (-0.2340227E-03)
 number of electron      17.9999998 magnetization 
 augmentation part       -3.6102526 magnetization 

 Broyden mixing:
  rms(total) = 0.33862E-01    rms(broyden)= 0.33862E-01
  rms(prec ) = 0.33928E-01
  weight for this iteration     100.00

 eigenvalues of (default mixing * dielectric matrix)
  average eigenvalue GAMMA=   1.2532
  1.6022  1.0786  1.0786

 Free energy of the ion-electron system (eV)
  ---------------------------------------------------
  alpha Z        PSCENC =         2.30616006
  Ewald energy   TEWEN  =      -676.81423320
  -Hartree energ DENC   =       -42.59254552
  -exchange      EXHF   =         0.00000000
  -V(xc)+E(xc)   XCENC  =       -83.95681690
  PAW double counting   =      1529.33304233    -1413.96293335
  entropy T*S    EENTRO =        -0.00004138
  eigenvalues    EBANDS =         6.45786250
  atomic energy  EATOM  =       669.81430600
  Solvation  Ediel_sol  =         0.00000000
  ---------------------------------------------------
  free energy    TOTEN  =        -9.41519947 eV

  energy without entropy =       -9.41515808  energy(sigma->0) =       -9.41517877


--------------------------------------------------------------------------------------------------------




--------------------------------------- Iteration      5(   5)  ---------------------------------------


    POTLOK:  cpu time    0.0108: real time    0.0108
    SETDIJ:  cpu time    0.0021: real time    0.0021
     EDDAV:  cpu time    0.4002: real time    0.4011
       DOS:  cpu time    0.0005: real time    0.0005
    --------------------------------------------
      LOOP:  cpu time    0.4135: real time    0.4145

 eigenvalue-minimisations  :  1992
 total energy-change (2. order) : 0.1750291E-05  (-0.7697385E-05)
 number of electron      17.9999998 magnetization 
 augmentation part       -3.6102526 magnetization 

 Free energy of the ion-electron system (eV)
  ---------------------------------------------------
  alpha Z        PSCENC =         2.30616006
  Ewald energy   TEWEN  =      -676.81423320
  -Hartree energ DENC   =       -42.58619096
  -exchange      EXHF   =         0.00000000
  -V(xc)+E(xc)   XCENC  =       -83.95593402
  PAW double counting   =      1531.97229464    -1416.60668372
  entropy T*S    EENTRO =        -0.00004108
  eigenvalues    EBANDS =         6.45512457
  atomic energy  EATOM  =       669.81430600
  Solvation  Ediel_sol  =         0.00000000
  ---------------------------------------------------
  free energy    TOTEN  =        -9.41519772 eV

  energy without entropy =       -9.41515664  energy(sigma->0) =       -9.41517718


--------------------------------------------------------------------------------------------------------




 average (electrostatic) potential at core
  the test charge radii are     1.1897
  (the norm of the test charge is              1.0000)
       1 -88.9799       2 -88.9799       3 -88.9799
 
 
 
 E-fermi :   6.1066     XC(G=0):  -9.0953     alpha+bet :-10.6094


 k-point     1 :       0.0000    0.0000    0.0000
  band No.  band energies     occupation 
      1      -7.6035      2.00000
      2      -4.3096      2.00000
      3      -4.3096      2.00000
      4       2.9662      2.00000
      5       3.2931      2.00000
      6       3.2931      2.00000
      7       4.3155      2.00000
      8       4.3155      2.00000
      9       5.0961      2.00000
     10       7.0046      0.00000
     11       7.0046      0.00000
     12       7.5863      0.00000
     13      10.9824      0.00000
     14      10.9824      0.00000
     15      12.0497      0.00000
     16      12.2440      0.00000

 k-point     2 :       0.1111    0.0000    0.0000
  band No.  band energies     occupation 
      1      -7.5179      2.00000
      2      -4.3341      2.00000
      3      -4.2870      2.00000
      4       2.3283      2.00000
      5       2.8469      2.00000
      6       3.0774      2.00000
      7       4.6115      2.00000
      8       4.8868      2.00000
      9       5.3443      2.00000
     10       6.7045      0.00000
     11       6.9314      0.00000
     12       7.4488      0.00000
     13      10.7038      0.00000
     14      10.9424      0.00000
     15      12.0711      0.00000
     16      12.3232      0.00000

 k-point     3 :       0.2222    0.0000    0.0000
  band No.  band energies     occupation 
      1      -7.2717      2.00000
      2      -4.4504      2.00000
      3      -4.2244      2.00000
      4       1.5331      2.00000
      5       2.2579      2.00000
      6       2.6907      2.00000
      7       4.7277      2.00000
      8       5.0359      2.00000
      9       5.1824      2.00000
     10       6.8172      0.00000
     11       7.0156      0.00000
     12       7.6007      0.00000
     13       9.9270      0.00000
     14      11.1722      0.00000
     15      12.2857      0.00000
     16      12.9641      0.00000

 k-point     4 :       0.3333   -0.0000    0.0000
  band No.  band energies     occupation 
      1      -6.9087      2.00000
      2      -4.7172      2.00000
      3      -4.1447      2.00000
      4       1.1657      2.00000
      5       1.7998      2.00000
      6       2.3771      2.00000
      7       3.6265      2.00000
      8       5.1064      2.00000
      9       5.2166      2.00000
     10       6.7892      0.00000
     11       6.9485      0.00000
     12       8.7430      0.00000
     13       9.2721      0.00000
     14      11.9599      0.00000
     15      13.0471      0.00000
     16      13.9173      0.00000

 k-point     5 :       0.4444    0.0000    0.0000
  band No.  band energies     occupation 
      1      -6.5657      2.00000
      2      -5.0309      2.00000
      3      -4.0878      2.00000
      4       1.1612      2.00000
      5       1.6017      2.00000
      6       2.2838      2.00000
      7       2.6945      2.00000
      8       5.0506      2.00000
      9       5.2252      2.00000
     10       6.7939      0.00000
     11       6.8510      0.00000
     12       8.9231      0.00000
     13       9.5999      0.00000
     14      13.1014      0.00000
     15      14.2765      0.00000
     16      14.8312      0.00000

 k-point     6 :       0.1111    0.1111    0.0000
  band No.  band energies     occupation 
      1      -7.3516      2.00000
      2      -4.3878      2.00000
      3      -4.2625      2.00000
      4       1.7951      2.00000
      5       2.1245      2.00000
      6       3.1493      2.00000
      7       4.3899      2.00000
      8       5.2659      2.00000
      9       5.2738      2.00000
     10       6.7024      0.00000
     11       7.0309      0.00000
     12       7.5277      0.00000
     13      10.4728      0.00000
     14      10.5493      0.00000
     15      12.3799      0.00000
     16      12.7189      0.00000

 k-point     7 :       0.2222    0.1111    0.0000
  band No.  band energies     occupation 
      1      -7.0440      2.00000
      2      -4.5529      2.00000
      3      -4.2304      2.00000
      4       1.3165      2.00000
      5       1.6891      2.00000
      6       2.8319      2.00000
      7       4.1705      2.00000
      8       4.4915      2.00000
      9       4.9783      2.00000
     10       7.1604      0.00000
     11       7.5175      0.00000
     12       8.0601      0.00000
     13       9.8535      0.00000
     14      10.8548      0.00000
     15      12.9846      0.00000
     16      13.4247      0.00000

 k-point     8 :       0.3333    0.1111    0.0000
  band No.  band energies     occupation 
      1      -6.6723      2.00000
      2      -4.8504      2.00000
      3      -4.1944      2.00000
      4       1.1941      2.00000
      5       1.5486      2.00000
      6       2.4536      2.00000
      7       3.1697      2.00000
      8       4.4683      2.00000
      9       4.7103      2.00000
     10       7.3072      0.00000
     11       7.5424      0.00000
     12       9.1432      0.00000
     13       9.4215      0.00000
     14      11.7985      0.00000
     15      13.9504      0.00000
     16      14.3363      0.00000

 k-point     9 :       0.4444    0.1111    0.0000
  band No.  band energies     occupation 
      1      -6.4658      2.00000
      2      -5.0416      2.00000
      3      -4.1785      2.00000
      4       1.2416      2.00000
      5       1.5721      2.00000
      6       2.4448      2.00000
      7       2.5085      2.00000
      8       4.5157      2.00000
      9       4.5727      2.00000
     10       7.3253      0.00000
     11       7.5435      0.00000
     12       9.2669      0.00000
     13       9.6338      0.00000
     14      12.8184      0.00000
     15      13.7366      0.00000
     16      14.9087      0.00000

 k-point    10 :       0.2222    0.2222    0.0000
  band No.  band energies     occupation 
      1      -6.7164      2.00000
      2      -4.6893      2.00000
      3      -4.3322      2.00000
      4       1.3047      2.00000
      5       1.3917      2.00000
      6       2.8025      2.00000
      7       3.6456      2.00000
      8       3.9961      2.00000
      9       4.0009      2.00000
     10       8.0010      0.00000
     11       8.2636      0.00000
     12       8.4232      0.00000
     13      10.2578      0.00000
     14      10.6029      0.00000
     15      13.2651      0.00000
     16      14.5530      0.00000

 k-point    11 :       0.3333    0.2222    0.0000
  band No.  band energies     occupation 
      1      -6.4230      2.00000
      2      -4.8668      2.00000
      3      -4.4206      2.00000
      4       1.3874      2.00000
      5       1.5096      2.00000
      6       2.6021      2.00000
      7       2.9255      2.00000
      8       3.6585      2.00000
      9       3.7289      2.00000
     10       8.2291      0.00000
     11       8.5078      0.00000
     12       9.2333      0.00000
     13      10.1874      0.00000
     14      11.5294      0.00000
     15      13.1557      0.00000
     16      14.1729      0.00000

 k-point    12 :       0.3333    0.3333    0.0000
  band No.  band energies     occupation 
      1      -6.3098      2.00000
      2      -4.7045      2.00000
      3      -4.7045      2.00000
      4       1.5525      2.00000
      5       1.5525      2.00000
      6       2.8976      2.00000
      7       2.8976      2.00000
      8       3.0363      2.00000
      9       3.2381      2.00000
     10       8.8849      0.00000
     11       8.8849      0.00000
     12       9.1461      0.00000
     13      10.8602      0.00000
     14      11.7748      0.00000
     15      11.7748      0.00000
     16      14.5614      0.00000

 k-point    13 :       0.0000    0.0000    0.2500
  band No.  band energies     occupation 
      1      -7.3785      2.00000
      2      -5.6582      2.00000
      3      -2.9282      2.00000
      4       2.5907      2.00000
      5       3.0862      2.00000
      6       3.5027      2.00000
      7       4.5082      2.00000
      8       4.5809      2.00000
      9       5.1024      2.00000
     10       6.6353      0.00000
     11       6.7018      0.00000
     12       7.0551      0.00000
     13      10.3524      0.00000
     14      11.4328      0.00000
     15      11.8072      0.00000
     16      12.1438      0.00000

 k-point    14 :       0.1111    0.0000    0.2500
  band No.  band energies     occupation 
      1      -7.2964      2.00000
      2      -5.6053      2.00000
      3      -3.0373      2.00000
      4       2.2857      2.00000
      5       2.9425      2.00000
      6       3.3811      2.00000
      7       4.2077      2.00000
      8       4.6942      2.00000
      9       4.7405      2.00000
     10       6.8977      0.00000
     11       7.0709      0.00000
     12       7.4514      0.00000
     13      10.4375      0.00000
     14      11.4328      0.00000
     15      11.6540      0.00000
     16      11.9877      0.00000

 k-point    15 :       0.2222    0.0000    0.2500
  band No.  band energies     occupation 
      1      -7.0652      2.00000
      2      -5.4523      2.00000
      3      -3.3836      2.00000
      4       1.9300      2.00000
      5       2.5420      2.00000
      6       3.0747      2.00000
      7       3.5686      2.00000
      8       4.1791      2.00000
      9       4.6524      2.00000
     10       7.3584      0.00000
     11       7.8491      0.00000
     12       8.2494      0.00000
     13      10.7392      0.00000
     14      11.1696      0.00000
     15      11.7100      0.00000
     16      12.1999      0.00000

 k-point    16 :       0.3333   -0.0000    0.2500
  band No.  band energies     occupation 
      1      -6.7338      2.00000
      2      -5.2580      2.00000
      3      -3.8656      2.00000
      4       1.5967      2.00000
      5       1.9733      2.00000
      6       2.7127      2.00000
      7       3.1108      2.00000
      8       4.1876      2.00000
      9       4.5667      2.00000
     10       7.4063      0.00000
     11       8.0105      0.00000
     12       9.1291      0.00000
     13      10.2728      0.00000
     14      11.6554      0.00000
     15      12.2948      0.00000
     16      13.0052      0.00000

 k-point    17 :       0.4444    0.0000    0.2500
  band No.  band energies     occupation 
      1      -6.4218      2.00000
      2      -5.2285      2.00000
      3      -4.1294      2.00000
      4       0.9749      2.00000
      5       1.6698      2.00000
      6       2.4288      2.00000
      7       3.5593      2.00000
      8       4.2287      2.00000
      9       4.5123      2.00000
     10       7.2820      0.00000
     11       7.9651      0.00000
     12       8.9745      0.00000
     13       9.8023      0.00000
     14      12.1310      0.00000
     15      13.7306      0.00000
     16      14.1607      0.00000

 k-point    18 :      -0.4444   -0.0000    0.2500
  band No.  band energies     occupation 
      1      -6.3849      2.00000
      2      -5.3819      2.00000
      3      -3.9370      2.00000
      4       0.6292      2.00000
      5       1.5661      2.00000
      6       2.3913      2.00000
      7       4.2842      2.00000
      8       4.3609      2.00000
      9       4.6496      2.00000
     10       7.1318      0.00000
     11       7.7725      0.00000
     12       8.1982      0.00000
     13       9.5012      0.00000
     14      12.6998      0.00000
     15      14.0509      0.00000
     16      14.6618      0.00000

 k-point    19 :      -0.3333    0.0000    0.2500
  band No.  band energies     occupation 
      1      -6.6980      2.00000
      2      -5.4345      2.00000
      3      -3.5793      2.00000
      4       0.8253      2.00000
      5       1.6552      2.00000
      6       2.5418      2.00000
      7       4.5630      2.00000
      8       4.6262      2.00000
      9       5.4669      2.00000
     10       6.8232      0.00000
     11       7.3307      0.00000
     12       7.5380      0.00000
     13       9.4061      0.00000
     14      12.6999      0.00000
     15      13.1980      0.00000
     16      13.8818      0.00000

 k-point    20 :      -0.2222   -0.0000    0.2500
  band No.  band energies     occupation 
      1      -7.0534      2.00000
      2      -5.5138      2.00000
      3      -3.2460      2.00000
      4       1.5470      2.00000
      5       1.9483      2.00000
      6       2.8402      2.00000
      7       4.8049      2.00000
      8       4.9287      2.00000
      9       5.5585      2.00000
     10       6.5869      0.00000
     11       6.9996      0.00000
     12       7.2480      0.00000
     13       9.6226      0.00000
     14      12.1256      0.00000
     15      12.3069      0.00000
     16      12.7742      0.00000

 k-point    21 :      -0.1111   -0.0000    0.2500
  band No.  band energies     occupation 
      1      -7.2950      2.00000
      2      -5.6131      2.00000
      3      -3.0155      2.00000
      4       2.3168      2.00000
      5       2.6034      2.00000
      6       3.2339      2.00000
      7       4.6711      2.00000
      8       4.8921      2.00000
      9       5.1448      2.00000
     10       6.5570      0.00000
     11       6.6007      0.00000
     12       7.4673      0.00000
     13      10.1292      0.00000
     14      11.4940      0.00000
     15      11.8252      0.00000
     16      12.2898      0.00000

 k-point    22 :       0.1111    0.1111    0.2500
  band No.  band energies     occupation 
      1      -7.1358      2.00000
      2      -5.5213      2.00000
      3      -3.2210      2.00000
      4       1.9359      2.00000
      5       2.2363      2.00000
      6       3.0948      2.00000
      7       4.1367      2.00000
      8       4.6984      2.00000
      9       5.0966      2.00000
     10       6.9007      0.00000
     11       7.4279      0.00000
     12       7.5963      0.00000
     13      10.1560      0.00000
     14      11.5307      0.00000
     15      11.8696      0.00000
     16      12.2688      0.00000

 k-point    23 :       0.2222    0.1111    0.2500
  band No.  band energies     occupation 
      1      -6.8496      2.00000
      2      -5.3507      2.00000
      3      -3.6419      2.00000
      4       1.5670      2.00000
      5       1.9920      2.00000
      6       2.9078      2.00000
      7       3.1745      2.00000
      8       4.2399      2.00000
      9       5.2437      2.00000
     10       7.0864      0.00000
     11       7.7758      0.00000
     12       8.7286      0.00000
     13      10.5463      0.00000
     14      10.9948      0.00000
     15      12.1729      0.00000
     16      12.9950      0.00000

 k-point    24 :       0.3333    0.1111    0.2500
  band No.  band energies     occupation 
      1      -6.5139      2.00000
      2      -5.2083      2.00000
      3      -4.0702      2.00000
      4       1.2575      2.00000
      5       1.5193      2.00000
      6       2.5936      2.00000
      7       3.2197      2.00000
      8       3.8873      2.00000
      9       5.2969      2.00000
     10       6.9681      0.00000
     11       8.1431      0.00000
     12       9.1276      0.00000
     13      10.1459      0.00000
     14      11.7299      0.00000
     15      12.6949      0.00000
     16      13.6724      0.00000

 k-point    25 :       0.4444    0.1111    0.2500
  band No.  band energies     occupation 
      1      -6.3115      2.00000
      2      -5.2885      2.00000
      3      -4.1234      2.00000
      4       0.7869      2.00000
      5       1.4063      2.00000
      6       2.4896      2.00000
      7       3.4324      2.00000
      8       4.0946      2.00000
      9       5.3256      2.00000
     10       6.8561      0.00000
     11       8.2121      0.00000
     12       8.6008      0.00000
     13       9.8806      0.00000
     14      12.4944      0.00000
     15      13.6453      0.00000
     16      13.9230      0.00000

 k-point    26 :      -0.4444    0.1111    0.2500
  band No.  band energies     occupation 
      1      -6.4780      2.00000
      2      -5.3729      2.00000
      3      -3.8484      2.00000
      4       0.6950      2.00000
      5       1.5581      2.00000
      6       2.4977      2.00000
      7       3.4838      2.00000
      8       4.9149      2.00000
      9       5.3870      2.00000
     10       6.7449      0.00000
     11       7.6406      0.00000
     12       8.2138      0.00000
     13       9.7659      0.00000
     14      12.3738      0.00000
     15      13.1936      0.00000
     16      14.2325      0.00000

 k-point    27 :      -0.3333    0.1111    0.2500
  band No.  band energies     occupation 
      1      -6.8354      2.00000
      2      -5.4231      2.00000
      3      -3.5100      2.00000
      4       1.1551      2.00000
      5       1.8208      2.00000
      6       2.7065      2.00000
      7       3.7200      2.00000
      8       5.1012      2.00000
      9       5.7372      2.00000
     10       6.5435      0.00000
     11       7.1805      0.00000
     12       8.0118      0.00000
     13       9.8129      0.00000
     14      11.7220      0.00000
     15      12.5884      0.00000
     16      13.4129      0.00000

 k-point    28 :       0.2222    0.2222    0.2500
  band No.  band energies     occupation 
      1      -6.5344      2.00000
      2      -5.2850      2.00000
      3      -3.9254      2.00000
      4       0.9610      2.00000
      5       1.6746      2.00000
      6       2.4810      2.00000
      7       3.0230      2.00000
      8       4.6292      2.00000
      9       5.5867      2.00000
     10       6.8736      0.00000
     11       7.6661      0.00000
     12       8.8498      0.00000
     13      10.4898      0.00000
     14      11.0642      0.00000
     15      12.9454      0.00000
     16      13.8315      0.00000

 k-point    29 :       0.3333    0.2222    0.2500
  band No.  band energies     occupation 
      1      -6.2698      2.00000
      2      -5.2143      2.00000
      3      -4.2289      2.00000
      4       0.9455      2.00000
      5       1.2701      2.00000
      6       2.1370      2.00000
      7       3.3123      2.00000
      8       4.2082      2.00000
      9       5.3592      2.00000
     10       7.1190      0.00000
     11       8.2769      0.00000
     12       8.8376      0.00000
     13      10.5313      0.00000
     14      11.6433      0.00000
     15      13.2924      0.00000
     16      13.4770      0.00000

 k-point    30 :       0.4444    0.2222    0.2500
  band No.  band energies     occupation 
      1      -6.2583      2.00000
      2      -5.2633      2.00000
      3      -4.1738      2.00000
      4       0.7851      2.00000
      5       1.3551      2.00000
      6       2.1543      2.00000
      7       3.2388      2.00000
      8       4.5630      2.00000
      9       5.1908      2.00000
     10       7.2727      0.00000
     11       8.0032      0.00000
     12       8.7170      0.00000
     13      10.4460      0.00000
     14      11.8851      0.00000
     15      13.0507      0.00000
     16      14.0061      0.00000

 k-point    31 :       0.3333    0.3333    0.2500
  band No.  band energies     occupation 
      1      -6.1571      2.00000
      2      -5.2103      2.00000
      3      -4.3190      2.00000
      4       0.8963      2.00000
      5       1.2581      2.00000
      6       1.7623      2.00000
      7       3.5168      2.00000
      8       4.4544      2.00000
      9       4.8528      2.00000
     10       7.8099      0.00000
     11       8.3347      0.00000
     12       8.4236      0.00000
     13      11.3097      0.00000
     14      11.5978      0.00000
     15      12.0854      0.00000
     16      14.2777      0.00000

 k-point    32 :       0.0000    0.0000    0.5000
  band No.  band energies     occupation 
      1      -6.7155      2.00000
      2      -6.7155      2.00000
      3      -2.2204      2.00000
      4       2.1028      2.00000
      5       3.3420      2.00000
      6       3.3420      2.00000
      7       4.6943      2.00000
      8       5.0103      2.00000
      9       5.0103      2.00000
     10       6.4264      0.00000
     11       6.4264      0.00000
     12       6.4298      0.00000
     13       9.9990      0.00000
     14      11.1993      0.00000
     15      11.1993      0.00000
     16      13.0592      0.00000

 k-point    33 :       0.1111    0.0000    0.5000
  band No.  band energies     occupation 
      1      -6.6510      2.00000
      2      -6.6351      2.00000
      3      -2.4053      2.00000
      4       2.0645      2.00000
      5       3.1626      2.00000
      6       3.2656      2.00000
      7       4.1571      2.00000
      8       4.5626      2.00000
      9       4.8006      2.00000
     10       6.6849      0.00000
     11       6.8880      0.00000
     12       7.3413      0.00000
     13      10.2295      0.00000
     14      10.9121      0.00000
     15      11.5155      0.00000
     16      13.1056      0.00000

 k-point    34 :       0.2222    0.0000    0.5000
  band No.  band energies     occupation 
      1      -6.4768      2.00000
      2      -6.4026      2.00000
      3      -2.8844      2.00000
      4       1.7101      2.00000
      5       2.5813      2.00000
      6       2.9837      2.00000
      7       3.9561      2.00000
      8       4.1290      2.00000
      9       4.5761      2.00000
     10       7.1963      0.00000
     11       7.6511      0.00000
     12       8.1618      0.00000
     13      10.3952      0.00000
     14      11.1848      0.00000
     15      12.1073      0.00000
     16      12.6856      0.00000

 k-point    35 :       0.3333   -0.0000    0.5000
  band No.  band energies     occupation 
      1      -6.2554      2.00000
      2      -6.0563      2.00000
      3      -3.4863      2.00000
      4       0.9167      2.00000
      5       2.3600      2.00000
      6       2.6785      2.00000
      7       3.7020      2.00000
      8       3.9652      2.00000
      9       4.9212      2.00000
     10       7.5013      0.00000
     11       7.9647      0.00000
     12       8.2678      0.00000
     13      10.4264      0.00000
     14      11.5172      0.00000
     15      12.8240      0.00000
     16      13.1426      0.00000

 k-point    36 :       0.4444    0.0000    0.5000
  band No.  band energies     occupation 
      1      -6.0932      2.00000
      2      -5.7250      2.00000
      3      -3.9732      2.00000
      4       0.3771      2.00000
      5       2.3417      2.00000
      6       2.4516      2.00000
      7       3.5274      2.00000
      8       3.8501      2.00000
      9       5.6216      2.00000
     10       6.9275      0.00000
     11       7.9525      0.00000
     12       8.5368      0.00000
     13      10.5177      0.00000
     14      11.2341      0.00000
     15      13.9003      0.00000
     16      14.0891      0.00000

 k-point    37 :       0.1111    0.1111    0.5000
  band No.  band energies     occupation 
      1      -6.5275      2.00000
      2      -6.4823      2.00000
      3      -2.7342      2.00000
      4       1.8970      2.00000
      5       2.7927      2.00000
      6       2.8815      2.00000
      7       3.9077      2.00000
      8       4.0984      2.00000
      9       5.0879      2.00000
     10       6.5715      0.00000
     11       7.8225      0.00000
     12       7.9422      0.00000
     13      10.6447      0.00000
     14      10.6678      0.00000
     15      12.1030      0.00000
     16      12.7206      0.00000

 k-point    38 :       0.2222    0.1111    0.5000
  band No.  band energies     occupation 
      1      -6.3172      2.00000
      2      -6.2010      2.00000
      3      -3.2625      2.00000
      4       1.3364      2.00000
      5       2.1934      2.00000
      6       2.4018      2.00000
      7       3.9210      2.00000
      8       4.3302      2.00000
      9       5.0450      2.00000
     10       6.9598      0.00000
     11       8.1097      0.00000
     12       8.2510      0.00000
     13      10.5059      0.00000
     14      11.3668      0.00000
     15      12.3668      0.00000
     16      13.0718      0.00000

 k-point    39 :       0.3333    0.1111    0.5000
  band No.  band energies     occupation 
      1      -6.1090      2.00000
      2      -5.8579      2.00000
      3      -3.8036      2.00000
      4       0.6500      2.00000
      5       1.9239      2.00000
      6       2.0817      2.00000
      7       4.0249      2.00000
      8       4.4366      2.00000
      9       5.3252      2.00000
     10       7.2210      0.00000
     11       7.7055      0.00000
     12       8.3147      0.00000
     13      10.5642      0.00000
     14      11.5474      0.00000
     15      12.7878      0.00000
     16      13.8643      0.00000

 k-point    40 :       0.4444    0.1111    0.5000
  band No.  band energies     occupation 
      1      -6.0191      2.00000
      2      -5.6660      2.00000
      3      -4.0695      2.00000
      4       0.3733      2.00000
      5       1.8613      2.00000
      6       1.9509      2.00000
      7       4.1694      2.00000
      8       4.2605      2.00000
      9       5.8617      2.00000
     10       6.7182      0.00000
     11       7.7798      0.00000
     12       8.3026      0.00000
     13      10.6803      0.00000
     14      11.2752      0.00000
     15      14.0275      0.00000
     16      14.1763      0.00000

 k-point    41 :       0.2222    0.2222    0.5000
  band No.  band energies     occupation 
      1      -6.0903      2.00000
      2      -5.9394      2.00000
      3      -3.7176      2.00000
      4       0.9911      2.00000
      5       1.4676      2.00000
      6       1.8116      2.00000
      7       4.4064      2.00000
      8       4.7614      2.00000
      9       5.5117      2.00000
     10       6.7992      0.00000
     11       7.9384      0.00000
     12       7.9859      0.00000
     13      10.8136      0.00000
     14      11.6741      0.00000
     15      12.4842      0.00000
     16      12.7449      0.00000

 k-point    42 :       0.3333    0.2222    0.5000
  band No.  band energies     occupation 
      1      -5.9128      2.00000
      2      -5.7190      2.00000
      3      -4.0634      2.00000
      4       0.6365      2.00000
      5       1.2289      2.00000
      6       1.4136      2.00000
      7       4.7811      2.00000
      8       5.1822      2.00000
      9       5.7917      2.00000
     10       6.7710      0.00000
     11       7.3958      0.00000
     12       7.7379      0.00000
     13      11.1801      0.00000
     14      11.8522      0.00000
     15      12.7928      0.00000
     16      13.1461      0.00000

 k-point    43 :       0.3333    0.3333    0.5000
  band No.  band energies     occupation 
      1      -5.7461      2.00000
      2      -5.7461      2.00000
      3      -4.1596      2.00000
      4       0.8344      2.00000
      5       0.9603      2.00000
      6       0.9603      2.00000
      7       5.0985      2.00000
      8       6.0231      1.98172
      9       6.0231      1.98172
     10       6.1805      0.03655
     11       7.2598      0.00000
     12       7.2598      0.00000
     13      11.9296      0.00000
     14      12.4633      0.00000
     15      12.4633      0.00000
     16      13.0589      0.00000


--------------------------------------------------------------------------------------------------------


 soft charge-density along one line, spin component           1
         0         1         2         3         4         5         6         7         8         9
 total charge-density along one line
 
 pseudopotential strength for first ion, spin component:           1
 51.628  56.172  -0.000  -0.000  -0.049  -0.000  -0.000  -0.070
 56.172  61.120  -0.000  -0.000  -0.053  -0.000  -0.000  -0.077
 -0.000  -0.000  12.711   0.009   0.000  18.322   0.014   0.000
 -0.000  -0.000   0.009  12.727   0.000   0.014  18.345   0.000
 -0.049  -0.053   0.000   0.000  12.727   0.000   0.000  18.344
 -0.000  -0.000  18.322   0.014   0.000  26.420   0.019   0.000
 -0.000  -0.000   0.014  18.345   0.000   0.019  26.452   0.000
 -0.070  -0.077   0.000   0.000  18.344   0.000   0.000  26.452
  0.000   0.000  -0.010   0.000  -0.000  -0.014   0.000  -0.000
  0.015   0.016   0.000  -0.000   0.000   0.000  -0.000   0.000
  0.007   0.008  -0.000  -0.000   0.006  -0.000  -0.000   0.008
  0.000   0.000   0.000  -0.009  -0.000   0.000  -0.013  -0.000
  0.012   0.013   0.000  -0.000  -0.009   0.000  -0.000  -0.014
 total augmentation occupancy for first ion, spin component:           1
 13.487  -9.911   0.000  -0.000   2.099   0.000   0.000  -0.546   0.000  -0.166  -0.098   0.000  -0.121
 -9.911   8.558   0.000   0.000  -1.764   0.000   0.000   0.468   0.000   0.150   0.088   0.000   0.108
  0.000   0.000   2.568   0.217   0.000  -0.506  -0.189  -0.000  -0.053   0.000   0.000  -0.049   0.000
 -0.000  -0.000   0.217   2.916  -0.000  -0.189  -0.811   0.000  -0.048   0.000   0.000  -0.119   0.000
  2.099  -1.764   0.000  -0.000   2.813   0.000   0.000  -0.752   0.000  -0.054  -0.015   0.000  -0.053
  0.000   0.000  -0.506  -0.189  -0.000   0.184   0.071   0.000   0.013   0.000   0.000   0.018  -0.000
  0.000   0.000  -0.189  -0.811   0.000   0.071   0.295  -0.000   0.018   0.000   0.000   0.036   0.000
 -0.546   0.468  -0.000   0.000  -0.752   0.000   0.000   0.265  -0.000   0.016   0.004   0.000   0.013
  0.000   0.000  -0.053  -0.048   0.000   0.013   0.018  -0.000   0.010   0.000   0.000   0.011   0.000
 -0.166   0.150   0.000   0.000  -0.054   0.000   0.000   0.016   0.000   0.015   0.004  -0.000   0.004
 -0.098   0.088   0.000   0.000  -0.015   0.000   0.000   0.004   0.000   0.004   0.007  -0.000  -0.001
  0.000   0.000  -0.049  -0.119   0.000   0.018   0.036  -0.000   0.011  -0.000   0.000   0.027  -0.000
 -0.121   0.108   0.000   0.000  -0.053  -0.000   0.000   0.013   0.000   0.004  -0.001  -0.000   0.010


------------------------ aborting loop because EDIFF is reached ----------------------------------------


    CHARGE:  cpu time    0.0207: real time    0.0207
    FORLOC:  cpu time    0.0008: real time    0.0008
    FORNL :  cpu time    0.0759: real time    0.0761
    STRESS:  cpu time    0.2241: real time    0.2246
    FORCOR:  cpu time    0.0115: real time    0.0115
    FORHAR:  cpu time    0.0028: real time    0.0028
    MIXING:  cpu time    0.0006: real time    0.0006
    OFIELD:  cpu time    0.0000: real time    0.0000

 ---------------------------------------------------------------------------------------------

         DFTD3 V3.0 Rev 1        
 Edisp (eV)   -0.79896

 E6    (eV) :    -0.3049
 E8    (eV) :    -0.4941
 % E8        : 61.84
    FORVDW:  cpu time    0.0154: real time    0.0155

  FORCE on cell =-STRESS in cart. coord.  units (eV):
  Direction    XX          YY          ZZ          XY          YZ          ZX
  --------------------------------------------------------------------------------------
  Alpha Z     2.30616     2.30616     2.30616
  Ewald    -237.63227  -237.63226  -201.55031    -0.00000    -0.00001     0.00000
  Hartree    11.16520    11.16520    20.24795     0.00000     0.00000    -0.00000
  E(xc)     -70.41124   -70.41124   -69.96111    -0.00000     0.00000     0.00000
  Local    -111.78772  -111.78777  -148.27351    -0.00004     0.00000    -0.00000
  n-local   332.17095   333.01190   328.57591    -1.24671    -0.70216    -1.20920
  augment   -81.06928   -81.06923   -78.94739     0.00004    -0.00000    -0.00000
  Kinetic   152.08711   158.97233   148.53327    -7.60802     0.19266     1.67283
  Fock        0.00000     0.00000     0.00000     0.00000     0.00000     0.00000
  vdW        -0.75608    -0.75608    -0.87363     0.00000    -0.00000    -0.00000
  -------------------------------------------------------------------------------------
  Total      -0.06406    -0.06406     0.05734     0.00000     0.00000    -0.00000
  in kB      -1.01264    -1.01264     0.90631     0.00000     0.00000    -0.00000
  external pressure =       -0.37 kB  Pullay stress =        0.00 kB


 VOLUME and BASIS-vectors are now :
 -----------------------------------------------------------------------------
  energy-cutoff  :      520.00
  volume of cell :      101.36
      direct lattice vectors                 reciprocal lattice vectors
     4.445679162  0.000000000 -0.000000000     0.224937510  0.129867732  0.000000000
    -2.222839581  3.850071091  0.000000000     0.000000000  0.259735464  0.000000000
    -0.000000000  0.000000000  5.921888040     0.000000000 -0.000000000  0.168865064

  length of vectors
     4.445679162  4.445679162  5.921888040     0.259735464  0.259735464  0.168865064


 FORCES acting on ions
    electron-ion (+dipol)            ewald-force                    non-local-force                 convergence-correction
 -----------------------------------------------------------------------------------------------
   -.111E+02 0.113E-04 -.106E-05   0.160E+02 0.158E-05 0.157E-05   -.484E+01 0.000E+00 0.278E-16   0.875E-02 0.655E-07 -.366E-08
   0.554E+01 -.959E+01 -.183E-04   -.800E+01 0.139E+02 -.824E-05   0.242E+01 -.419E+01 0.000E+00   -.437E-02 0.757E-02 0.734E-08
   0.554E+01 0.959E+01 0.191E-04   -.800E+01 -.139E+02 0.667E-05   0.242E+01 0.419E+01 0.000E+00   -.437E-02 -.757E-02 -.379E-08
 -----------------------------------------------------------------------------------------------
   0.258E-04 -.780E-05 -.323E-06   -.888E-15 0.178E-14 0.339E-20   0.000E+00 0.000E+00 0.278E-16   0.290E-07 0.642E-07 -.107E-09
 
 
 POSITION                                       TOTAL-FORCE (eV/Angst)
 -----------------------------------------------------------------------------------
      1.21207      0.00000      1.97396         0.071945     -0.000000     -0.000000
     -0.60604      1.04968      3.94793        -0.035973      0.062306      0.000000
      1.61680      2.80039      0.00000        -0.035973     -0.062306     -0.000000
 -----------------------------------------------------------------------------------
    total drift:                                0.000026     -0.000008     -0.000000


--------------------------------------------------------------------------------------------------------



  FREE ENERGIE OF THE ION-ELECTRON SYSTEM (eV)
  ---------------------------------------------------
  free  energy   TOTEN  =       -10.21415878 eV

  energy  without entropy=      -10.21411770  energy(sigma->0) =      -10.21413824
 
 d Force = 0.8111643E-02[ 0.587E-02, 0.103E-01]  d Energy = 0.1017082E-01-0.206E-02
 d Force = 0.1373480E+01[ 0.131E+01, 0.144E+01]  d Ewald  = 0.5747583E+01-0.437E+01


--------------------------------------------------------------------------------------------------------


    POTLOK:  cpu time    0.0130: real time    0.0130


--------------------------------------------------------------------------------------------------------




--------------------------------------------------------------------------------------------------------


    WAVPRE:  cpu time    0.0026: real time    0.0048
    FEWALD:  cpu time    0.0001: real time    0.0001
    GENKIN:  cpu time    0.0070: real time    0.0070
    ORTHCH:  cpu time    0.0200: real time    0.0201
     LOOP+:  cpu time    2.3287: real time    2.3473


--------------------------------------- Iteration      6(   1)  ---------------------------------------


    POTLOK:  cpu time    0.0112: real time    0.0126
    SETDIJ:  cpu time    0.0022: real time    0.0022
     EDDAV:  cpu time    0.3005: real time    0.3012
       DOS:  cpu time    0.0005: real time    0.0005
    CHARGE:  cpu time    0.0208: real time    0.0208
    MIXING:  cpu time    0.0005: real time    0.0005
    --------------------------------------------
      LOOP:  cpu time    0.3357: real time    0.3379

 eigenvalue-minimisations  :  1384
 total energy-change (2. order) :-0.1014293E-01  (-0.5227232E+00)
 number of electron      18.0000006 magnetization 
 augmentation part       -3.5783224 magnetization 

 Broyden mixing:
  rms(total) = 0.12584E+00    rms(broyden)= 0.12584E+00
  rms(prec ) = 0.21703E+00
  weight for this iteration     100.00

 Free energy of the ion-electron system (eV)
  ---------------------------------------------------
  alpha Z        PSCENC =         2.39922976
  Ewald energy   TEWEN  =      -688.10242330
  -Hartree energ DENC   =       -41.56137932
  -exchange      EXHF   =         0.00000000
  -V(xc)+E(xc)   XCENC  =       -83.90584086
  PAW double counting   =      1538.71169680    -1423.35542342
  entropy T*S    EENTRO =        -0.00035916
  eigenvalues    EBANDS =        16.57485112
  atomic energy  EATOM  =       669.81430600
  Solvation  Ediel_sol  =         0.00000000
  ---------------------------------------------------
  free energy    TOTEN  =        -9.42534240 eV

  energy without entropy =       -9.42498324  energy(sigma->0) =       -9.42516282


--------------------------------------------------------------------------------------------------------




--------------------------------------- Iteration      6(   2)  ---------------------------------------


    POTLOK:  cpu time    0.0109: real time    0.0110
    SETDIJ:  cpu time    0.0021: real time    0.0021
     EDDAV:  cpu time    0.3735: real time    0.3743
       DOS:  cpu time    0.0005: real time    0.0005
    CHARGE:  cpu time    0.0208: real time    0.0208
    MIXING:  cpu time    0.0005: real time    0.0005
    --------------------------------------------
      LOOP:  cpu time    0.4084: real time    0.4093

 eigenvalue-minimisations  :  1832
 total energy-change (2. order) : 0.2348648E-01  (-0.2261910E-01)
 number of electron      18.0000006 magnetization 
 augmentation part       -3.5769288 magnetization 

 Broyden mixing:
  rms(total) = 0.80446E-01    rms(broyden)= 0.80446E-01
  rms(prec ) = 0.13396E+00
  weight for this iteration     100.00

 eigenvalues of (default mixing * dielectric matrix)
  average eigenvalue GAMMA=   0.9159
  0.9159

 Free energy of the ion-electron system (eV)
  ---------------------------------------------------
  alpha Z        PSCENC =         2.39922976
  Ewald energy   TEWEN  =      -688.10242330
  -Hartree energ DENC   =       -40.31331636
  -exchange      EXHF   =         0.00000000
  -V(xc)+E(xc)   XCENC  =       -83.86955729
  PAW double counting   =      1545.44430913    -1430.07062849
  entropy T*S    EENTRO =        -0.00027705
  eigenvalues    EBANDS =        15.29650167
  atomic energy  EATOM  =       669.81430600
  Solvation  Ediel_sol  =         0.00000000
  ---------------------------------------------------
  free energy    TOTEN  =        -9.40185592 eV

  energy without entropy =       -9.40157887  energy(sigma->0) =       -9.40171740


--------------------------------------------------------------------------------------------------------




--------------------------------------- Iteration      6(   3)  ---------------------------------------


    POTLOK:  cpu time    0.0109: real time    0.0109
    SETDIJ:  cpu time    0.0021: real time    0.0021
     EDDAV:  cpu time    0.3351: real time    0.3358
       DOS:  cpu time    0.0005: real time    0.0005
    CHARGE:  cpu time    0.0207: real time    0.0208
    MIXING:  cpu time    0.0006: real time    0.0006
    --------------------------------------------
      LOOP:  cpu time    0.3699: real time    0.3708

 eigenvalue-minimisations  :  1584
 total energy-change (2. order) : 0.2021194E-01  (-0.2654359E-02)
 number of electron      18.0000006 magnetization 
 augmentation part       -3.6005128 magnetization 

 Broyden mixing:
  rms(total) = 0.39423E-01    rms(broyden)= 0.39423E-01
  rms(prec ) = 0.54604E-01
  weight for this iteration     100.00

 eigenvalues of (default mixing * dielectric matrix)
  average eigenvalue GAMMA=   1.2814
  0.7194  1.8435

 Free energy of the ion-electron system (eV)
  ---------------------------------------------------
  alpha Z        PSCENC =         2.39922976
  Ewald energy   TEWEN  =      -688.10242330
  -Hartree energ DENC   =       -39.31803762
  -exchange      EXHF   =         0.00000000
  -V(xc)+E(xc)   XCENC  =       -83.81384842
  PAW double counting   =      1565.56351997    -1450.18127753
  entropy T*S    EENTRO =        -0.00021871
  eigenvalues    EBANDS =        14.25710589
  atomic energy  EATOM  =       669.81430600
  Solvation  Ediel_sol  =         0.00000000
  ---------------------------------------------------
  free energy    TOTEN  =        -9.38164398 eV

  energy without entropy =       -9.38142526  energy(sigma->0) =       -9.38153462


--------------------------------------------------------------------------------------------------------




--------------------------------------- Iteration      6(   4)  ---------------------------------------


    POTLOK:  cpu time    0.0109: real time    0.0110
    SETDIJ:  cpu time    0.0021: real time    0.0021
     EDDAV:  cpu time    0.3547: real time    0.3555
       DOS:  cpu time    0.0005: real time    0.0005
    CHARGE:  cpu time    0.0208: real time    0.0208
    MIXING:  cpu time    0.0006: real time    0.0006
    --------------------------------------------
      LOOP:  cpu time    0.3895: real time    0.3905

 eigenvalue-minimisations  :  1696
 total energy-change (2. order) : 0.2919669E-02  (-0.7016736E-03)
 number of electron      18.0000006 magnetization 
 augmentation part       -3.6145631 magnetization 

 Broyden mixing:
  rms(total) = 0.70273E-01    rms(broyden)= 0.70273E-01
  rms(prec ) = 0.70390E-01
  weight for this iteration     100.00

 eigenvalues of (default mixing * dielectric matrix)
  average eigenvalue GAMMA=   1.1325
  1.7890  0.8042  0.8042

 Free energy of the ion-electron system (eV)
  ---------------------------------------------------
  alpha Z        PSCENC =         2.39922976
  Ewald energy   TEWEN  =      -688.10242330
  -Hartree energ DENC   =       -38.81578807
  -exchange      EXHF   =         0.00000000
  -V(xc)+E(xc)   XCENC  =       -83.77999509
  PAW double counting   =      1578.41530120    -1463.03954794
  entropy T*S    EENTRO =        -0.00019151
  eigenvalues    EBANDS =        13.73038465
  atomic energy  EATOM  =       669.81430600
  Solvation  Ediel_sol  =         0.00000000
  ---------------------------------------------------
  free energy    TOTEN  =        -9.37872431 eV

  energy without entropy =       -9.37853280  energy(sigma->0) =       -9.37862855


--------------------------------------------------------------------------------------------------------




--------------------------------------- Iteration      6(   5)  ---------------------------------------


    POTLOK:  cpu time    0.0109: real time    0.0109
    SETDIJ:  cpu time    0.0021: real time    0.0021
     EDDAV:  cpu time    0.3920: real time    0.3930
       DOS:  cpu time    0.0005: real time    0.0005
    CHARGE:  cpu time    0.0209: real time    0.0209
    MIXING:  cpu time    0.0008: real time    0.0008
    --------------------------------------------
      LOOP:  cpu time    0.4272: real time    0.4282

 eigenvalue-minimisations  :  1936
 total energy-change (2. order) : 0.1151625E-05  (-0.2012692E-04)
 number of electron      18.0000006 magnetization 
 augmentation part       -3.6149372 magnetization 

 Broyden mixing:
  rms(total) = 0.57168E-01    rms(broyden)= 0.57168E-01
  rms(prec ) = 0.57251E-01
  weight for this iteration     100.00

 eigenvalues of (default mixing * dielectric matrix)
  average eigenvalue GAMMA=   1.9371
  3.7216  1.0018  1.1595  1.8653

 Free energy of the ion-electron system (eV)
  ---------------------------------------------------
  alpha Z        PSCENC =         2.39922976
  Ewald energy   TEWEN  =      -688.10242330
  -Hartree energ DENC   =       -38.80688316
  -exchange      EXHF   =         0.00000000
  -V(xc)+E(xc)   XCENC  =       -83.77899959
  PAW double counting   =      1582.15640076    -1466.78633877
  entropy T*S    EENTRO =        -0.00019133
  eigenvalues    EBANDS =        13.72617647
  atomic energy  EATOM  =       669.81430600
  Solvation  Ediel_sol  =         0.00000000
  ---------------------------------------------------
  free energy    TOTEN  =        -9.37872316 eV

  energy without entropy =       -9.37853183  energy(sigma->0) =       -9.37862749


--------------------------------------------------------------------------------------------------------




--------------------------------------- Iteration      6(   6)  ---------------------------------------


    POTLOK:  cpu time    0.0112: real time    0.0112
    SETDIJ:  cpu time    0.0022: real time    0.0022
     EDDAV:  cpu time    0.3569: real time    0.3577
       DOS:  cpu time    0.0005: real time    0.0005
    CHARGE:  cpu time    0.0206: real time    0.0206
    MIXING:  cpu time    0.0007: real time    0.0007
    --------------------------------------------
      LOOP:  cpu time    0.3921: real time    0.3930

 eigenvalue-minimisations  :  1728
 total energy-change (2. order) : 0.3138878E-04  (-0.1319594E-04)
 number of electron      18.0000006 magnetization 
 augmentation part       -3.6164506 magnetization 

 Broyden mixing:
  rms(total) = 0.18840E-01    rms(broyden)= 0.18840E-01
  rms(prec ) = 0.18931E-01
  weight for this iteration     100.00

 eigenvalues of (default mixing * dielectric matrix)
  average eigenvalue GAMMA=   1.5441
  2.3506  2.2683  0.9657  1.0680  1.0680

 Free energy of the ion-electron system (eV)
  ---------------------------------------------------
  alpha Z        PSCENC =         2.39922976
  Ewald energy   TEWEN  =      -688.10242330
  -Hartree energ DENC   =       -38.76448555
  -exchange      EXHF   =         0.00000000
  -V(xc)+E(xc)   XCENC  =       -83.77659791
  PAW double counting   =      1599.59185589    -1484.24362141
  entropy T*S    EENTRO =        -0.00019070
  eigenvalues    EBANDS =        13.70323547
  atomic energy  EATOM  =       669.81430600
  Solvation  Ediel_sol  =         0.00000000
  ---------------------------------------------------
  free energy    TOTEN  =        -9.37869177 eV

  energy without entropy =       -9.37850106  energy(sigma->0) =       -9.37859642


--------------------------------------------------------------------------------------------------------




--------------------------------------- Iteration      6(   7)  ---------------------------------------


    POTLOK:  cpu time    0.0108: real time    0.0108
    SETDIJ:  cpu time    0.0023: real time    0.0023
     EDDAV:  cpu time    0.3055: real time    0.3062
       DOS:  cpu time    0.0005: real time    0.0005
    --------------------------------------------
      LOOP:  cpu time    0.3191: real time    0.3198

 eigenvalue-minimisations  :  1376
 total energy-change (2. order) :-0.2064441E-05  (-0.2114805E-05)
 number of electron      18.0000006 magnetization 
 augmentation part       -3.6164506 magnetization 

 Free energy of the ion-electron system (eV)
  ---------------------------------------------------
  alpha Z        PSCENC =         2.39922976
  Ewald energy   TEWEN  =      -688.10242330
  -Hartree energ DENC   =       -38.78996712
  -exchange      EXHF   =         0.00000000
  -V(xc)+E(xc)   XCENC  =       -83.77719017
  PAW double counting   =      1595.97644392    -1480.62562063
  entropy T*S    EENTRO =        -0.00019190
  eigenvalues    EBANDS =        13.72671962
  atomic energy  EATOM  =       669.81430600
  Solvation  Ediel_sol  =         0.00000000
  ---------------------------------------------------
  free energy    TOTEN  =        -9.37869383 eV

  energy without entropy =       -9.37850193  energy(sigma->0) =       -9.37859788


--------------------------------------------------------------------------------------------------------




 average (electrostatic) potential at core
  the test charge radii are     1.1897
  (the norm of the test charge is              1.0000)
       1 -88.5379       2 -88.5379       3 -88.5379
 
 
 
 E-fermi :   6.6698     XC(G=0):  -9.2845     alpha+bet :-11.0376


 k-point     1 :       0.0000    0.0000    0.0000
  band No.  band energies     occupation 
      1      -7.2898      2.00000
      2      -3.8653      2.00000
      3      -3.8653      2.00000
      4       3.4451      2.00000
      5       3.8603      2.00000
      6       3.8603      2.00000
      7       4.6820      2.00000
      8       4.6820      2.00000
      9       5.2967      2.00000
     10       7.5558      0.00000
     11       7.5558      0.00000
     12       8.0586      0.00000
     13      11.4989      0.00000
     14      11.4989      0.00000
     15      12.6266      0.00000
     16      12.6266      0.00000

 k-point     2 :       0.1111    0.0000    0.0000
  band No.  band energies     occupation 
      1      -7.1949      2.00000
      2      -3.8882      2.00000
      3      -3.8418      2.00000
      4       2.7276      2.00000
      5       3.3240      2.00000
      6       3.4946      2.00000
      7       5.0957      2.00000
      8       5.2849      2.00000
      9       5.8493      2.00000
     10       7.1333      0.00000
     11       7.4449      0.00000
     12       7.8639      0.00000
     13      11.0871      0.00000
     14      11.4241      0.00000
     15      12.5090      0.00000
     16      12.8315      0.00000

 k-point     3 :       0.2222    0.0000    0.0000
  band No.  band energies     occupation 
      1      -6.9193      2.00000
      2      -4.0148      2.00000
      3      -3.7741      2.00000
      4       1.8607      2.00000
      5       2.6656      2.00000
      6       3.0214      2.00000
      7       5.2729      2.00000
      8       5.5496      2.00000
      9       5.7118      2.00000
     10       7.2451      0.00000
     11       7.4727      0.00000
     12       7.9886      0.00000
     13      10.1909      0.00000
     14      11.6356      0.00000
     15      12.7095      0.00000
     16      13.5873      0.00000

 k-point     4 :       0.3333   -0.0000    0.0000
  band No.  band energies     occupation 
      1      -6.4995      2.00000
      2      -4.3346      2.00000
      3      -3.6852      2.00000
      4       1.5014      2.00000
      5       2.1587      2.00000
      6       2.6597      2.00000
      7       4.0222      2.00000
      8       5.7513      2.00000
      9       5.7800      2.00000
     10       7.1373      0.00000
     11       7.3089      0.00000
     12       9.3225      0.00000
     13       9.4825      0.00000
     14      12.4588      0.00000
     15      13.4977      0.00000
     16      14.6471      0.00000

 k-point     5 :       0.4444    0.0000    0.0000
  band No.  band energies     occupation 
      1      -6.0658      2.00000
      2      -4.7472      2.00000
      3      -3.6205      2.00000
      4       1.5612      2.00000
      5       1.9627      2.00000
      6       2.5235      2.00000
      7       2.9742      2.00000
      8       5.7243      2.00000
      9       5.8168      2.00000
     10       7.1130      0.00000
     11       7.1808      0.00000
     12       9.1086      0.00000
     13      10.2676      0.00000
     14      13.7151      0.00000
     15      14.7892      0.00000
     16      15.4094      0.00000

 k-point     6 :       0.1111    0.1111    0.0000
  band No.  band energies     occupation 
      1      -7.0094      2.00000
      2      -3.9403      2.00000
      3      -3.8204      2.00000
      4       2.1534      2.00000
      5       2.4607      2.00000
      6       3.6422      2.00000
      7       4.7177      2.00000
      8       5.8707      2.00000
      9       5.9024      2.00000
     10       7.0827      0.00000
     11       7.3892      0.00000
     12       8.0040      0.00000
     13      10.8345      0.00000
     14      10.8744      0.00000
     15      12.9223      0.00000
     16      13.2759      0.00000

 k-point     7 :       0.2222    0.1111    0.0000
  band No.  band energies     occupation 
      1      -6.6590      2.00000
      2      -4.1304      2.00000
      3      -3.7910      2.00000
      4       1.6420      2.00000
      5       2.0088      2.00000
      6       3.2388      2.00000
      7       4.6034      2.00000
      8       4.8998      2.00000
      9       5.5451      2.00000
     10       7.5750      0.00000
     11       8.0572      0.00000
     12       8.5491      0.00000
     13      10.1150      0.00000
     14      11.2183      0.00000
     15      13.5713      0.00000
     16      13.9755      0.00000

 k-point     8 :       0.3333    0.1111    0.0000
  band No.  band energies     occupation 
      1      -6.2111      2.00000
      2      -4.5082      2.00000
      3      -3.7525      2.00000
      4       1.5656      2.00000
      5       1.8873      2.00000
      6       2.7593      2.00000
      7       3.5114      2.00000
      8       4.9085      2.00000
      9       5.2295      2.00000
     10       7.7741      0.00000
     11       8.0137      0.00000
     12       9.6328      0.00000
     13       9.7829      0.00000
     14      12.2315      0.00000
     15      14.5904      0.00000
     16      14.9831      0.00000

 k-point     9 :       0.4444    0.1111    0.0000
  band No.  band energies     occupation 
      1      -5.9310      2.00000
      2      -4.7792      2.00000
      3      -3.7350      2.00000
      4       1.6606      2.00000
      5       1.9719      2.00000
      6       2.6880      2.00000
      7       2.7589      2.00000
      8       5.0145      2.00000
      9       5.0378      2.00000
     10       7.8249      0.00000
     11       7.9766      0.00000
     12       9.4827      0.00000
     13      10.3082      0.00000
     14      13.3974      0.00000
     15      14.1439      0.00000
     16      15.6364      0.00000

 k-point    10 :       0.2222    0.2222    0.0000
  band No.  band energies     occupation 
      1      -6.2695      2.00000
      2      -4.2958      2.00000
      3      -3.9326      2.00000
      4       1.6614      2.00000
      5       1.7200      2.00000
      6       3.2319      2.00000
      7       3.9919      2.00000
      8       4.3472      2.00000
      9       4.4169      2.00000
     10       8.6122      0.00000
     11       8.8336      0.00000
     12       8.9299      0.00000
     13      10.6093      0.00000
     14      10.8606      0.00000
     15      13.8389      0.00000
     16      15.2873      0.00000

 k-point    11 :       0.3333    0.2222    0.0000
  band No.  band energies     occupation 
      1      -5.8858      2.00000
      2      -4.5599      2.00000
      3      -4.0399      2.00000
      4       1.8157      2.00000
      5       1.9260      2.00000
      6       2.9064      2.00000
      7       3.2266      2.00000
      8       3.9810      2.00000
      9       4.0960      2.00000
     10       8.8425      0.00000
     11       9.0576      0.00000
     12       9.8703      0.00000
     13      10.4956      0.00000
     14      11.9074      0.00000
     15      13.5880      0.00000
     16      14.8260      0.00000

 k-point    12 :       0.3333    0.3333    0.0000
  band No.  band energies     occupation 
      1      -5.7266      2.00000
      2      -4.3898      2.00000
      3      -4.3898      2.00000
      4       2.0408      2.00000
      5       2.0408      2.00000
      6       3.2149      2.00000
      7       3.2150      2.00000
      8       3.3312      2.00000
      9       3.4258      2.00000
     10       9.5489      0.00000
     11       9.5489      0.00000
     12       9.7244      0.00000
     13      11.3298      0.00000
     14      12.0744      0.00000
     15      12.0744      0.00000
     16      15.2360      0.00000

 k-point    13 :       0.0000    0.0000    0.2500
  band No.  band energies     occupation 
      1      -7.0565      2.00000
      2      -5.2704      2.00000
      3      -2.4172      2.00000
      4       3.1813      2.00000
      5       3.5435      2.00000
      6       3.9145      2.00000
      7       4.9134      2.00000
      8       5.1164      2.00000
      9       5.3984      2.00000
     10       7.0602      0.00000
     11       7.1483      0.00000
     12       7.4731      0.00000
     13      10.7198      0.00000
     14      11.7915      0.00000
     15      12.0563      0.00000
     16      12.8375      0.00000

 k-point    14 :       0.1111    0.0000    0.2500
  band No.  band energies     occupation 
      1      -6.9656      2.00000
      2      -5.2101      2.00000
      3      -2.5428      2.00000
      4       2.7685      2.00000
      5       3.4505      2.00000
      6       3.8594      2.00000
      7       4.5420      2.00000
      8       4.9788      2.00000
      9       5.2443      2.00000
     10       7.2606      0.00000
     11       7.6227      0.00000
     12       7.9562      0.00000
     13      10.7957      0.00000
     14      11.7989      0.00000
     15      12.1789      0.00000
     16      12.3619      0.00000

 k-point    15 :       0.2222    0.0000    0.2500
  band No.  band energies     occupation 
      1      -6.7069      2.00000
      2      -5.0315      2.00000
      3      -2.9508      2.00000
      4       2.4131      2.00000
      5       3.0325      2.00000
      6       3.4552      2.00000
      7       3.9032      2.00000
      8       4.5633      2.00000
      9       4.9268      2.00000
     10       7.9907      0.00000
     11       8.3950      0.00000
     12       8.7889      0.00000
     13      11.1509      0.00000
     14      11.5634      0.00000
     15      12.2069      0.00000
     16      12.5155      0.00000

 k-point    16 :       0.3333   -0.0000    0.2500
  band No.  band energies     occupation 
      1      -6.3266      2.00000
      2      -4.7902      2.00000
      3      -3.5361      2.00000
      4       2.0528      2.00000
      5       2.4335      2.00000
      6       3.0140      2.00000
      7       3.4015      2.00000
      8       4.6082      2.00000
      9       4.8779      2.00000
     10       8.0422      0.00000
     11       8.5546      0.00000
     12       9.7808      0.00000
     13      10.5717      0.00000
     14      12.1462      0.00000
     15      12.8272      0.00000
     16      13.4266      0.00000

 k-point    17 :       0.4444    0.0000    0.2500
  band No.  band energies     occupation 
      1      -5.9420      2.00000
      2      -4.7787      2.00000
      3      -3.8414      2.00000
      4       1.2776      2.00000
      5       2.1304      2.00000
      6       2.7237      2.00000
      7       3.9231      2.00000
      8       4.6636      2.00000
      9       4.8729      2.00000
     10       7.8744      0.00000
     11       8.4960      0.00000
     12       9.6100      0.00000
     13      10.0311      0.00000
     14      12.7695      0.00000
     15      14.2727      0.00000
     16      14.7439      0.00000

 k-point    18 :      -0.4444   -0.0000    0.2500
  band No.  band energies     occupation 
      1      -5.8791      2.00000
      2      -5.0205      2.00000
      3      -3.5609      2.00000
      4       0.8631      2.00000
      5       1.9981      2.00000
      6       2.6821      2.00000
      7       4.7607      2.00000
      8       4.8143      2.00000
      9       5.0521      2.00000
     10       7.6677      0.00000
     11       8.2904      0.00000
     12       8.7392      0.00000
     13       9.6977      0.00000
     14      13.4546      0.00000
     15      14.5930      0.00000
     16      15.2344      0.00000

 k-point    19 :      -0.3333    0.0000    0.2500
  band No.  band energies     occupation 
      1      -6.2774      2.00000
      2      -5.0393      2.00000
      3      -3.1412      2.00000
      4       1.0625      2.00000
      5       2.0757      2.00000
      6       2.8370      2.00000
      7       5.0354      2.00000
      8       5.1583      2.00000
      9       6.0175      2.00000
     10       7.3386      0.00000
     11       7.7256      0.00000
     12       7.9802      0.00000
     13       9.6030      0.00000
     14      13.3498      0.00000
     15      13.8403      0.00000
     16      14.4359      0.00000

 k-point    20 :      -0.2222   -0.0000    0.2500
  band No.  band energies     occupation 
      1      -6.6923      2.00000
      2      -5.1107      2.00000
      3      -2.7685      2.00000
      4       1.8606      2.00000
      5       2.3814      2.00000
      6       3.1541      2.00000
      7       5.3531      2.00000
      8       5.4984      2.00000
      9       6.1067      2.00000
     10       7.0084      0.00000
     11       7.3768      0.00000
     12       7.6251      0.00000
     13       9.8612      0.00000
     14      12.6957      0.00000
     15      12.8853      0.00000
     16      13.3094      0.00000

 k-point    21 :      -0.1111   -0.0000    0.2500
  band No.  band energies     occupation 
      1      -6.9638      2.00000
      2      -5.2197      2.00000
      3      -2.5142      2.00000
      4       2.8298      2.00000
      5       3.0130      2.00000
      6       3.6030      2.00000
      7       5.0535      2.00000
      8       5.4864      2.00000
      9       5.6784      2.00000
     10       6.8675      0.00000
     11       6.9227      0.00000
     12       8.0110      0.00000
     13      10.4365      0.00000
     14      11.9128      0.00000
     15      12.3455      0.00000
     16      12.7652      0.00000

 k-point    22 :       0.1111    0.1111    0.2500
  band No.  band energies     occupation 
      1      -6.7860      2.00000
      2      -5.1149      2.00000
      3      -2.7514      2.00000
      4       2.3647      2.00000
      5       2.6394      2.00000
      6       3.4774      2.00000
      7       4.5776      2.00000
      8       5.1260      2.00000
      9       5.5303      2.00000
     10       7.4019      0.00000
     11       7.9384      0.00000
     12       8.0468      0.00000
     13      10.4536      0.00000
     14      12.0425      0.00000
     15      12.3441      0.00000
     16      12.7402      0.00000

 k-point    23 :       0.2222    0.1111    0.2500
  band No.  band energies     occupation 
      1      -6.4609      2.00000
      2      -4.9122      2.00000
      3      -3.2536      2.00000
      4       1.9515      2.00000
      5       2.4529      2.00000
      6       3.2553      2.00000
      7       3.5156      2.00000
      8       4.5614      2.00000
      9       5.7296      2.00000
     10       7.6415      0.00000
     11       8.2873      0.00000
     12       9.3348      0.00000
     13      10.9377      0.00000
     14      11.3190      0.00000
     15      12.6902      0.00000
     16      13.5615      0.00000

 k-point    24 :       0.3333    0.1111    0.2500
  band No.  band energies     occupation 
      1      -6.0621      2.00000
      2      -4.7314      2.00000
      3      -3.7842      2.00000
      4       1.6250      2.00000
      5       1.8719      2.00000
      6       3.0006      2.00000
      7       3.5791      2.00000
      8       4.1518      2.00000
      9       5.8348      2.00000
     10       7.4387      0.00000
     11       8.7344      0.00000
     12       9.7808      0.00000
     13      10.4448      0.00000
     14      12.1869      0.00000
     15      13.2145      0.00000
     16      14.2431      0.00000

 k-point    25 :       0.4444    0.1111    0.2500
  band No.  band energies     occupation 
      1      -5.7905      2.00000
      2      -4.8935      2.00000
      3      -3.8079      2.00000
      4       1.0554      2.00000
      5       1.7678      2.00000
      6       2.8980      2.00000
      7       3.7548      2.00000
      8       4.4720      2.00000
      9       5.9080      2.00000
     10       7.2573      0.00000
     11       8.8105      0.00000
     12       9.1854      0.00000
     13      10.1460      0.00000
     14      13.1479      0.00000
     15      14.1850      0.00000
     16      14.4102      0.00000

 k-point    26 :      -0.4444    0.1111    0.2500
  band No.  band energies     occupation 
      1      -6.0068      2.00000
      2      -4.9847      2.00000
      3      -3.4615      2.00000
      4       0.9298      2.00000
      5       1.9616      2.00000
      6       2.8478      2.00000
      7       3.8171      2.00000
      8       5.4545      2.00000
      9       5.9653      2.00000
     10       7.1207      0.00000
     11       8.1237      0.00000
     12       8.7675      0.00000
     13      10.0191      0.00000
     14      12.8875      0.00000
     15      13.9262      0.00000
     16      14.8088      0.00000

 k-point    27 :      -0.3333    0.1111    0.2500
  band No.  band energies     occupation 
      1      -6.4422      2.00000
      2      -5.0102      2.00000
      3      -3.0755      2.00000
      4       1.4332      2.00000
      5       2.2624      2.00000
      6       3.0254      2.00000
      7       4.1020      2.00000
      8       5.6728      2.00000
      9       6.3498      2.00000
     10       6.9906      0.00000
     11       7.4895      0.00000
     12       8.5467      0.00000
     13      10.0634      0.00000
     14      12.1917      0.00000
     15      13.1823      0.00000
     16      14.0480      0.00000

 k-point    28 :       0.2222    0.2222    0.2500
  band No.  band energies     occupation 
      1      -6.0856      2.00000
      2      -4.8475      2.00000
      3      -3.5815      2.00000
      4       1.2365      2.00000
      5       2.1257      2.00000
      6       2.7991      2.00000
      7       3.3364      2.00000
      8       5.0694      2.00000
      9       6.1713      2.00000
     10       7.3329      0.00000
     11       8.1209      0.00000
     12       9.4779      0.00000
     13      10.8410      0.00000
     14      11.4257      0.00000
     15      13.5237      0.00000
     16      14.5142      0.00000

 k-point    29 :       0.3333    0.2222    0.2500
  band No.  band energies     occupation 
      1      -5.7460      2.00000
      2      -4.7682      2.00000
      3      -3.9697      2.00000
      4       1.2548      2.00000
      5       1.5987      2.00000
      6       2.4407      2.00000
      7       3.7651      2.00000
      8       4.5511      2.00000
      9       5.8896      2.00000
     10       7.5814      0.00000
     11       8.8691      0.00000
     12       9.4500      0.00000
     13      10.8828      0.00000
     14      12.0516      0.00000
     15      13.7960      0.00000
     16      14.0517      0.00000

 k-point    30 :       0.4444    0.2222    0.2500
  band No.  band energies     occupation 
      1      -5.7241      2.00000
      2      -4.8566      2.00000
      3      -3.8796      2.00000
      4       1.0558      2.00000
      5       1.7140      2.00000
      6       2.4621      2.00000
      7       3.6308      2.00000
      8       5.0333      2.00000
      9       5.6483      2.00000
     10       7.7902      0.00000
     11       8.5144      0.00000
     12       9.3341      0.00000
     13      10.7743      0.00000
     14      12.3291      0.00000
     15      13.5950      0.00000
     16      14.6224      0.00000

 k-point    31 :       0.3333    0.3333    0.2500
  band No.  band energies     occupation 
      1      -5.5860      2.00000
      2      -4.7792      2.00000
      3      -4.0890      2.00000
      4       1.2201      2.00000
      5       1.6115      2.00000
      6       1.9623      2.00000
      7       4.0598      2.00000
      8       4.8784      2.00000
      9       5.1952      2.00000
     10       8.4906      0.00000
     11       8.8566      0.00000
     12       8.9446      0.00000
     13      11.7682      0.00000
     14      12.0402      0.00000
     15      12.3999      0.00000
     16      14.9614      0.00000

 k-point    32 :       0.0000    0.0000    0.5000
  band No.  band energies     occupation 
      1      -6.3689      2.00000
      2      -6.3688      2.00000
      3      -1.6674      2.00000
      4       2.6693      2.00000
      5       3.7470      2.00000
      6       3.7470      2.00000
      7       5.1960      2.00000
      8       5.5631      2.00000
      9       5.5631      2.00000
     10       6.7154      0.19710
     11       6.7154      0.19710
     12       6.7364      0.05949
     13      10.3989      0.00000
     14      11.4863      0.00000
     15      11.4863      0.00000
     16      13.5581      0.00000

 k-point    33 :       0.1111    0.0000    0.5000
  band No.  band energies     occupation 
      1      -6.2956      2.00000
      2      -6.2804      2.00000
      3      -1.8823      2.00000
      4       2.6436      2.00000
      5       3.5821      2.00000
      6       3.7171      2.00000
      7       4.4736      2.00000
      8       4.9982      2.00000
      9       5.2272      2.00000
     10       7.0696      0.00000
     11       7.2971      0.00000
     12       7.8460      0.00000
     13      10.6289      0.00000
     14      11.2238      0.00000
     15      11.8142      0.00000
     16      13.8441      0.00000

 k-point    34 :       0.2222    0.0000    0.5000
  band No.  band energies     occupation 
      1      -6.0964      2.00000
      2      -6.0217      2.00000
      3      -2.4340      2.00000
      4       2.2024      2.00000
      5       2.9960      2.00000
      6       3.4406      2.00000
      7       4.3020      2.00000
      8       4.4709      2.00000
      9       4.9026      2.00000
     10       7.7370      0.00000
     11       8.1539      0.00000
     12       8.7723      0.00000
     13      10.6859      0.00000
     14      11.6717      0.00000
     15      12.5604      0.00000
     16      13.1988      0.00000

 k-point    35 :       0.3333   -0.0000    0.5000
  band No.  band energies     occupation 
      1      -5.8395      2.00000
      2      -5.6223      2.00000
      3      -3.1309      2.00000
      4       1.2338      2.00000
      5       2.8367      2.00000
      6       3.1532      2.00000
      7       4.0011      2.00000
      8       4.2381      2.00000
      9       5.3370      2.00000
     10       8.1928      0.00000
     11       8.4979      0.00000
     12       8.8379      0.00000
     13      10.7312      0.00000
     14      12.0645      0.00000
     15      13.2787      0.00000
     16      13.6490      0.00000

 k-point    36 :       0.4444    0.0000    0.5000
  band No.  band energies     occupation 
      1      -5.6479      2.00000
      2      -5.2020      2.00000
      3      -3.7298      2.00000
      4       0.6167      2.00000
      5       2.8282      2.00000
      6       2.9400      2.00000
      7       3.7961      2.00000
      8       4.0859      2.00000
      9       6.1616      2.00000
     10       7.4374      0.00000
     11       8.6233      0.00000
     12       9.1394      0.00000
     13      10.9220      0.00000
     14      11.5688      0.00000
     15      14.3714      0.00000
     16      14.7654      0.00000

 k-point    37 :       0.1111    0.1111    0.5000
  band No.  band energies     occupation 
      1      -6.1543      2.00000
      2      -6.1115      2.00000
      3      -2.2610      2.00000
      4       2.4587      2.00000
      5       3.1911      2.00000
      6       3.3130      2.00000
      7       4.1898      2.00000
      8       4.4102      2.00000
      9       5.6373      2.00000
     10       6.8799      0.00000
     11       8.4402      0.00000
     12       8.4909      0.00000
     13      10.9868      0.00000
     14      11.0458      0.00000
     15      12.4967      0.00000
     16      13.3855      0.00000

 k-point    38 :       0.2222    0.1111    0.5000
  band No.  band energies     occupation 
      1      -5.9113      2.00000
      2      -5.7931      2.00000
      3      -2.8680      2.00000
      4       1.7427      2.00000
      5       2.5664      2.00000
      6       2.7846      2.00000
      7       4.2384      2.00000
      8       4.7606      2.00000
      9       5.5023      2.00000
     10       7.4069      0.00000
     11       8.7378      0.00000
     12       8.8470      0.00000
     13      10.8463      0.00000
     14      11.8223      0.00000
     15      12.9053      0.00000
     16      13.6312      0.00000

 k-point    39 :       0.3333    0.1111    0.5000
  band No.  band energies     occupation 
      1      -5.6669      2.00000
      2      -5.3795      2.00000
      3      -3.5089      2.00000
      4       0.9255      2.00000
      5       2.2850      2.00000
      6       2.4608      2.00000
      7       4.3794      2.00000
      8       4.8906      2.00000
      9       5.7831      2.00000
     10       7.8503      0.00000
     11       8.1987      0.00000
     12       8.9070      0.00000
     13      10.9426      0.00000
     14      11.9980      0.00000
     15      13.2397      0.00000
     16      14.4401      0.00000

 k-point    40 :       0.4444    0.1111    0.5000
  band No.  band energies     occupation 
      1      -5.5598      2.00000
      2      -5.1178      2.00000
      3      -3.8549      2.00000
      4       0.6073      2.00000
      5       2.2024      2.00000
      6       2.3396      2.00000
      7       4.5626      2.00000
      8       4.6552      2.00000
      9       6.4590      2.00000
     10       7.1676      0.00000
     11       8.4206      0.00000
     12       8.8402      0.00000
     13      11.1414      0.00000
     14      11.5882      0.00000
     15      14.5789      0.00000
     16      14.8101      0.00000

 k-point    41 :       0.2222    0.2222    0.5000
  band No.  band energies     occupation 
      1      -5.6425      2.00000
      2      -5.4849      2.00000
      3      -3.3994      2.00000
      4       1.3517      2.00000
      5       1.7198      2.00000
      6       2.1342      2.00000
      7       4.8595      2.00000
      8       5.2343      2.00000
      9       6.0839      2.00000
     10       7.2007      0.00000
     11       8.5175      0.00000
     12       8.5293      0.00000
     13      11.2344      0.00000
     14      12.1117      0.00000
     15      13.0048      0.00000
     16      13.1926      0.00000

 k-point    42 :       0.3333    0.2222    0.5000
  band No.  band energies     occupation 
      1      -5.4298      2.00000
      2      -5.1944      2.00000
      3      -3.8332      2.00000
      4       0.8987      2.00000
      5       1.4928      2.00000
      6       1.7106      2.00000
      7       5.3287      2.00000
      8       5.7241      2.00000
      9       6.3127      2.00000
     10       7.3633      0.00000
     11       7.7995      0.00000
     12       8.1966      0.00000
     13      11.6461      0.00000
     14      12.2765      0.00000
     15      13.2553      0.00000
     16      13.6468      0.00000

 k-point    43 :       0.3333    0.3333    0.5000
  band No.  band energies     occupation 
      1      -5.2209      2.00000
      2      -5.2209      2.00000
      3      -3.9590      2.00000
      4       1.1537      2.00000
      5       1.1808      2.00000
      6       1.1808      2.00000
      7       5.7891      2.00000
      8       6.6140      1.88572
      9       6.6140      1.88571
     10       6.7806      0.00172
     11       7.5650      0.00000
     12       7.5650      0.00000
     13      12.4950      0.00000
     14      12.8902      0.00000
     15      12.8902      0.00000
     16      13.5987      0.00000


--------------------------------------------------------------------------------------------------------


 soft charge-density along one line, spin component           1
         0         1         2         3         4         5         6         7         8         9
 total charge-density along one line
 
 pseudopotential strength for first ion, spin component:           1
 51.442  55.970  -0.000  -0.000  -0.041  -0.000  -0.000  -0.059
 55.970  60.901  -0.000  -0.000  -0.044  -0.000  -0.000  -0.064
 -0.000  -0.000  12.675   0.008   0.000  18.270   0.012   0.000
 -0.000  -0.000   0.008  12.688   0.000   0.012  18.289   0.000
 -0.041  -0.044   0.000   0.000  12.688   0.000   0.000  18.289
 -0.000  -0.000  18.270   0.012   0.000  26.344   0.017   0.000
 -0.000  -0.000   0.012  18.289   0.000   0.017  26.371   0.000
 -0.059  -0.064   0.000   0.000  18.289   0.000   0.000  26.371
  0.000   0.000  -0.008   0.000  -0.000  -0.012   0.000  -0.000
  0.013   0.014   0.000  -0.000   0.000   0.000  -0.000   0.000
  0.006   0.006   0.000  -0.000   0.005   0.000  -0.000   0.007
  0.000   0.000   0.000  -0.007  -0.000   0.000  -0.011  -0.000
  0.010   0.011   0.000  -0.000  -0.008   0.000  -0.000  -0.011
 total augmentation occupancy for first ion, spin component:           1
 14.461 -10.712   0.000  -0.000   1.736   0.000   0.000  -0.426   0.000  -0.155  -0.088   0.000  -0.118
-10.712   9.213   0.000   0.000  -1.456   0.000  -0.000   0.364   0.000   0.139   0.078   0.000   0.105
  0.000   0.000   2.622   0.167   0.000  -0.552  -0.153   0.000  -0.044   0.000   0.000  -0.043   0.000
 -0.000   0.000   0.167   2.895  -0.000  -0.153  -0.796   0.000  -0.043   0.000   0.000  -0.096   0.000
  1.736  -1.456   0.000  -0.000   2.834   0.000   0.000  -0.764   0.000  -0.047  -0.010   0.000  -0.044
  0.000   0.000  -0.552  -0.153   0.000   0.205   0.055   0.000   0.010   0.000   0.000   0.015   0.000
  0.000   0.000  -0.153  -0.796   0.000   0.055   0.293  -0.000   0.015   0.000   0.000   0.027  -0.000
 -0.426   0.364   0.000   0.000  -0.764   0.000  -0.000   0.274  -0.000   0.013   0.002  -0.000   0.010
 -0.000   0.000  -0.044  -0.043   0.000   0.010   0.015  -0.000   0.011  -0.000  -0.000   0.012   0.000
 -0.155   0.139   0.000   0.000  -0.047   0.000   0.000   0.013  -0.000   0.016   0.003   0.000   0.006
 -0.088   0.078   0.000   0.000  -0.010   0.000  -0.000   0.002  -0.000   0.003   0.007  -0.000  -0.000
  0.000   0.000  -0.043  -0.096   0.000   0.015   0.027  -0.000   0.012   0.000  -0.000   0.028  -0.000
 -0.118   0.105   0.000   0.000  -0.044   0.000  -0.000   0.010   0.000   0.006  -0.000  -0.000   0.011


------------------------ aborting loop because EDIFF is reached ----------------------------------------


    CHARGE:  cpu time    0.0207: real time    0.0207
    FORLOC:  cpu time    0.0007: real time    0.0007
    FORNL :  cpu time    0.0757: real time    0.0759
    STRESS:  cpu time    0.2244: real time    0.2249
    FORCOR:  cpu time    0.0115: real time    0.0115
    FORHAR:  cpu time    0.0028: real time    0.0029
    MIXING:  cpu time    0.0006: real time    0.0007
    OFIELD:  cpu time    0.0000: real time    0.0000

 ---------------------------------------------------------------------------------------------

         DFTD3 V3.0 Rev 1        
 Edisp (eV)   -0.82849

 E6    (eV) :    -0.3164
 E8    (eV) :    -0.5121
 % E8        : 61.81
    FORVDW:  cpu time    0.0096: real time    0.0096

  FORCE on cell =-STRESS in cart. coord.  units (eV):
  Direction    XX          YY          ZZ          XY          YZ          ZX
  --------------------------------------------------------------------------------------
  Alpha Z     2.39923     2.39923     2.39923
  Ewald    -238.42243  -238.42243  -211.25818    -0.00000    -0.00000     0.00000
  Hartree    10.73113    10.73113    17.32796     0.00000     0.00000    -0.00000
  E(xc)     -70.50404   -70.50404   -70.11760    -0.00000     0.00000    -0.00000
  Local    -110.16725  -110.16730  -136.95265    -0.00004     0.00000    -0.00000
  n-local   332.33254   333.19752   329.24885    -1.25588    -0.63371    -1.10180
  augment   -81.04361   -81.04357   -79.30630     0.00004    -0.00000     0.00000
  Kinetic   151.58389   159.21725   150.44047    -8.20538     0.26275     2.05930
  Fock        0.00000     0.00000     0.00000     0.00000     0.00000     0.00000
  vdW        -0.75281    -0.75281    -0.91759     0.00000    -0.00000    -0.00000
  -------------------------------------------------------------------------------------
  Total       0.40580     0.40580     0.86420     0.00000    -0.00000    -0.00000
  in kB       6.67325     6.67325    14.21151     0.00000    -0.00000    -0.00000
  external pressure =        9.19 kB  Pullay stress =        0.00 kB


 VOLUME and BASIS-vectors are now :
 -----------------------------------------------------------------------------
  energy-cutoff  :      520.00
  volume of cell :       97.43
      direct lattice vectors                 reciprocal lattice vectors
     4.390963001  0.000000000 -0.000000000     0.227740475  0.131486025  0.000000000
    -2.195481500  3.802685506  0.000000000     0.000000000  0.262972049  0.000000000
    -0.000000000  0.000000000  5.834914252     0.000000000 -0.000000000  0.171382124

  length of vectors
     4.390963001  4.390963001  5.834914252     0.262972049  0.262972049  0.171382124


 FORCES acting on ions
    electron-ion (+dipol)            ewald-force                    non-local-force                 convergence-correction
 -----------------------------------------------------------------------------------------------
   -.847E+01 0.106E-04 -.779E-06   0.126E+02 0.170E-05 0.126E-05   -.416E+01 -.278E-16 -.278E-16   -.880E-03 -.142E-07 -.230E-10
   0.424E+01 -.734E+01 -.184E-04   -.631E+01 0.109E+02 -.784E-05   0.208E+01 -.361E+01 0.000E+00   0.440E-03 -.762E-03 0.258E-08
   0.424E+01 0.734E+01 0.189E-04   -.631E+01 -.109E+02 0.658E-05   0.208E+01 0.361E+01 0.000E+00   0.440E-03 0.762E-03 -.256E-08
 -----------------------------------------------------------------------------------------------
   0.255E-04 -.903E-05 -.297E-06   -.888E-15 0.000E+00 0.000E+00   -.444E-15 0.000E+00 -.278E-16   0.281E-08 0.876E-08 -.324E-11
 
 
 POSITION                                       TOTAL-FORCE (eV/Angst)
 -----------------------------------------------------------------------------------
      1.25125      0.00000      1.94497        -0.022739      0.000000      0.000000
     -0.62562      1.08361      3.88994         0.011369     -0.019692     -0.000000
      1.56986      2.71907      0.00000         0.011369      0.019692     -0.000000
 -----------------------------------------------------------------------------------
    total drift:                                0.000026     -0.000009     -0.000000


--------------------------------------------------------------------------------------------------------



  FREE ENERGIE OF THE ION-ELECTRON SYSTEM (eV)
  ---------------------------------------------------
  free  energy   TOTEN  =       -10.20718419 eV

  energy  without entropy=      -10.20699230  energy(sigma->0) =      -10.20708825
 
 d Force = 0.3992529E-02[-0.369E-02, 0.117E-01]  d Energy =-0.6974588E-02 0.110E-01
 d Force = 0.2322513E+01[ 0.205E+01, 0.260E+01]  d Ewald  = 0.1128819E+02-0.897E+01


--------------------------------------------------------------------------------------------------------


    POTLOK:  cpu time    0.0132: real time    0.0132


--------------------------------------------------------------------------------------------------------




--------------------------------------------------------------------------------------------------------


    WAVPRE:  cpu time    0.0026: real time    0.0048
    FEWALD:  cpu time    0.0001: real time    0.0003
    GENKIN:  cpu time    0.0068: real time    0.0069
    ORTHCH:  cpu time    0.0198: real time    0.0198
     LOOP+:  cpu time    3.0408: real time    3.0553


--------------------------------------- Iteration      7(   1)  ---------------------------------------


    POTLOK:  cpu time    0.0111: real time    0.0123
    SETDIJ:  cpu time    0.0021: real time    0.0021
     EDDAV:  cpu time    0.3055: real time    0.3063
       DOS:  cpu time    0.0005: real time    0.0005
    CHARGE:  cpu time    0.0209: real time    0.0210
    MIXING:  cpu time    0.0005: real time    0.0005
    --------------------------------------------
      LOOP:  cpu time    0.3406: real time    0.3426

 eigenvalue-minimisations  :  1400
 total energy-change (2. order) :-0.4829772E-01  (-0.2272778E+00)
 number of electron      18.0000001 magnetization 
 augmentation part       -3.6278758 magnetization 

 Broyden mixing:
  rms(total) = 0.99846E-01    rms(broyden)= 0.99845E-01
  rms(prec ) = 0.15176E+00
  weight for this iteration     100.00

 Free energy of the ion-electron system (eV)
  ---------------------------------------------------
  alpha Z        PSCENC =         2.33575741
  Ewald energy   TEWEN  =      -680.48113115
  -Hartree energ DENC   =       -39.46529943
  -exchange      EXHF   =         0.00000000
  -V(xc)+E(xc)   XCENC  =       -83.81833723
  PAW double counting   =      1596.01945459    -1480.66896725
  entropy T*S    EENTRO =        -0.00001988
  eigenvalues    EBANDS =         6.83724746
  atomic energy  EATOM  =       669.81430600
  Solvation  Ediel_sol  =         0.00000000
  ---------------------------------------------------
  free energy    TOTEN  =        -9.42698949 eV

  energy without entropy =       -9.42696961  energy(sigma->0) =       -9.42697955


--------------------------------------------------------------------------------------------------------




--------------------------------------- Iteration      7(   2)  ---------------------------------------


    POTLOK:  cpu time    0.0110: real time    0.0110
    SETDIJ:  cpu time    0.0023: real time    0.0023
     EDDAV:  cpu time    0.3780: real time    0.3789
       DOS:  cpu time    0.0005: real time    0.0005
    CHARGE:  cpu time    0.0208: real time    0.0208
    MIXING:  cpu time    0.0005: real time    0.0005
    --------------------------------------------
      LOOP:  cpu time    0.4130: real time    0.4140

 eigenvalue-minimisations  :  1824
 total energy-change (2. order) : 0.8156393E-02  (-0.1111420E-01)
 number of electron      18.0000001 magnetization 
 augmentation part       -3.6392555 magnetization 

 Broyden mixing:
  rms(total) = 0.64573E-01    rms(broyden)= 0.64573E-01
  rms(prec ) = 0.97659E-01
  weight for this iteration     100.00

 eigenvalues of (default mixing * dielectric matrix)
  average eigenvalue GAMMA=   0.7132
  0.7132

 Free energy of the ion-electron system (eV)
  ---------------------------------------------------
  alpha Z        PSCENC =         2.33575741
  Ewald energy   TEWEN  =      -680.48113115
  -Hartree energ DENC   =       -40.24302724
  -exchange      EXHF   =         0.00000000
  -V(xc)+E(xc)   XCENC  =       -83.83985933
  PAW double counting   =      1600.83075080    -1485.48914010
  entropy T*S    EENTRO =        -0.00003017
  eigenvalues    EBANDS =         7.65354068
  atomic energy  EATOM  =       669.81430600
  Solvation  Ediel_sol  =         0.00000000
  ---------------------------------------------------
  free energy    TOTEN  =        -9.41883309 eV

  energy without entropy =       -9.41880293  energy(sigma->0) =       -9.41881801


--------------------------------------------------------------------------------------------------------




--------------------------------------- Iteration      7(   3)  ---------------------------------------


    POTLOK:  cpu time    0.0110: real time    0.0110
    SETDIJ:  cpu time    0.0021: real time    0.0021
     EDDAV:  cpu time    0.3405: real time    0.3414
       DOS:  cpu time    0.0005: real time    0.0005
    CHARGE:  cpu time    0.0209: real time    0.0210
    MIXING:  cpu time    0.0006: real time    0.0006
    --------------------------------------------
      LOOP:  cpu time    0.3756: real time    0.3765

 eigenvalue-minimisations  :  1600
 total energy-change (2. order) : 0.7481785E-02  (-0.6646633E-03)
 number of electron      18.0000001 magnetization 
 augmentation part       -3.6282414 magnetization 

 Broyden mixing:
  rms(total) = 0.29082E-01    rms(broyden)= 0.29082E-01
  rms(prec ) = 0.50448E-01
  weight for this iteration     100.00

 eigenvalues of (default mixing * dielectric matrix)
  average eigenvalue GAMMA=   1.2676
  0.8065  1.7288

 Free energy of the ion-electron system (eV)
  ---------------------------------------------------
  alpha Z        PSCENC =         2.33575741
  Ewald energy   TEWEN  =      -680.48113115
  -Hartree energ DENC   =       -40.70486122
  -exchange      EXHF   =         0.00000000
  -V(xc)+E(xc)   XCENC  =       -83.86521422
  PAW double counting   =      1590.14456155    -1474.80784572
  entropy T*S    EENTRO =        -0.00003263
  eigenvalues    EBANDS =         8.15310868
  atomic energy  EATOM  =       669.81430600
  Solvation  Ediel_sol  =         0.00000000
  ---------------------------------------------------
  free energy    TOTEN  =        -9.41135131 eV

  energy without entropy =       -9.41131868  energy(sigma->0) =       -9.41133500


--------------------------------------------------------------------------------------------------------




--------------------------------------- Iteration      7(   4)  ---------------------------------------


    POTLOK:  cpu time    0.0109: real time    0.0109
    SETDIJ:  cpu time    0.0021: real time    0.0021
     EDDAV:  cpu time    0.3267: real time    0.3274
       DOS:  cpu time    0.0004: real time    0.0004
    CHARGE:  cpu time    0.0207: real time    0.0207
    MIXING:  cpu time    0.0006: real time    0.0006
    --------------------------------------------
      LOOP:  cpu time    0.3614: real time    0.3622

 eigenvalue-minimisations  :  1536
 total energy-change (2. order) : 0.3639804E-02  (-0.7476684E-03)
 number of electron      18.0000001 magnetization 
 augmentation part       -3.6144186 magnetization 

 Broyden mixing:
  rms(total) = 0.46857E-01    rms(broyden)= 0.46857E-01
  rms(prec ) = 0.46934E-01
  weight for this iteration     100.00

 eigenvalues of (default mixing * dielectric matrix)
  average eigenvalue GAMMA=   1.5674
  1.1357  1.7832  1.7832

 Free energy of the ion-electron system (eV)
  ---------------------------------------------------
  alpha Z        PSCENC =         2.33575741
  Ewald energy   TEWEN  =      -680.48113115
  -Hartree energ DENC   =       -41.27768598
  -exchange      EXHF   =         0.00000000
  -V(xc)+E(xc)   XCENC  =       -83.89858682
  PAW double counting   =      1572.18361826    -1456.84447280
  entropy T*S    EENTRO =        -0.00003579
  eigenvalues    EBANDS =         8.76051935
  atomic energy  EATOM  =       669.81430600
  Solvation  Ediel_sol  =         0.00000000
  ---------------------------------------------------
  free energy    TOTEN  =        -9.40771151 eV

  energy without entropy =       -9.40767572  energy(sigma->0) =       -9.40769361


--------------------------------------------------------------------------------------------------------




--------------------------------------- Iteration      7(   5)  ---------------------------------------


    POTLOK:  cpu time    0.0109: real time    0.0109
    SETDIJ:  cpu time    0.0021: real time    0.0021
     EDDAV:  cpu time    0.4150: real time    0.4159
       DOS:  cpu time    0.0005: real time    0.0005
    CHARGE:  cpu time    0.0207: real time    0.0207
    MIXING:  cpu time    0.0007: real time    0.0007
    --------------------------------------------
      LOOP:  cpu time    0.4497: real time    0.4508

 eigenvalue-minimisations  :  2056
 total energy-change (2. order) :-0.8847361E-05  (-0.2863591E-04)
 number of electron      18.0000001 magnetization 
 augmentation part       -3.6128529 magnetization 

 Broyden mixing:
  rms(total) = 0.23995E-01    rms(broyden)= 0.23995E-01
  rms(prec ) = 0.24005E-01
  weight for this iteration     100.00

 eigenvalues of (default mixing * dielectric matrix)
  average eigenvalue GAMMA=   2.0000
  3.8682  2.1069  1.0124  1.0124

 Free energy of the ion-electron system (eV)
  ---------------------------------------------------
  alpha Z        PSCENC =         2.33575741
  Ewald energy   TEWEN  =      -680.48113115
  -Hartree energ DENC   =       -41.30560846
  -exchange      EXHF   =         0.00000000
  -V(xc)+E(xc)   XCENC  =       -83.90183229
  PAW double counting   =      1564.27518565    -1448.92469991
  entropy T*S    EENTRO =        -0.00003580
  eigenvalues    EBANDS =         8.78033820
  atomic energy  EATOM  =       669.81430600
  Solvation  Ediel_sol  =         0.00000000
  ---------------------------------------------------
  free energy    TOTEN  =        -9.40772035 eV

  energy without entropy =       -9.40768456  energy(sigma->0) =       -9.40770246


--------------------------------------------------------------------------------------------------------




--------------------------------------- Iteration      7(   6)  ---------------------------------------


    POTLOK:  cpu time    0.0109: real time    0.0109
    SETDIJ:  cpu time    0.0021: real time    0.0021
     EDDAV:  cpu time    0.3212: real time    0.3219
       DOS:  cpu time    0.0005: real time    0.0005
    CHARGE:  cpu time    0.0207: real time    0.0208
    MIXING:  cpu time    0.0007: real time    0.0007
    --------------------------------------------
      LOOP:  cpu time    0.3562: real time    0.3570

 eigenvalue-minimisations  :  1448
 total energy-change (2. order) :-0.1140548E-04  (-0.1655436E-05)
 number of electron      18.0000001 magnetization 
 augmentation part       -3.6126315 magnetization 

 Broyden mixing:
  rms(total) = 0.10118E-01    rms(broyden)= 0.10118E-01
  rms(prec ) = 0.10128E-01
  weight for this iteration     100.00

 eigenvalues of (default mixing * dielectric matrix)
  average eigenvalue GAMMA=   1.6263
  2.5570  2.1243  0.9934  1.2285  1.2285

 Free energy of the ion-electron system (eV)
  ---------------------------------------------------
  alpha Z        PSCENC =         2.33575741
  Ewald energy   TEWEN  =      -680.48113115
  -Hartree energ DENC   =       -41.30819631
  -exchange      EXHF   =         0.00000000
  -V(xc)+E(xc)   XCENC  =       -83.90167988
  PAW double counting   =      1555.01950221    -1439.65973716
  entropy T*S    EENTRO =        -0.00003554
  eigenvalues    EBANDS =         8.77348266
  atomic energy  EATOM  =       669.81430600
  Solvation  Ediel_sol  =         0.00000000
  ---------------------------------------------------
  free energy    TOTEN  =        -9.40773176 eV

  energy without entropy =       -9.40769622  energy(sigma->0) =       -9.40771399


--------------------------------------------------------------------------------------------------------




--------------------------------------- Iteration      7(   7)  ---------------------------------------


    POTLOK:  cpu time    0.0107: real time    0.0108
    SETDIJ:  cpu time    0.0022: real time    0.0022
     EDDAV:  cpu time    0.2272: real time    0.2277
       DOS:  cpu time    0.0005: real time    0.0005
    --------------------------------------------
      LOOP:  cpu time    0.2406: real time    0.2412

 eigenvalue-minimisations  :   816
 total energy-change (2. order) : 0.3662342E-05  (-0.2172774E-06)
 number of electron      18.0000001 magnetization 
 augmentation part       -3.6126315 magnetization 

 Free energy of the ion-electron system (eV)
  ---------------------------------------------------
  alpha Z        PSCENC =         2.33575741
  Ewald energy   TEWEN  =      -680.48113115
  -Hartree energ DENC   =       -41.30748630
  -exchange      EXHF   =         0.00000000
  -V(xc)+E(xc)   XCENC  =       -83.90124890
  PAW double counting   =      1557.21764828    -1441.86153148
  entropy T*S    EENTRO =        -0.00003553
  eigenvalues    EBANDS =         8.77599358
  atomic energy  EATOM  =       669.81430600
  Solvation  Ediel_sol  =         0.00000000
  ---------------------------------------------------
  free energy    TOTEN  =        -9.40772810 eV

  energy without entropy =       -9.40769256  energy(sigma->0) =       -9.40771033


--------------------------------------------------------------------------------------------------------




 average (electrostatic) potential at core
  the test charge radii are     1.1897
  (the norm of the test charge is              1.0000)
       1 -88.8394       2 -88.8394       3 -88.8394
 
 
 
 E-fermi :   6.2952     XC(G=0):  -9.1572     alpha+bet :-10.7456


 k-point     1 :       0.0000    0.0000    0.0000
  band No.  band energies     occupation 
      1      -7.5016      2.00000
      2      -4.1681      2.00000
      3      -4.1681      2.00000
      4       3.1137      2.00000
      5       3.4741      2.00000
      6       3.4741      2.00000
      7       4.4336      2.00000
      8       4.4336      2.00000
      9       5.1657      2.00000
     10       7.1774      0.00000
     11       7.1774      0.00000
     12       7.7321      0.00000
     13      11.1454      0.00000
     14      11.1454      0.00000
     15      12.3637      0.00000
     16      12.3637      0.00000

 k-point     2 :       0.1111    0.0000    0.0000
  band No.  band energies     occupation 
      1      -7.4130      2.00000
      2      -4.1923      2.00000
      3      -4.1451      2.00000
      4       2.4552      2.00000
      5       2.9997      2.00000
      6       3.2116      2.00000
      7       4.7674      2.00000
      8       5.0195      2.00000
      9       5.4989      2.00000
     10       6.8406      0.00000
     11       7.0919      0.00000
     12       7.5754      0.00000
     13      10.8270      0.00000
     14      11.0966      0.00000
     15      12.2138      0.00000
     16      12.4826      0.00000

 k-point     3 :       0.2222    0.0000    0.0000
  band No.  band energies     occupation 
      1      -7.1572      2.00000
      2      -4.3124      2.00000
      3      -4.0810      2.00000
      4       1.6382      2.00000
      5       2.3888      2.00000
      6       2.7964      2.00000
      7       4.9033      2.00000
      8       5.2061      2.00000
      9       5.3431      2.00000
     10       6.9510      0.00000
     11       7.1590      0.00000
     12       7.7194      0.00000
     13      10.0110      0.00000
     14      11.3208      0.00000
     15      12.4211      0.00000
     16      13.1623      0.00000

 k-point     4 :       0.3333   -0.0000    0.0000
  band No.  band energies     occupation 
      1      -6.7761      2.00000
      2      -4.5961      2.00000
      3      -3.9986      2.00000
      4       1.2735      2.00000
      5       1.9156      2.00000
      6       2.4669      2.00000
      7       3.7524      2.00000
      8       5.3185      2.00000
      9       5.3866      2.00000
     10       6.9006      0.00000
     11       7.0602      0.00000
     12       8.9243      0.00000
     13       9.3388      0.00000
     14      12.1195      0.00000
     15      13.1912      0.00000
     16      14.1495      0.00000

 k-point     5 :       0.4444    0.0000    0.0000
  band No.  band energies     occupation 
      1      -6.4059      2.00000
      2      -4.9394      2.00000
      3      -3.9394      2.00000
      4       1.2884      2.00000
      5       1.7178      2.00000
      6       2.3603      2.00000
      7       2.7839      2.00000
      8       5.2633      2.00000
      9       5.4106      2.00000
     10       6.9012      0.00000
     11       6.9495      0.00000
     12       8.9820      0.00000
     13       9.8100      0.00000
     14      13.2976      0.00000
     15      14.4411      0.00000
     16      15.0269      0.00000

 k-point     6 :       0.1111    0.1111    0.0000
  band No.  band energies     occupation 
      1      -7.2405      2.00000
      2      -4.2461      2.00000
      3      -4.1214      2.00000
      4       1.9093      2.00000
      5       2.2339      2.00000
      6       3.3036      2.00000
      7       4.4998      2.00000
      8       5.4587      2.00000
      9       5.4674      2.00000
     10       6.8222      0.00000
     11       7.1510      0.00000
     12       7.6693      0.00000
     13      10.5887      0.00000
     14      10.6534      0.00000
     15      12.5512      0.00000
     16      12.8999      0.00000

 k-point     7 :       0.2222    0.1111    0.0000
  band No.  band energies     occupation 
      1      -6.9190      2.00000
      2      -4.4195      2.00000
      3      -4.0902      2.00000
      4       1.4212      2.00000
      5       1.7924      2.00000
      6       2.9604      2.00000
      7       4.3103      2.00000
      8       4.6218      2.00000
      9       5.1577      2.00000
     10       7.2915      0.00000
     11       7.6854      0.00000
     12       8.2108      0.00000
     13       9.9372      0.00000
     14      10.9707      0.00000
     15      13.1712      0.00000
     16      13.6026      0.00000

 k-point     8 :       0.3333    0.1111    0.0000
  band No.  band energies     occupation 
      1      -6.5236      2.00000
      2      -4.7418      2.00000
      3      -4.0537      2.00000
      4       1.3130      2.00000
      5       1.6582      2.00000
      6       2.5502      2.00000
      7       3.2784      2.00000
      8       4.6108      2.00000
      9       4.8743      2.00000
     10       7.4550      0.00000
     11       7.6866      0.00000
     12       9.3357      0.00000
     13       9.4974      0.00000
     14      11.9366      0.00000
     15      14.1553      0.00000
     16      14.5454      0.00000

 k-point     9 :       0.4444    0.1111    0.0000
  band No.  band energies     occupation 
      1      -6.2962      2.00000
      2      -4.9556      2.00000
      3      -4.0373      2.00000
      4       1.3751      2.00000
      5       1.6981      2.00000
      6       2.5228      2.00000
      7       2.5901      2.00000
      8       4.6834      2.00000
      9       4.7128      2.00000
     10       7.4814      0.00000
     11       7.6774      0.00000
     12       9.3361      0.00000
     13       9.8460      0.00000
     14      13.0016      0.00000
     15      13.8681      0.00000
     16      15.1405      0.00000

 k-point    10 :       0.2222    0.2222    0.0000
  band No.  band energies     occupation 
      1      -6.5719      2.00000
      2      -4.5657      2.00000
      3      -4.2036      2.00000
      4       1.4199      2.00000
      5       1.4971      2.00000
      6       2.9358      2.00000
      7       3.7604      2.00000
      8       4.1091      2.00000
      9       4.1309      2.00000
     10       8.1928      0.00000
     11       8.4426      0.00000
     12       8.5797      0.00000
     13      10.3695      0.00000
     14      10.6859      0.00000
     15      13.4477      0.00000
     16      14.7883      0.00000

 k-point    11 :       0.3333    0.2222    0.0000
  band No.  band energies     occupation 
      1      -6.2520      2.00000
      2      -4.7680      2.00000
      3      -4.2982      2.00000
      4       1.5240      2.00000
      5       1.6416      2.00000
      6       2.6988      2.00000
      7       3.0225      2.00000
      8       3.7658      2.00000
      9       3.8418      2.00000
     10       8.4213      0.00000
     11       8.6800      0.00000
     12       9.4328      0.00000
     13      10.2868      0.00000
     14      11.6493      0.00000
     15      13.2935      0.00000
     16      14.3807      0.00000

 k-point    12 :       0.3333    0.3333    0.0000
  band No.  band energies     occupation 
      1      -6.1263      2.00000
      2      -4.6020      2.00000
      3      -4.6020      2.00000
      4       1.7052      2.00000
      5       1.7052      2.00000
      6       3.0001      2.00000
      7       3.0001      2.00000
      8       3.1310      2.00000
      9       3.3001      2.00000
     10       9.0937      0.00000
     11       9.0937      0.00000
     12       9.3265      0.00000
     13      11.0079      0.00000
     14      11.8716      0.00000
     15      11.8716      0.00000
     16      14.7757      0.00000

 k-point    13 :       0.0000    0.0000    0.2500
  band No.  band energies     occupation 
      1      -7.2741      2.00000
      2      -5.5337      2.00000
      3      -2.7670      2.00000
      4       2.7796      2.00000
      5       3.2286      2.00000
      6       3.6369      2.00000
      7       4.6386      2.00000
      8       4.7484      2.00000
      9       5.2018      2.00000
     10       6.7679      0.00000
     11       6.8450      0.00000
     12       7.1826      0.00000
     13      10.4681      0.00000
     14      11.5462      0.00000
     15      11.8863      0.00000
     16      12.3608      0.00000

 k-point    14 :       0.1111    0.0000    0.2500
  band No.  band energies     occupation 
      1      -7.1891      2.00000
      2      -5.4785      2.00000
      3      -2.8814      2.00000
      4       2.4431      2.00000
      5       3.0999      2.00000
      6       3.5320      2.00000
      7       4.3151      2.00000
      8       4.8062      2.00000
      9       4.8831      2.00000
     10       7.0139      0.00000
     11       7.2442      0.00000
     12       7.6076      0.00000
     13      10.5507      0.00000
     14      11.5528      0.00000
     15      11.8256      0.00000
     16      12.0972      0.00000

 k-point    15 :       0.2222    0.0000    0.2500
  band No.  band energies     occupation 
      1      -6.9490      2.00000
      2      -5.3175      2.00000
      3      -3.2471      2.00000
      4       2.0850      2.00000
      5       2.6965      2.00000
      6       3.1971      2.00000
      7       3.6763      2.00000
      8       4.2998      2.00000
      9       4.7417      2.00000
     10       7.5585      0.00000
     11       8.0200      0.00000
     12       8.4179      0.00000
     13      10.8688      0.00000
     14      11.2972      0.00000
     15      11.8692      0.00000
     16      12.3002      0.00000

 k-point    16 :       0.3333   -0.0000    0.2500
  band No.  band energies     occupation 
      1      -6.6019      2.00000
      2      -5.1093      2.00000
      3      -3.7609      2.00000
      4       1.7428      2.00000
      5       2.1178      2.00000
      6       2.8099      2.00000
      7       3.2055      2.00000
      8       4.3210      2.00000
      9       4.6657      2.00000
     10       7.6059      0.00000
     11       8.1813      0.00000
     12       9.3340      0.00000
     13      10.3693      0.00000
     14      11.8117      0.00000
     15      12.4643      0.00000
     16      13.1419      0.00000

 k-point    17 :       0.4444    0.0000    0.2500
  band No.  band energies     occupation 
      1      -6.2676      2.00000
      2      -5.0849      2.00000
      3      -4.0380      2.00000
      4       1.0726      2.00000
      5       1.8164      2.00000
      6       2.5228      2.00000
      7       3.6769      2.00000
      8       4.3683      2.00000
      9       4.6250      2.00000
     10       7.4663      0.00000
     11       8.1322      0.00000
     12       9.1747      0.00000
     13       9.8762      0.00000
     14      12.3336      0.00000
     15      13.9049      0.00000
     16      14.3496      0.00000

 k-point    18 :      -0.4444   -0.0000    0.2500
  band No.  band energies     occupation 
      1      -6.2238      2.00000
      2      -5.2631      2.00000
      3      -3.8201      2.00000
      4       0.7048      2.00000
      5       1.7048      2.00000
      6       2.4841      2.00000
      7       4.4387      2.00000
      8       4.5074      2.00000
      9       4.7739      2.00000
     10       7.2986      0.00000
     11       7.9354      0.00000
     12       8.3668      0.00000
     13       9.5646      0.00000
     14      12.9391      0.00000
     15      14.2244      0.00000
     16      14.8460      0.00000

 k-point    19 :      -0.3333    0.0000    0.2500
  band No.  band energies     occupation 
      1      -6.5620      2.00000
      2      -5.3075      2.00000
      3      -3.4424      2.00000
      4       0.9019      2.00000
      5       1.7906      2.00000
      6       2.6361      2.00000
      7       4.7150      2.00000
      8       4.7957      2.00000
      9       5.6411      2.00000
     10       6.9854      0.00000
     11       7.4527      0.00000
     12       7.6757      0.00000
     13       9.4688      0.00000
     14      12.9131      0.00000
     15      13.3986      0.00000
     16      14.0596      0.00000

 k-point    20 :      -0.2222   -0.0000    0.2500
  band No.  band energies     occupation 
      1      -6.9363      2.00000
      2      -5.3845      2.00000
      3      -3.0960      2.00000
      4       1.6483      2.00000
      5       2.0873      2.00000
      6       2.9410      2.00000
      7       4.9811      2.00000
      8       5.1066      2.00000
      9       5.7325      2.00000
     10       6.7233      0.00000
     11       7.1187      0.00000
     12       7.3620      0.00000
     13       9.6978      0.00000
     14      12.3097      0.00000
     15      12.4902      0.00000
     16      12.9469      0.00000

 k-point    21 :      -0.1111   -0.0000    0.2500
  band No.  band energies     occupation 
      1      -7.1876      2.00000
      2      -5.4868      2.00000
      3      -2.8576      2.00000
      4       2.4828      2.00000
      5       2.7322      2.00000
      6       3.3534      2.00000
      7       4.7931      2.00000
      8       5.0819      2.00000
      9       5.3091      2.00000
     10       6.6558      0.00000
     11       6.7062      0.00000
     12       7.6357      0.00000
     13      10.2263      0.00000
     14      11.6288      0.00000
     15      11.9939      0.00000
     16      12.4400      0.00000

 k-point    22 :       0.1111    0.1111    0.2500
  band No.  band energies     occupation 
      1      -7.0224      2.00000
      2      -5.3910      2.00000
      3      -3.0731      2.00000
      4       2.0753      2.00000
      5       2.3648      2.00000
      6       3.2167      2.00000
      7       4.2773      2.00000
      8       4.8349      2.00000
      9       5.2345      2.00000
     10       7.0608      0.00000
     11       7.5872      0.00000
     12       7.7349      0.00000
     13      10.2505      0.00000
     14      11.6939      0.00000
     15      12.0206      0.00000
     16      12.4230      0.00000

 k-point    23 :       0.2222    0.1111    0.2500
  band No.  band energies     occupation 
      1      -6.7236      2.00000
      2      -5.2106      2.00000
      3      -3.5194      2.00000
      4       1.6918      2.00000
      5       2.1373      2.00000
      6       3.0211      2.00000
      7       3.2812      2.00000
      8       4.3435      2.00000
      9       5.3979      2.00000
     10       7.2624      0.00000
     11       7.9348      0.00000
     12       8.9184      0.00000
     13      10.6705      0.00000
     14      11.0999      0.00000
     15      12.3371      0.00000
     16      13.1797      0.00000

 k-point    24 :       0.3333    0.1111    0.2500
  band No.  band energies     occupation 
      1      -6.3681      2.00000
      2      -5.0575      2.00000
      3      -3.9785      2.00000
      4       1.3751      2.00000
      5       1.6347      2.00000
      6       2.7195      2.00000
      7       3.3344      2.00000
      8       3.9736      2.00000
      9       5.4675      2.00000
     10       7.1169      0.00000
     11       8.3275      0.00000
     12       9.3330      0.00000
     13      10.2421      0.00000
     14      11.8769      0.00000
     15      12.8590      0.00000
     16      13.8569      0.00000

 k-point    25 :       0.4444    0.1111    0.2500
  band No.  band energies     occupation 
      1      -6.1457      2.00000
      2      -5.1595      2.00000
      3      -4.0248      2.00000
      4       0.8734      2.00000
      5       1.5243      2.00000
      6       2.6161      2.00000
      7       3.5384      2.00000
      8       4.2140      2.00000
      9       5.5089      2.00000
     10       6.9838      0.00000
     11       8.3998      0.00000
     12       8.7837      0.00000
     13       9.9655      0.00000
     14      12.7018      0.00000
     15      13.8178      0.00000
     16      14.0788      0.00000

 k-point    26 :      -0.4444    0.1111    0.2500
  band No.  band energies     occupation 
      1      -6.3266      2.00000
      2      -5.2472      2.00000
      3      -3.7277      2.00000
      4       0.7708      2.00000
      5       1.6891      2.00000
      6       2.6076      2.00000
      7       3.5913      2.00000
      8       5.0883      2.00000
      9       5.5664      2.00000
     10       6.8677      0.00000
     11       7.7898      0.00000
     12       8.3866      0.00000
     13       9.8464      0.00000
     14      12.5398      0.00000
     15      13.4228      0.00000
     16      14.4198      0.00000

 k-point    27 :      -0.3333    0.1111    0.2500
  band No.  band energies     occupation 
      1      -6.7080      2.00000
      2      -5.2908      2.00000
      3      -3.3737      2.00000
      4       1.2448      2.00000
      5       1.9626      2.00000
      6       2.8084      2.00000
      7       3.8422      2.00000
      8       5.2823      2.00000
      9       5.9298      2.00000
     10       6.6850      0.00000
     11       7.2786      0.00000
     12       8.1781      0.00000
     13       9.8928      0.00000
     14      11.8722      0.00000
     15      12.7796      0.00000
     16      13.6167      0.00000

 k-point    28 :       0.2222    0.2222    0.2500
  band No.  band energies     occupation 
      1      -6.3895      2.00000
      2      -5.1452      2.00000
      3      -3.8171      2.00000
      4       1.0497      2.00000
      5       1.8188      2.00000
      6       2.5831      2.00000
      7       3.1230      2.00000
      8       4.7696      2.00000
      9       5.7712      2.00000
     10       7.0213      0.00000
     11       7.8064      0.00000
     12       9.0463      0.00000
     13      10.6029      0.00000
     14      11.1789      0.00000
     15      13.1304      0.00000
     16      14.0485      0.00000

 k-point    29 :       0.3333    0.2222    0.2500
  band No.  band energies     occupation 
      1      -6.1026      2.00000
      2      -5.0720      2.00000
      3      -4.1456      2.00000
      4       1.0437      2.00000
      5       1.3784      2.00000
      6       2.2333      2.00000
      7       3.4543      2.00000
      8       4.3189      2.00000
      9       5.5273      2.00000
     10       7.2665      0.00000
     11       8.4615      0.00000
     12       9.0292      0.00000
     13      10.6438      0.00000
     14      11.7739      0.00000
     15      13.4525      0.00000
     16      13.6603      0.00000

 k-point    30 :       0.4444    0.2222    0.2500
  band No.  band energies     occupation 
      1      -6.0885      2.00000
      2      -5.1312      2.00000
      3      -4.0811      2.00000
      4       0.8717      2.00000
      5       1.4723      2.00000
      6       2.2517      2.00000
      7       3.3634      2.00000
      8       4.7123      2.00000
      9       5.3364      2.00000
     10       7.4383      0.00000
     11       8.1615      0.00000
     12       8.9093      0.00000
     13      10.5515      0.00000
     14      12.0266      0.00000
     15      13.2245      0.00000
     16      14.2016      0.00000

 k-point    31 :       0.3333    0.3333    0.2500
  band No.  band energies     occupation 
      1      -5.9771      2.00000
      2      -5.0716      2.00000
      3      -4.2440      2.00000
      4       0.9974      2.00000
      5       1.3740      2.00000
      6       1.8272      2.00000
      7       3.6863      2.00000
      8       4.5904      2.00000
      9       4.9635      2.00000
     10       8.0258      0.00000
     11       8.4973      0.00000
     12       8.5869      0.00000
     13      11.4538      0.00000
     14      11.7396      0.00000
     15      12.1861      0.00000
     16      14.4955      0.00000

 k-point    32 :       0.0000    0.0000    0.5000
  band No.  band energies     occupation 
      1      -6.6036      2.00000
      2      -6.6036      2.00000
      3      -2.0472      2.00000
      4       2.2859      2.00000
      5       3.4712      2.00000
      6       3.4712      2.00000
      7       4.8509      2.00000
      8       5.1843      2.00000
      9       5.1843      2.00000
     10       6.5169      0.00000
     11       6.5169      0.00000
     12       6.5337      0.00000
     13      10.1250      0.00000
     14      11.2894      0.00000
     15      11.2894      0.00000
     16      13.2193      0.00000

 k-point    33 :       0.1111    0.0000    0.5000
  band No.  band energies     occupation 
      1      -6.5363      2.00000
      2      -6.5205      2.00000
      3      -2.2415      2.00000
      4       2.2505      2.00000
      5       3.2961      2.00000
      6       3.4084      2.00000
      7       4.2601      2.00000
      8       4.7014      2.00000
      9       4.9363      2.00000
     10       6.8078      0.00000
     11       7.0160      0.00000
     12       7.4996      0.00000
     13      10.3562      0.00000
     14      11.0101      0.00000
     15      11.6100      0.00000
     16      13.3387      0.00000

 k-point    34 :       0.2222    0.0000    0.5000
  band No.  band energies     occupation 
      1      -6.3542      2.00000
      2      -6.2794      2.00000
      3      -2.7434      2.00000
      4       1.8691      2.00000
      5       2.7129      2.00000
      6       3.1301      2.00000
      7       4.0629      2.00000
      8       4.2397      2.00000
      9       4.6810      2.00000
     10       7.3684      0.00000
     11       7.8091      0.00000
     12       8.3531      0.00000
     13      10.4880      0.00000
     14      11.3402      0.00000
     15      12.2572      0.00000
     16      12.8409      0.00000

 k-point    35 :       0.3333   -0.0000    0.5000
  band No.  band energies     occupation 
      1      -6.1217      2.00000
      2      -5.9161      2.00000
      3      -3.3753      2.00000
      4       1.0197      2.00000
      5       2.5109      2.00000
      6       2.8293      2.00000
      7       3.7960      2.00000
      8       4.0550      2.00000
      9       5.0527      2.00000
     10       7.7206      0.00000
     11       8.1315      0.00000
     12       8.4473      0.00000
     13      10.5257      0.00000
     14      11.6880      0.00000
     15      12.9751      0.00000
     16      13.2982      0.00000

 k-point    36 :       0.4444    0.0000    0.5000
  band No.  band energies     occupation 
      1      -5.9504      2.00000
      2      -5.5582      2.00000
      3      -3.8960      2.00000
      4       0.4550      2.00000
      5       2.4967      2.00000
      6       2.6047      2.00000
      7       3.6127      2.00000
      8       3.9284      2.00000
      9       5.7931      2.00000
     10       7.0912      0.00000
     11       8.1603      0.00000
     12       8.7258      0.00000
     13      10.6490      0.00000
     14      11.3394      0.00000
     15      14.0502      0.00000
     16      14.3105      0.00000

 k-point    37 :       0.1111    0.1111    0.5000
  band No.  band energies     occupation 
      1      -6.4072      2.00000
      2      -6.3624      2.00000
      3      -2.5860      2.00000
      4       2.0762      2.00000
      5       2.9197      2.00000
      6       3.0194      2.00000
      7       3.9998      2.00000
      8       4.1971      2.00000
      9       5.2593      2.00000
     10       6.6721      0.00000
     11       8.0179      0.00000
     12       8.1138      0.00000
     13      10.7696      0.00000
     14      10.7729      0.00000
     15      12.2290      0.00000
     16      12.9289      0.00000

 k-point    38 :       0.2222    0.1111    0.5000
  band No.  band energies     occupation 
      1      -6.1867      2.00000
      2      -6.0690      2.00000
      3      -3.1392      2.00000
      4       1.4682      2.00000
      5       2.3125      2.00000
      6       2.5246      2.00000
      7       4.0224      2.00000
      8       4.4652      2.00000
      9       5.1902      2.00000
     10       7.1032      0.00000
     11       8.3073      0.00000
     12       8.4369      0.00000
     13      10.6154      0.00000
     14      11.5128      0.00000
     15      12.5368      0.00000
     16      13.2491      0.00000

 k-point    39 :       0.3333    0.1111    0.5000
  band No.  band energies     occupation 
      1      -5.9672      2.00000
      2      -5.7039      2.00000
      3      -3.7114      2.00000
      4       0.7396      2.00000
      5       2.0395      2.00000
      6       2.2037      2.00000
      7       4.1372      2.00000
      8       4.5804      2.00000
      9       5.4708      2.00000
     10       7.4226      0.00000
     11       7.8592      0.00000
     12       8.4991      0.00000
     13      10.6867      0.00000
     14      11.6891      0.00000
     15      12.9328      0.00000
     16      14.0483      0.00000

 k-point    40 :       0.4444    0.1111    0.5000
  band No.  band energies     occupation 
      1      -5.8720      2.00000
      2      -5.4925      2.00000
      3      -4.0002      2.00000
      4       0.4495      2.00000
      5       1.9695      2.00000
      6       2.0771      2.00000
      7       4.2931      2.00000
      8       4.3868      2.00000
      9       6.0494      2.00000
     10       6.8651      0.00000
     11       7.9778      0.00000
     12       8.4713      0.00000
     13      10.8269      0.00000
     14      11.3757      0.00000
     15      14.2013      0.00000
     16      14.3822      0.00000

 k-point    41 :       0.2222    0.2222    0.5000
  band No.  band energies     occupation 
      1      -5.9469      2.00000
      2      -5.7925      2.00000
      3      -3.6183      2.00000
      4       1.1071      2.00000
      5       1.5489      2.00000
      6       1.9158      2.00000
      7       4.5518      2.00000
      8       4.9100      2.00000
      9       5.6904      2.00000
     10       6.9328      0.00000
     11       8.1179      0.00000
     12       8.1555      0.00000
     13      10.9480      0.00000
     14      11.8146      0.00000
     15      12.6501      0.00000
     16      12.8861      0.00000

 k-point    42 :       0.3333    0.2222    0.5000
  band No.  band energies     occupation 
      1      -5.7586      2.00000
      2      -5.5518      2.00000
      3      -3.9901      2.00000
      4       0.7224      2.00000
      5       1.3129      2.00000
      6       1.5091      2.00000
      7       4.9571      2.00000
      8       5.3516      2.00000
      9       5.9581      2.00000
     10       6.9617      0.00000
     11       7.5221      0.00000
     12       7.8786      0.00000
     13      11.3294      0.00000
     14      11.9862      0.00000
     15      12.9409      0.00000
     16      13.3052      0.00000

 k-point    43 :       0.3333    0.3333    0.5000
  band No.  band energies     occupation 
      1      -5.5794      2.00000
      2      -5.5794      2.00000
      3      -4.0945      2.00000
      4       0.9394      2.00000
      5       1.0305      2.00000
      6       1.0305      2.00000
      7       5.3154      2.00000
      8       6.2096      1.98454
      9       6.2096      1.98454
     10       6.3715      0.03092
     11       7.3571      0.00000
     12       7.3571      0.00000
     13      12.1087      0.00000
     14      12.5985      0.00000
     15      12.5985      0.00000
     16      13.2323      0.00000


--------------------------------------------------------------------------------------------------------


 soft charge-density along one line, spin component           1
         0         1         2         3         4         5         6         7         8         9
 total charge-density along one line
 
 pseudopotential strength for first ion, spin component:           1
 51.569  56.109  -0.000  -0.000  -0.046  -0.000  -0.000  -0.067
 56.109  61.051  -0.000  -0.000  -0.050  -0.000  -0.000  -0.073
 -0.000  -0.000  12.700   0.009   0.000  18.306   0.013   0.000
 -0.000  -0.000   0.009  12.715   0.000   0.013  18.327   0.000
 -0.046  -0.050   0.000   0.000  12.715   0.000   0.000  18.327
 -0.000  -0.000  18.306   0.013   0.000  26.397   0.019   0.000
 -0.000  -0.000   0.013  18.327   0.000   0.019  26.427   0.000
 -0.067  -0.073   0.000   0.000  18.327   0.000   0.000  26.427
  0.000   0.000  -0.009   0.000  -0.000  -0.013   0.000  -0.000
  0.014   0.015   0.000  -0.000   0.000   0.000  -0.000   0.000
  0.006   0.007   0.000  -0.000   0.005   0.000  -0.000   0.008
  0.000   0.000   0.000  -0.008  -0.000   0.000  -0.012  -0.000
  0.011   0.012   0.000  -0.000  -0.009   0.000  -0.000  -0.013
 total augmentation occupancy for first ion, spin component:           1
 13.842 -10.190   0.000  -0.000   1.989   0.000  -0.000  -0.508   0.000  -0.163  -0.094   0.000  -0.121
-10.190   8.772   0.000  -0.000  -1.671   0.000  -0.000   0.435   0.000   0.147   0.084  -0.000   0.108
  0.000   0.000   2.580   0.202   0.000  -0.518  -0.178   0.000  -0.050   0.000   0.000  -0.048   0.000
 -0.000   0.000   0.202   2.905  -0.000  -0.178  -0.804   0.000  -0.046   0.000   0.000  -0.112  -0.000
  1.989  -1.671   0.000  -0.000   2.816   0.000   0.000  -0.755   0.000  -0.052  -0.013   0.000  -0.050
  0.000   0.000  -0.518  -0.178   0.000   0.190   0.066   0.000   0.012   0.000   0.000   0.017  -0.000
 -0.000  -0.000  -0.178  -0.804   0.000   0.066   0.294  -0.000   0.017  -0.000   0.000   0.033  -0.000
 -0.508   0.435   0.000   0.000  -0.755   0.000  -0.000   0.268   0.000   0.015   0.003   0.000   0.012
 -0.000   0.000  -0.050  -0.046   0.000   0.012   0.017   0.000   0.010   0.000   0.000   0.011   0.000
 -0.163   0.147   0.000   0.000  -0.052   0.000   0.000   0.015   0.000   0.015   0.004   0.000   0.005
 -0.094   0.084   0.000   0.000  -0.013   0.000   0.000   0.003   0.000   0.004   0.007   0.000  -0.001
  0.000   0.000  -0.048  -0.112   0.000   0.017   0.033   0.000   0.011   0.000   0.000   0.027   0.000
 -0.121   0.108   0.000  -0.000  -0.050  -0.000   0.000   0.012   0.000   0.005  -0.001   0.000   0.010


------------------------ aborting loop because EDIFF is reached ----------------------------------------


    CHARGE:  cpu time    0.0205: real time    0.0206
    FORLOC:  cpu time    0.0008: real time    0.0008
    FORNL :  cpu time    0.0751: real time    0.0753
    STRESS:  cpu time    0.2259: real time    0.2264
    FORCOR:  cpu time    0.0128: real time    0.0130
    FORHAR:  cpu time    0.0030: real time    0.0030
    MIXING:  cpu time    0.0007: real time    0.0007
    OFIELD:  cpu time    0.0000: real time    0.0000

 ---------------------------------------------------------------------------------------------

         DFTD3 V3.0 Rev 1        
 Edisp (eV)   -0.80831

 E6    (eV) :    -0.3085
 E8    (eV) :    -0.4998
 % E8        : 61.83
    FORVDW:  cpu time    0.0101: real time    0.0107

  FORCE on cell =-STRESS in cart. coord.  units (eV):
  Direction    XX          YY          ZZ          XY          YZ          ZX
  --------------------------------------------------------------------------------------
  Alpha Z     2.33576     2.33576     2.33576
  Ewald    -237.83819  -237.83818  -204.80536    -0.00000    -0.00000     0.00000
  Hartree    11.02916    11.02916    19.25044     0.00000     0.00000    -0.00000
  E(xc)     -70.43370   -70.43371   -70.00330    -0.00000     0.00000    -0.00000
  Local    -111.30293  -111.30298  -144.42293    -0.00004     0.00000    -0.00000
  n-local   332.20932   333.06625   328.76738    -1.25091    -0.68319    -1.17875
  augment   -81.06918   -81.06914   -79.07149     0.00004    -0.00000     0.00000
  Kinetic   151.90752   159.03096   149.14596    -7.79707     0.21669     1.79454
  Fock        0.00000     0.00000     0.00000     0.00000     0.00000     0.00000
  vdW        -0.75597    -0.75597    -0.88932     0.00000    -0.00000    -0.00000
  -------------------------------------------------------------------------------------
  Total       0.07197     0.07197     0.30712     0.00000     0.00000     0.00000
  in kB       1.15218     1.15218     4.91690     0.00000     0.00000     0.00000
  external pressure =        2.41 kB  Pullay stress =        0.00 kB


 VOLUME and BASIS-vectors are now :
 -----------------------------------------------------------------------------
  energy-cutoff  :      520.00
  volume of cell :      100.08
      direct lattice vectors                 reciprocal lattice vectors
     4.427963402  0.000000000 -0.000000000     0.225837458  0.130387317  0.000000000
    -2.213981701  3.834728793  0.000000000     0.000000000  0.260774635  0.000000000
    -0.000000000  0.000000000  5.893728046     0.000000000 -0.000000000  0.169671894

  length of vectors
     4.427963402  4.427963402  5.893728046     0.260774635  0.260774635  0.169671894


 FORCES acting on ions
    electron-ion (+dipol)            ewald-force                    non-local-force                 convergence-correction
 -----------------------------------------------------------------------------------------------
   -.102E+02 0.111E-04 -.968E-06   0.149E+02 0.162E-05 0.147E-05   -.465E+01 0.278E-16 -.555E-16   0.116E-03 0.136E-07 -.207E-09
   0.512E+01 -.887E+01 -.183E-04   -.747E+01 0.129E+02 -.811E-05   0.232E+01 -.402E+01 0.555E-16   -.580E-04 0.100E-03 -.100E-08
   0.512E+01 0.887E+01 0.190E-04   -.747E+01 -.129E+02 0.664E-05   0.232E+01 0.402E+01 0.000E+00   -.580E-04 -.100E-03 0.123E-08
 -----------------------------------------------------------------------------------------------
   0.257E-04 -.834E-05 -.309E-06   0.000E+00 0.000E+00 0.000E+00   0.444E-15 0.888E-15 0.000E+00   -.883E-09 -.332E-08 0.199E-10
 
 
 POSITION                                       TOTAL-FORCE (eV/Angst)
 -----------------------------------------------------------------------------------
      1.22444      0.00000      1.96458         0.039893      0.000000     -0.000000
     -0.61222      1.06040      3.92915        -0.019946      0.034548      0.000000
      1.60176      2.77433      0.00000        -0.019946     -0.034548     -0.000000
 -----------------------------------------------------------------------------------
    total drift:                                0.000026     -0.000008     -0.000000


--------------------------------------------------------------------------------------------------------



  FREE ENERGIE OF THE ION-ELECTRON SYSTEM (eV)
  ---------------------------------------------------
  free  energy   TOTEN  =       -10.21603741 eV

  energy  without entropy=      -10.21600188  energy(sigma->0) =      -10.21601965
 
 d Force =-0.9609514E-03[-0.447E-02, 0.255E-02]  d Energy = 0.8853221E-02-0.981E-02
 d Force =-0.1544452E+01[-0.167E+01,-0.141E+01]  d Ewald  =-0.7621292E+01 0.608E+01


--------------------------------------------------------------------------------------------------------


    POTLOK:  cpu time    0.0191: real time    0.0192


--------------------------------------------------------------------------------------------------------




--------------------------------------------------------------------------------------------------------


    WAVPRE:  cpu time    0.0025: real time    0.0046
    FEWALD:  cpu time    0.0002: real time    0.0002
    GENKIN:  cpu time    0.0072: real time    0.0072
    ORTHCH:  cpu time    0.0212: real time    0.0213
     LOOP+:  cpu time    2.9467: real time    2.9608


--------------------------------------- Iteration      8(   1)  ---------------------------------------


    POTLOK:  cpu time    0.0120: real time    0.0134
    SETDIJ:  cpu time    0.0022: real time    0.0022
     EDDAV:  cpu time    0.3043: real time    0.3050
       DOS:  cpu time    0.0005: real time    0.0005
    CHARGE:  cpu time    0.0213: real time    0.0214
    MIXING:  cpu time    0.0006: real time    0.0006
    --------------------------------------------
      LOOP:  cpu time    0.3409: real time    0.3431

 eigenvalue-minimisations  :  1384
 total energy-change (2. order) :-0.6028900E-02  (-0.2945959E-01)
 number of electron      17.9999998 magnetization 
 augmentation part       -3.6111247 magnetization 

 Broyden mixing:
  rms(total) = 0.54413E-01    rms(broyden)= 0.54412E-01
  rms(prec ) = 0.59881E-01
  weight for this iteration     100.00

 Free energy of the ion-electron system (eV)
  ---------------------------------------------------
  alpha Z        PSCENC =         2.31960954
  Ewald energy   TEWEN  =      -679.59975537
  -Hartree energ DENC   =       -40.80748564
  -exchange      EXHF   =         0.00000000
  -V(xc)+E(xc)   XCENC  =       -83.95142971
  PAW double counting   =      1556.11802223    -1440.76197206
  entropy T*S    EENTRO =        -0.00007729
  eigenvalues    EBANDS =         7.45502163
  atomic energy  EATOM  =       669.81430600
  Solvation  Ediel_sol  =         0.00000000
  ---------------------------------------------------
  free energy    TOTEN  =        -9.41376066 eV

  energy without entropy =       -9.41368337  energy(sigma->0) =       -9.41372201


--------------------------------------------------------------------------------------------------------




--------------------------------------- Iteration      8(   2)  ---------------------------------------


    POTLOK:  cpu time    0.0109: real time    0.0109
    SETDIJ:  cpu time    0.0023: real time    0.0024
     EDDAV:  cpu time    0.3598: real time    0.3606
       DOS:  cpu time    0.0005: real time    0.0005
    CHARGE:  cpu time    0.0207: real time    0.0208
    MIXING:  cpu time    0.0005: real time    0.0005
    --------------------------------------------
      LOOP:  cpu time    0.3948: real time    0.3957

 eigenvalue-minimisations  :  1752
 total energy-change (2. order) :-0.8631660E-03  (-0.1567692E-02)
 number of electron      17.9999998 magnetization 
 augmentation part       -3.6175489 magnetization 

 Broyden mixing:
  rms(total) = 0.22248E-01    rms(broyden)= 0.22248E-01
  rms(prec ) = 0.28516E-01
  weight for this iteration     100.00

 eigenvalues of (default mixing * dielectric matrix)
  average eigenvalue GAMMA=   0.8744
  0.8744

 Free energy of the ion-electron system (eV)
  ---------------------------------------------------
  alpha Z        PSCENC =         2.31960954
  Ewald energy   TEWEN  =      -679.59975537
  -Hartree energ DENC   =       -40.94545948
  -exchange      EXHF   =         0.00000000
  -V(xc)+E(xc)   XCENC  =       -83.95724967
  PAW double counting   =      1537.98214209    -1422.62172428
  entropy T*S    EENTRO =        -0.00007628
  eigenvalues    EBANDS =         7.59358361
  atomic energy  EATOM  =       669.81430600
  Solvation  Ediel_sol  =         0.00000000
  ---------------------------------------------------
  free energy    TOTEN  =        -9.41462383 eV

  energy without entropy =       -9.41454755  energy(sigma->0) =       -9.41458569


--------------------------------------------------------------------------------------------------------




--------------------------------------- Iteration      8(   3)  ---------------------------------------


    POTLOK:  cpu time    0.0108: real time    0.0108
    SETDIJ:  cpu time    0.0021: real time    0.0021
     EDDAV:  cpu time    0.3636: real time    0.3645
       DOS:  cpu time    0.0005: real time    0.0005
    CHARGE:  cpu time    0.0206: real time    0.0206
    MIXING:  cpu time    0.0006: real time    0.0006
    --------------------------------------------
      LOOP:  cpu time    0.3981: real time    0.3991

 eigenvalue-minimisations  :  1784
 total energy-change (2. order) : 0.3565405E-03  (-0.3865146E-04)
 number of electron      17.9999998 magnetization 
 augmentation part       -3.6156414 magnetization 

 Broyden mixing:
  rms(total) = 0.11604E-01    rms(broyden)= 0.11604E-01
  rms(prec ) = 0.15746E-01
  weight for this iteration     100.00

 eigenvalues of (default mixing * dielectric matrix)
  average eigenvalue GAMMA=   1.5110
  0.9056  2.1164

 Free energy of the ion-electron system (eV)
  ---------------------------------------------------
  alpha Z        PSCENC =         2.31960954
  Ewald energy   TEWEN  =      -679.59975537
  -Hartree energ DENC   =       -41.03064627
  -exchange      EXHF   =         0.00000000
  -V(xc)+E(xc)   XCENC  =       -83.96385561
  PAW double counting   =      1532.88822131    -1417.52566468
  entropy T*S    EENTRO =        -0.00007974
  eigenvalues    EBANDS =         7.68359753
  atomic energy  EATOM  =       669.81430600
  Solvation  Ediel_sol  =         0.00000000
  ---------------------------------------------------
  free energy    TOTEN  =        -9.41426728 eV

  energy without entropy =       -9.41418755  energy(sigma->0) =       -9.41422742


--------------------------------------------------------------------------------------------------------




--------------------------------------- Iteration      8(   4)  ---------------------------------------


    POTLOK:  cpu time    0.0107: real time    0.0108
    SETDIJ:  cpu time    0.0021: real time    0.0021
     EDDAV:  cpu time    0.3230: real time    0.3238
       DOS:  cpu time    0.0005: real time    0.0005
    CHARGE:  cpu time    0.0204: real time    0.0205
    MIXING:  cpu time    0.0006: real time    0.0006
    --------------------------------------------
      LOOP:  cpu time    0.3574: real time    0.3583

 eigenvalue-minimisations  :  1568
 total energy-change (2. order) : 0.2140035E-03  (-0.4091278E-04)
 number of electron      17.9999998 magnetization 
 augmentation part       -3.6127479 magnetization 

 Broyden mixing:
  rms(total) = 0.86080E-02    rms(broyden)= 0.86080E-02
  rms(prec ) = 0.86570E-02
  weight for this iteration     100.00

 eigenvalues of (default mixing * dielectric matrix)
  average eigenvalue GAMMA=   1.4659
  2.0940  1.1518  1.1518

 Free energy of the ion-electron system (eV)
  ---------------------------------------------------
  alpha Z        PSCENC =         2.31960954
  Ewald energy   TEWEN  =      -679.59975537
  -Hartree energ DENC   =       -41.15006167
  -exchange      EXHF   =         0.00000000
  -V(xc)+E(xc)   XCENC  =       -83.97446267
  PAW double counting   =      1525.05734659    -1409.68926737
  entropy T*S    EENTRO =        -0.00008411
  eigenvalues    EBANDS =         7.80831577
  atomic energy  EATOM  =       669.81430600
  Solvation  Ediel_sol  =         0.00000000
  ---------------------------------------------------
  free energy    TOTEN  =        -9.41405328 eV

  energy without entropy =       -9.41396917  energy(sigma->0) =       -9.41401123


--------------------------------------------------------------------------------------------------------




--------------------------------------- Iteration      8(   5)  ---------------------------------------


    POTLOK:  cpu time    0.0106: real time    0.0106
    SETDIJ:  cpu time    0.0021: real time    0.0021
     EDDAV:  cpu time    0.2825: real time    0.2832
       DOS:  cpu time    0.0005: real time    0.0005
    --------------------------------------------
      LOOP:  cpu time    0.2957: real time    0.2964

 eigenvalue-minimisations  :  1272
 total energy-change (2. order) :-0.3066552E-06  (-0.1389320E-05)
 number of electron      17.9999998 magnetization 
 augmentation part       -3.6127479 magnetization 

 Free energy of the ion-electron system (eV)
  ---------------------------------------------------
  alpha Z        PSCENC =         2.31960954
  Ewald energy   TEWEN  =      -679.59975537
  -Hartree energ DENC   =       -41.15123696
  -exchange      EXHF   =         0.00000000
  -V(xc)+E(xc)   XCENC  =       -83.97532153
  PAW double counting   =      1523.81766863    -1408.44761177
  entropy T*S    EENTRO =        -0.00008364
  eigenvalues    EBANDS =         7.80837152
  atomic energy  EATOM  =       669.81430600
  Solvation  Ediel_sol  =         0.00000000
  ---------------------------------------------------
  free energy    TOTEN  =        -9.41405359 eV

  energy without entropy =       -9.41396995  energy(sigma->0) =       -9.41401177


--------------------------------------------------------------------------------------------------------




 average (electrostatic) potential at core
  the test charge radii are     1.1897
  (the norm of the test charge is              1.0000)
       1 -88.9222       2 -88.9222       3 -88.9222
 
 
 
 E-fermi :   6.1866     XC(G=0):  -9.1329     alpha+bet :-10.6713


 k-point     1 :       0.0000    0.0000    0.0000
  band No.  band energies     occupation 
      1      -7.5072      2.00000
      2      -4.2426      2.00000
      3      -4.2426      2.00000
      4       3.1102      2.00000
      5       3.4418      2.00000
      6       3.4418      2.00000
      7       4.3642      2.00000
      8       4.3642      2.00000
      9       5.0523      2.00000
     10       7.0715      0.00000
     11       7.0715      0.00000
     12       7.6410      0.00000
     13      11.0791      0.00000
     14      11.0791      0.00000
     15      12.2699      0.00000
     16      12.2699      0.00000

 k-point     2 :       0.1111    0.0000    0.0000
  band No.  band energies     occupation 
      1      -7.4180      2.00000
      2      -4.2654      2.00000
      3      -4.2204      2.00000
      4       2.4299      2.00000
      5       2.9591      2.00000
      6       3.1779      2.00000
      7       4.7088      2.00000
      8       4.9454      2.00000
      9       5.4338      2.00000
     10       6.7127      0.00000
     11       6.9816      0.00000
     12       7.4705      0.00000
     13      10.7466      0.00000
     14      11.0331      0.00000
     15      12.1441      0.00000
     16      12.4136      0.00000

 k-point     3 :       0.2222    0.0000    0.0000
  band No.  band energies     occupation 
      1      -7.1603      2.00000
      2      -4.3824      2.00000
      3      -4.1577      2.00000
      4       1.6062      2.00000
      5       2.3417      2.00000
      6       2.7586      2.00000
      7       4.8469      2.00000
      8       5.1452      2.00000
      9       5.2817      2.00000
     10       6.8280      0.00000
     11       7.0389      0.00000
     12       7.5797      0.00000
     13       9.9213      0.00000
     14      11.2720      0.00000
     15      12.3628      0.00000
     16      13.0952      0.00000

 k-point     4 :       0.3333   -0.0000    0.0000
  band No.  band energies     occupation 
      1      -6.7738      2.00000
      2      -4.6651      2.00000
      3      -4.0765      2.00000
      4       1.2421      2.00000
      5       1.8652      2.00000
      6       2.4238      2.00000
      7       3.6791      2.00000
      8       5.2846      2.00000
      9       5.3260      2.00000
     10       6.7593      0.00000
     11       6.9264      0.00000
     12       8.7726      0.00000
     13       9.2453      0.00000
     14      12.0822      0.00000
     15      13.1423      0.00000
     16      14.0692      0.00000

 k-point     5 :       0.4444    0.0000    0.0000
  band No.  band energies     occupation 
      1      -6.3915      2.00000
      2      -5.0162      2.00000
      3      -4.0181      2.00000
      4       1.2631      2.00000
      5       1.6756      2.00000
      6       2.3014      2.00000
      7       2.7030      2.00000
      8       5.2371      2.00000
      9       5.3558      2.00000
     10       6.7544      0.00000
     11       6.8057      0.00000
     12       8.8867      0.00000
     13       9.6418      0.00000
     14      13.2637      0.00000
     15      14.3949      0.00000
     16      14.9316      0.00000

 k-point     6 :       0.1111    0.1111    0.0000
  band No.  band energies     occupation 
      1      -7.2443      2.00000
      2      -4.3164      2.00000
      3      -4.1982      2.00000
      4       1.8811      2.00000
      5       2.1876      2.00000
      6       3.2736      2.00000
      7       4.4153      2.00000
      8       5.4155      2.00000
      9       5.4211      2.00000
     10       6.6814      0.00000
     11       7.0078      0.00000
     12       7.5653      0.00000
     13      10.5217      0.00000
     14      10.5689      0.00000
     15      12.4792      0.00000
     16      12.8373      0.00000

 k-point     7 :       0.2222    0.1111    0.0000
  band No.  band energies     occupation 
      1      -6.9193      2.00000
      2      -4.4873      2.00000
      3      -4.1685      2.00000
      4       1.3885      2.00000
      5       1.7494      2.00000
      6       2.9186      2.00000
      7       4.2410      2.00000
      8       4.5431      2.00000
      9       5.1042      2.00000
     10       7.1526      0.00000
     11       7.5827      0.00000
     12       8.0695      0.00000
     13       9.8496      0.00000
     14      10.9079      0.00000
     15      13.0934      0.00000
     16      13.5602      0.00000

 k-point     8 :       0.3333    0.1111    0.0000
  band No.  band energies     occupation 
      1      -6.5150      2.00000
      2      -4.8133      2.00000
      3      -4.1324      2.00000
      4       1.2848      2.00000
      5       1.6170      2.00000
      6       2.4951      2.00000
      7       3.2014      2.00000
      8       4.5367      2.00000
      9       4.8133      2.00000
     10       7.3319      0.00000
     11       7.5684      0.00000
     12       9.1832      0.00000
     13       9.3979      0.00000
     14      11.8867      0.00000
     15      14.0678      0.00000
     16      14.4962      0.00000

 k-point     9 :       0.4444    0.1111    0.0000
  band No.  band energies     occupation 
      1      -6.2767      2.00000
      2      -5.0361      2.00000
      3      -4.1160      2.00000
      4       1.3516      2.00000
      5       1.6700      2.00000
      6       2.4558      2.00000
      7       2.5019      2.00000
      8       4.6251      2.00000
      9       4.6366      2.00000
     10       7.3745      0.00000
     11       7.5438      0.00000
     12       9.2358      0.00000
     13       9.6806      0.00000
     14      12.9715      0.00000
     15      13.7918      0.00000
     16      15.0498      0.00000

 k-point    10 :       0.2222    0.2222    0.0000
  band No.  band energies     occupation 
      1      -6.5655      2.00000
      2      -4.6329      2.00000
      3      -4.2846      2.00000
      4       1.3884      2.00000
      5       1.4613      2.00000
      6       2.8889      2.00000
      7       3.6857      2.00000
      8       4.0291      2.00000
      9       4.0465      2.00000
     10       8.0945      0.00000
     11       8.3115      0.00000
     12       8.4365      0.00000
     13      10.3049      0.00000
     14      10.5891      0.00000
     15      13.3674      0.00000
     16      14.7370      0.00000

 k-point    11 :       0.3333    0.2222    0.0000
  band No.  band energies     occupation 
      1      -6.2329      2.00000
      2      -4.8454      2.00000
      3      -4.3783      2.00000
      4       1.5033      2.00000
      5       1.6188      2.00000
      6       2.6269      2.00000
      7       2.9422      2.00000
      8       3.6779      2.00000
      9       3.7595      2.00000
     10       8.3220      0.00000
     11       8.5453      0.00000
     12       9.2857      0.00000
     13      10.1980      0.00000
     14      11.5849      0.00000
     15      13.2254      0.00000
     16      14.3017      0.00000

 k-point    12 :       0.3333    0.3333    0.0000
  band No.  band energies     occupation 
      1      -6.1002      2.00000
      2      -4.6835      2.00000
      3      -4.6835      2.00000
      4       1.6956      2.00000
      5       1.6956      2.00000
      6       2.9217      2.00000
      7       2.9217      2.00000
      8       3.0398      2.00000
      9       3.1941      2.00000
     10       8.9725      0.00000
     11       8.9725      0.00000
     12       9.1763      0.00000
     13      10.9806      0.00000
     14      11.7774      0.00000
     15      11.7774      0.00000
     16      14.6892      0.00000

 k-point    13 :       0.0000    0.0000    0.2500
  band No.  band energies     occupation 
      1      -7.2841      2.00000
      2      -5.5786      2.00000
      3      -2.8775      2.00000
      4       2.7388      2.00000
      5       3.2152      2.00000
      6       3.5944      2.00000
      7       4.5803      2.00000
      8       4.7087      2.00000
      9       5.1103      2.00000
     10       6.6598      0.00000
     11       6.7389      0.00000
     12       7.0895      0.00000
     13      10.3753      0.00000
     14      11.4849      0.00000
     15      11.7898      0.00000
     16      12.2961      0.00000

 k-point    14 :       0.1111    0.0000    0.2500
  band No.  band energies     occupation 
      1      -7.1987      2.00000
      2      -5.5230      2.00000
      3      -2.9896      2.00000
      4       2.4086      2.00000
      5       3.0880      2.00000
      6       3.4959      2.00000
      7       4.2345      2.00000
      8       4.7061      2.00000
      9       4.8412      2.00000
     10       6.8940      0.00000
     11       7.1448      0.00000
     12       7.5201      0.00000
     13      10.4693      0.00000
     14      11.4906      0.00000
     15      11.7593      0.00000
     16      11.9921      0.00000

 k-point    15 :       0.2222    0.0000    0.2500
  band No.  band energies     occupation 
      1      -6.9571      2.00000
      2      -5.3602      2.00000
      3      -3.3499      2.00000
      4       2.0630      2.00000
      5       2.6827      2.00000
      6       3.1450      2.00000
      7       3.6064      2.00000
      8       4.2168      2.00000
      9       4.6355      2.00000
     10       7.4620      0.00000
     11       7.9225      0.00000
     12       8.3002      0.00000
     13      10.8004      0.00000
     14      11.2186      0.00000
     15      11.7947      0.00000
     16      12.1974      0.00000

 k-point    16 :       0.3333   -0.0000    0.2500
  band No.  band energies     occupation 
      1      -6.6066      2.00000
      2      -5.1461      2.00000
      3      -3.8639      2.00000
      4       1.7265      2.00000
      5       2.0939      2.00000
      6       2.7588      2.00000
      7       3.1151      2.00000
      8       4.2437      2.00000
      9       4.5630      2.00000
     10       7.5126      0.00000
     11       8.0670      0.00000
     12       9.1924      0.00000
     13      10.2572      0.00000
     14      11.7357      0.00000
     15      12.4014      0.00000
     16      13.0750      0.00000

 k-point    17 :       0.4444    0.0000    0.2500
  band No.  band energies     occupation 
      1      -6.2642      2.00000
      2      -5.1228      2.00000
      3      -4.1430      2.00000
      4       1.0370      2.00000
      5       1.7908      2.00000
      6       2.4788      2.00000
      7       3.5870      2.00000
      8       4.2975      2.00000
      9       4.5303      2.00000
     10       7.3782      0.00000
     11       8.0068      0.00000
     12       9.0132      0.00000
     13       9.7470      0.00000
     14      12.2479      0.00000
     15      13.8555      0.00000
     16      14.2880      0.00000

 k-point    18 :      -0.4444   -0.0000    0.2500
  band No.  band energies     occupation 
      1      -6.2146      2.00000
      2      -5.3172      2.00000
      3      -3.9157      2.00000
      4       0.6634      2.00000
      5       1.6728      2.00000
      6       2.4417      2.00000
      7       4.3752      2.00000
      8       4.4457      2.00000
      9       4.6685      2.00000
     10       7.2076      0.00000
     11       7.8070      0.00000
     12       8.2019      0.00000
     13       9.4381      0.00000
     14      12.8647      0.00000
     15      14.1595      0.00000
     16      14.7865      0.00000

 k-point    19 :      -0.3333    0.0000    0.2500
  band No.  band energies     occupation 
      1      -6.5634      2.00000
      2      -5.3563      2.00000
      3      -3.5391      2.00000
      4       0.8619      2.00000
      5       1.7544      2.00000
      6       2.5928      2.00000
      7       4.6587      2.00000
      8       4.7476      2.00000
      9       5.5497      2.00000
     10       6.8751      0.00000
     11       7.3063      0.00000
     12       7.5393      0.00000
     13       9.3630      0.00000
     14      12.8693      0.00000
     15      13.3471      0.00000
     16      13.9885      0.00000

 k-point    20 :      -0.2222   -0.0000    0.2500
  band No.  band energies     occupation 
      1      -6.9436      2.00000
      2      -5.4300      2.00000
      3      -3.1989      2.00000
      4       1.6154      2.00000
      5       2.0481      2.00000
      6       2.8957      2.00000
      7       4.9405      2.00000
      8       5.0643      2.00000
      9       5.6455      2.00000
     10       6.6032      0.00000
     11       6.9907      0.00000
     12       7.2292      0.00000
     13       9.6152      0.00000
     14      12.2414      0.00000
     15      12.4364      0.00000
     16      12.8929      0.00000

 k-point    21 :      -0.1111   -0.0000    0.2500
  band No.  band energies     occupation 
      1      -7.1971      2.00000
      2      -5.5317      2.00000
      3      -2.9659      2.00000
      4       2.4449      2.00000
      5       2.7108      2.00000
      6       3.3075      2.00000
      7       4.7048      2.00000
      8       5.0529      2.00000
      9       5.2647      2.00000
     10       6.5271      0.00000
     11       6.5810      0.00000
     12       7.5402      0.00000
     13      10.1465      0.00000
     14      11.5499      0.00000
     15      11.9368      0.00000
     16      12.3560      0.00000

 k-point    22 :       0.1111    0.1111    0.2500
  band No.  band energies     occupation 
      1      -7.0308      2.00000
      2      -5.4353      2.00000
      3      -3.1774      2.00000
      4       2.0503      2.00000
      5       2.3274      2.00000
      6       3.1716      2.00000
      7       4.2214      2.00000
      8       4.7686      2.00000
      9       5.1410      2.00000
     10       6.9556      0.00000
     11       7.4790      0.00000
     12       7.6221      0.00000
     13      10.1760      0.00000
     14      11.6264      0.00000
     15      11.9308      0.00000
     16      12.3626      0.00000

 k-point    23 :       0.2222    0.1111    0.2500
  band No.  band energies     occupation 
      1      -6.7295      2.00000
      2      -5.2519      2.00000
      3      -3.6202      2.00000
      4       1.6699      2.00000
      5       2.1107      2.00000
      6       2.9638      2.00000
      7       3.2116      2.00000
      8       4.2570      2.00000
      9       5.3075      2.00000
     10       7.1477      0.00000
     11       7.8292      0.00000
     12       8.7962      0.00000
     13      10.5992      0.00000
     14      11.0093      0.00000
     15      12.2403      0.00000
     16      13.1328      0.00000

 k-point    24 :       0.3333    0.1111    0.2500
  band No.  band energies     occupation 
      1      -6.3681      2.00000
      2      -5.0927      2.00000
      3      -4.0842      2.00000
      4       1.3525      2.00000
      5       1.5998      2.00000
      6       2.6765      2.00000
      7       3.2571      2.00000
      8       3.8723      2.00000
      9       5.3908      2.00000
     10       6.9901      0.00000
     11       8.2221      0.00000
     12       9.1836      0.00000
     13      10.1377      0.00000
     14      11.8059      0.00000
     15      12.7683      0.00000
     16      13.7656      0.00000

 k-point    25 :       0.4444    0.1111    0.2500
  band No.  band energies     occupation 
      1      -6.1356      2.00000
      2      -5.2075      2.00000
      3      -4.1256      2.00000
      4       0.8361      2.00000
      5       1.4937      2.00000
      6       2.5798      2.00000
      7       3.4610      2.00000
      8       4.1125      2.00000
      9       5.4463      2.00000
     10       6.8489      0.00000
     11       8.2976      0.00000
     12       8.6260      0.00000
     13       9.8415      0.00000
     14      12.6272      0.00000
     15      13.7597      0.00000
     16      14.0128      0.00000

 k-point    26 :      -0.4444    0.1111    0.2500
  band No.  band energies     occupation 
      1      -6.3221      2.00000
      2      -5.2978      2.00000
      3      -3.8237      2.00000
      4       0.7317      2.00000
      5       1.6584      2.00000
      6       2.5643      2.00000
      7       3.5175      2.00000
      8       5.0122      2.00000
      9       5.5018      2.00000
     10       6.7329      0.00000
     11       7.6324      0.00000
     12       8.2851      0.00000
     13       9.7261      0.00000
     14      12.4905      0.00000
     15      13.3541      0.00000
     16      14.3297      0.00000

 k-point    27 :      -0.3333    0.1111    0.2500
  band No.  band energies     occupation 
      1      -6.7128      2.00000
      2      -5.3363      2.00000
      3      -3.4728      2.00000
      4       1.2104      2.00000
      5       1.9289      2.00000
      6       2.7604      2.00000
      7       3.7777      2.00000
      8       5.2344      2.00000
      9       5.8510      2.00000
     10       6.5534      0.00000
     11       7.1325      0.00000
     12       8.0702      0.00000
     13       9.7989      0.00000
     14      11.8057      0.00000
     15      12.7100      0.00000
     16      13.5793      0.00000

 k-point    28 :       0.2222    0.2222    0.2500
  band No.  band energies     occupation 
      1      -6.3889      2.00000
      2      -5.1880      2.00000
      3      -3.9171      2.00000
      4       1.0182      2.00000
      5       1.7981      2.00000
      6       2.5262      2.00000
      7       3.0442      2.00000
      8       4.6908      2.00000
      9       5.6918      2.00000
     10       6.8758      0.00000
     11       7.6846      0.00000
     12       8.9286      0.00000
     13      10.5190      0.00000
     14      11.1000      0.00000
     15      13.0467      0.00000
     16      13.9713      0.00000

 k-point    29 :       0.3333    0.2222    0.2500
  band No.  band energies     occupation 
      1      -6.0926      2.00000
      2      -5.1130      2.00000
      3      -4.2528      2.00000
      4       1.0196      2.00000
      5       1.3430      2.00000
      6       2.1774      2.00000
      7       3.3921      2.00000
      8       4.2159      2.00000
      9       5.4419      2.00000
     10       7.1260      0.00000
     11       8.3436      0.00000
     12       8.8817      0.00000
     13      10.5692      0.00000
     14      11.7076      0.00000
     15      13.3895      0.00000
     16      13.5727      0.00000

 k-point    30 :       0.4444    0.2222    0.2500
  band No.  band energies     occupation 
      1      -6.0761      2.00000
      2      -5.1793      2.00000
      3      -4.1837      2.00000
      4       0.8401      2.00000
      5       1.4442      2.00000
      6       2.1966      2.00000
      7       3.2937      2.00000
      8       4.6242      2.00000
      9       5.2408      2.00000
     10       7.3124      0.00000
     11       8.0114      0.00000
     12       8.7914      0.00000
     13      10.4600      0.00000
     14      11.9738      0.00000
     15      13.1552      0.00000
     16      14.1404      0.00000

 k-point    31 :       0.3333    0.3333    0.2500
  band No.  band energies     occupation 
      1      -5.9595      2.00000
      2      -5.1161      2.00000
      3      -4.3541      2.00000
      4       0.9785      2.00000
      5       1.3442      2.00000
      6       1.7563      2.00000
      7       3.6385      2.00000
      8       4.4932      2.00000
      9       4.8460      2.00000
     10       7.9022      0.00000
     11       8.3522      0.00000
     12       8.4479      0.00000
     13      11.4101      0.00000
     14      11.6893      0.00000
     15      12.0994      0.00000
     16      14.4398      0.00000

 k-point    32 :       0.0000    0.0000    0.5000
  band No.  band energies     occupation 
      1      -6.6267      2.00000
      2      -6.6267      2.00000
      3      -2.1821      2.00000
      4       2.2512      2.00000
      5       3.4355      2.00000
      6       3.4355      2.00000
      7       4.8069      2.00000
      8       5.1510      2.00000
      9       5.1510      2.00000
     10       6.3997      0.00000
     11       6.3997      0.00000
     12       6.4142      0.00000
     13      10.0425      0.00000
     14      11.2191      0.00000
     15      11.2191      0.00000
     16      13.1933      0.00000

 k-point    33 :       0.1111    0.0000    0.5000
  band No.  band energies     occupation 
      1      -6.5590      2.00000
      2      -6.5435      2.00000
      3      -2.3704      2.00000
      4       2.2261      2.00000
      5       3.2638      2.00000
      6       3.3754      2.00000
      7       4.1783      2.00000
      8       4.6469      2.00000
      9       4.8739      2.00000
     10       6.6995      0.00000
     11       6.9160      0.00000
     12       7.4072      0.00000
     13      10.2761      0.00000
     14      10.9396      0.00000
     15      11.5361      0.00000
     16      13.2594      0.00000

 k-point    34 :       0.2222    0.0000    0.5000
  band No.  band energies     occupation 
      1      -6.3756      2.00000
      2      -6.3013      2.00000
      3      -2.8604      2.00000
      4       1.8613      2.00000
      5       2.6619      2.00000
      6       3.1032      2.00000
      7       3.9796      2.00000
      8       4.1666      2.00000
      9       4.5821      2.00000
     10       7.2738      0.00000
     11       7.7090      0.00000
     12       8.2442      0.00000
     13      10.3903      0.00000
     14      11.2849      0.00000
     15      12.1992      0.00000
     16      12.7404      0.00000

 k-point    35 :       0.3333   -0.0000    0.5000
  band No.  band energies     occupation 
      1      -6.1414      2.00000
      2      -5.9336      2.00000
      3      -3.4854      2.00000
      4       0.9963      2.00000
      5       2.4746      2.00000
      6       2.8072      2.00000
      7       3.7185      2.00000
      8       3.9637      2.00000
      9       4.9347      2.00000
     10       7.6291      0.00000
     11       7.9951      0.00000
     12       8.3393      0.00000
     13      10.4097      0.00000
     14      11.6106      0.00000
     15      12.8972      0.00000
     16      13.2439      0.00000

 k-point    36 :       0.4444    0.0000    0.5000
  band No.  band energies     occupation 
      1      -5.9688      2.00000
      2      -5.5638      2.00000
      3      -4.0118      2.00000
      4       0.4246      2.00000
      5       2.4695      2.00000
      6       2.5831      2.00000
      7       3.5315      2.00000
      8       3.8294      2.00000
      9       5.6795      2.00000
     10       6.9502      0.00000
     11       8.0531      0.00000
     12       8.6143      0.00000
     13      10.5430      0.00000
     14      11.2021      0.00000
     15      13.9409      0.00000
     16      14.2490      0.00000

 k-point    37 :       0.1111    0.1111    0.5000
  band No.  band energies     occupation 
      1      -6.4288      2.00000
      2      -6.3850      2.00000
      3      -2.7062      2.00000
      4       2.0683      2.00000
      5       2.8814      2.00000
      6       2.9848      2.00000
      7       3.9068      2.00000
      8       4.1019      2.00000
      9       5.2178      2.00000
     10       6.5471      0.00000
     11       7.9305      0.00000
     12       8.0106      0.00000
     13      10.6923      0.00000
     14      10.6929      0.00000
     15      12.1616      0.00000
     16      12.8526      0.00000

 k-point    38 :       0.2222    0.1111    0.5000
  band No.  band energies     occupation 
      1      -6.2064      2.00000
      2      -6.0895      2.00000
      3      -3.2508      2.00000
      4       1.4555      2.00000
      5       2.2699      2.00000
      6       2.4877      2.00000
      7       3.9296      2.00000
      8       4.3710      2.00000
      9       5.1186      2.00000
     10       6.9889      0.00000
     11       8.1945      0.00000
     12       8.3217      0.00000
     13      10.5257      0.00000
     14      11.4464      0.00000
     15      12.4500      0.00000
     16      13.1802      0.00000

 k-point    39 :       0.3333    0.1111    0.5000
  band No.  band energies     occupation 
      1      -5.9850      2.00000
      2      -5.7166      2.00000
      3      -3.8232      2.00000
      4       0.7123      2.00000
      5       2.0028      2.00000
      6       2.1697      2.00000
      7       4.0490      2.00000
      8       4.5094      2.00000
      9       5.3541      2.00000
     10       7.3089      0.00000
     11       7.7229      0.00000
     12       8.3812      0.00000
     13      10.5916      0.00000
     14      11.5852      0.00000
     15      12.8624      0.00000
     16      13.9700      0.00000

 k-point    40 :       0.4444    0.1111    0.5000
  band No.  band energies     occupation 
      1      -5.8890      2.00000
      2      -5.4946      2.00000
      3      -4.1198      2.00000
      4       0.4183      2.00000
      5       1.9318      2.00000
      6       2.0461      2.00000
      7       4.2135      2.00000
      8       4.3054      2.00000
      9       5.9432      2.00000
     10       6.7160      0.00000
     11       7.8600      0.00000
     12       8.3481      0.00000
     13      10.7438      0.00000
     14      11.2398      0.00000
     15      14.1311      0.00000
     16      14.3282      0.00000

 k-point    41 :       0.2222    0.2222    0.5000
  band No.  band energies     occupation 
      1      -5.9630      2.00000
      2      -5.8093      2.00000
      3      -3.7291      2.00000
      4       1.0925      2.00000
      5       1.5003      2.00000
      6       1.8769      2.00000
      7       4.4698      2.00000
      8       4.8016      2.00000
      9       5.6308      2.00000
     10       6.7963      0.00000
     11       7.9945      0.00000
     12       8.0152      0.00000
     13      10.8825      0.00000
     14      11.7429      0.00000
     15      12.5645      0.00000
     16      12.7730      0.00000

 k-point    42 :       0.3333    0.2222    0.5000
  band No.  band energies     occupation 
      1      -5.7720      2.00000
      2      -5.5589      2.00000
      3      -4.1084      2.00000
      4       0.6931      2.00000
      5       1.2731      2.00000
      6       1.4729      2.00000
      7       4.8881      2.00000
      8       5.2648      2.00000
      9       5.8510      2.00000
     10       6.8411      0.00000
     11       7.3673      0.00000
     12       7.7378      0.00000
     13      11.2630      0.00000
     14      11.8891      0.00000
     15      12.8724      0.00000
     16      13.2259      0.00000

 k-point    43 :       0.3333    0.3333    0.5000
  band No.  band energies     occupation 
      1      -5.5869      2.00000
      2      -5.5869      2.00000
      3      -4.2170      2.00000
      4       0.9180      2.00000
      5       0.9880      2.00000
      6       0.9880      2.00000
      7       5.2686      2.00000
      8       6.1148      1.95772
      9       6.1148      1.95772
     10       6.2476      0.08456
     11       7.1901      0.00000
     12       7.1901      0.00000
     13      12.0674      0.00000
     14      12.5071      0.00000
     15      12.5071      0.00000
     16      13.1962      0.00000


--------------------------------------------------------------------------------------------------------


 soft charge-density along one line, spin component           1
         0         1         2         3         4         5         6         7         8         9
 total charge-density along one line
 
 pseudopotential strength for first ion, spin component:           1
 51.600  56.142  -0.000  -0.000  -0.043  -0.000  -0.000  -0.062
 56.142  61.088  -0.000  -0.000  -0.047  -0.000  -0.000  -0.068
 -0.000  -0.000  12.707   0.009   0.000  18.316   0.013   0.000
 -0.000  -0.000   0.009  12.721   0.000   0.013  18.336   0.000
 -0.043  -0.047   0.000   0.000  12.721   0.000   0.000  18.336
 -0.000  -0.000  18.316   0.013   0.000  26.410   0.018   0.000
 -0.000  -0.000   0.013  18.336   0.000   0.018  26.440   0.000
 -0.062  -0.068   0.000   0.000  18.336   0.000   0.000  26.440
  0.000   0.000  -0.008   0.000  -0.000  -0.012   0.001  -0.000
  0.014   0.015   0.000  -0.000   0.000   0.000  -0.000   0.001
  0.006   0.007   0.000  -0.000   0.005   0.000  -0.000   0.007
  0.000   0.000   0.000  -0.008  -0.000   0.001  -0.011  -0.000
  0.011   0.012   0.000  -0.000  -0.008   0.000  -0.000  -0.012
 total augmentation occupancy for first ion, spin component:           1
 13.706 -10.034   0.000   0.000   1.847   0.000   0.000  -0.458   0.000  -0.154  -0.091   0.000  -0.114
-10.034   8.602   0.000   0.000  -1.549   0.000  -0.000   0.390   0.000   0.138   0.081   0.000   0.102
  0.000   0.000   2.537   0.177   0.000  -0.502  -0.162   0.000  -0.046   0.000   0.000  -0.045   0.000
  0.000  -0.000   0.177   2.834  -0.000  -0.163  -0.769   0.000  -0.043  -0.000  -0.000  -0.103   0.000
  1.847  -1.549   0.000  -0.000   2.746   0.000   0.000  -0.720   0.000  -0.049  -0.012   0.000  -0.046
  0.000   0.000  -0.502  -0.163   0.000   0.183   0.059   0.000   0.011   0.000   0.000   0.016  -0.000
  0.000   0.000  -0.162  -0.769   0.000   0.059   0.279  -0.000   0.016   0.000  -0.000   0.030  -0.000
 -0.458   0.390   0.000   0.000  -0.720   0.000   0.000   0.253  -0.000   0.014   0.003   0.000   0.011
  0.000   0.000  -0.046  -0.043   0.000   0.011   0.016  -0.000   0.010  -0.000   0.000   0.011   0.000
 -0.154   0.138   0.000   0.000  -0.049   0.000   0.000   0.014  -0.000   0.015   0.003   0.000   0.005
 -0.091   0.081   0.000  -0.000  -0.012   0.000   0.000   0.003   0.000   0.003   0.007   0.000  -0.000
  0.000   0.000  -0.045  -0.103   0.000   0.016   0.030   0.000   0.011   0.000  -0.000   0.026   0.000
 -0.114   0.102   0.000   0.000  -0.046  -0.000  -0.000   0.011   0.000   0.005  -0.000   0.000   0.010


------------------------ aborting loop because EDIFF is reached ----------------------------------------


    CHARGE:  cpu time    0.0207: real time    0.0208
    FORLOC:  cpu time    0.0008: real time    0.0008
    FORNL :  cpu time    0.0763: real time    0.0764
    STRESS:  cpu time    0.2242: real time    0.2248
    FORCOR:  cpu time    0.0116: real time    0.0116
    FORHAR:  cpu time    0.0028: real time    0.0029
    MIXING:  cpu time    0.0006: real time    0.0006
    OFIELD:  cpu time    0.0000: real time    0.0000

 ---------------------------------------------------------------------------------------------

         DFTD3 V3.0 Rev 1        
 Edisp (eV)   -0.80152

 E6    (eV) :    -0.3065
 E8    (eV) :    -0.4951
 % E8        : 61.77
    FORVDW:  cpu time    0.0100: real time    0.0100

  FORCE on cell =-STRESS in cart. coord.  units (eV):
  Direction    XX          YY          ZZ          XY          YZ          ZX
  --------------------------------------------------------------------------------------
  Alpha Z     2.31961     2.31961     2.31961
  Ewald    -237.09122  -237.09122  -205.41792    -0.00000    -0.00000     0.00000
  Hartree    11.07355    11.07355    19.00019     0.00000     0.00000    -0.00000
  E(xc)     -70.31741   -70.31741   -69.87993    -0.00000     0.00000    -0.00000
  Local    -111.65797  -111.65802  -143.41670    -0.00004     0.00000    -0.00000
  n-local   331.69129   332.53073   328.20295    -1.27091    -0.68338    -1.19422
  augment   -81.06169   -81.06165   -79.10325     0.00004    -0.00000     0.00000
  Kinetic   151.54851   158.62472   148.88497    -7.69052     0.15367     1.72257
  Fock        0.00000     0.00000     0.00000     0.00000     0.00000     0.00000
  vdW        -0.75090    -0.75090    -0.89689     0.00000    -0.00000    -0.00000
  -------------------------------------------------------------------------------------
  Total      -0.28842    -0.28842    -0.30696     0.00000    -0.00000     0.00000
  in kB      -4.58561    -4.58561    -4.88030     0.00000    -0.00000     0.00000
  external pressure =       -4.68 kB  Pullay stress =        0.00 kB


 VOLUME and BASIS-vectors are now :
 -----------------------------------------------------------------------------
  energy-cutoff  :      520.00
  volume of cell :      100.77
      direct lattice vectors                 reciprocal lattice vectors
     4.428442524  0.000000000 -0.000000000     0.225813024  0.130373210  0.000000000
    -2.214221262  3.835143725  0.000000000     0.000000000  0.260746421  0.000000000
    -0.000000000  0.000000000  5.933472886     0.000000000 -0.000000000  0.168535362

  length of vectors
     4.428442524  4.428442524  5.933472886     0.260746421  0.260746421  0.168535362


 FORCES acting on ions
    electron-ion (+dipol)            ewald-force                    non-local-force                 convergence-correction
 -----------------------------------------------------------------------------------------------
   -.934E+01 0.112E-04 -.874E-06   0.138E+02 0.160E-05 0.138E-05   -.448E+01 0.278E-16 -.278E-16   0.336E-03 0.186E-07 -.220E-09
   0.467E+01 -.809E+01 -.186E-04   -.689E+01 0.119E+02 -.802E-05   0.224E+01 -.388E+01 0.555E-16   -.168E-03 0.291E-03 -.206E-09
   0.467E+01 0.809E+01 0.192E-04   -.689E+01 -.119E+02 0.664E-05   0.224E+01 0.388E+01 0.000E+00   -.168E-03 -.291E-03 0.437E-09
 -----------------------------------------------------------------------------------------------
   0.260E-04 -.850E-05 -.311E-06   0.888E-15 0.178E-14 0.347E-17   0.444E-15 -.444E-15 0.278E-16   0.522E-08 0.113E-07 0.111E-10
 
 
 POSITION                                       TOTAL-FORCE (eV/Angst)
 -----------------------------------------------------------------------------------
      1.23731      0.00000      1.97782        -0.057826      0.000000      0.000000
     -0.61866      1.07155      3.95565         0.028913     -0.050079     -0.000000
      1.59556      2.76360      0.00000         0.028913      0.050079      0.000000
 -----------------------------------------------------------------------------------
    total drift:                                0.000026     -0.000008     -0.000000


--------------------------------------------------------------------------------------------------------



  FREE ENERGIE OF THE ION-ELECTRON SYSTEM (eV)
  ---------------------------------------------------
  free  energy   TOTEN  =       -10.21556868 eV

  energy  without entropy=      -10.21548504  energy(sigma->0) =      -10.21552686
 
 d Force =-0.3426872E-03[-0.221E-02, 0.152E-02]  d Energy =-0.4687340E-03 0.126E-03
 d Force = 0.5488107E+00[ 0.527E+00, 0.571E+00]  d Ewald  =-0.8813758E+00 0.143E+01


--------------------------------------------------------------------------------------------------------


    POTLOK:  cpu time    0.0130: real time    0.0131


--------------------------------------------------------------------------------------------------------


 Conjugate gradient step on ions:
 trial-energy change:    0.000469  1 .order    0.000366   -0.003611    0.004342
  (g-gl).g = 0.300E-02      g.g   = 0.191E-02  gl.gl    = 0.593E-02
 g(Force)  = 0.230E-03   g(Stress)= 0.168E-02 ortho     = 0.589E-04
 gamma     =   0.50476
 trial     =   1.85809
 opt step  =   0.80809  (harmonic =   0.84365) maximal distance =0.00553966
 next E    =   -10.216814   (d E  =  -0.00078)


--------------------------------------------------------------------------------------------------------


    WAVPRE:  cpu time    0.0026: real time    0.0045
    FEWALD:  cpu time    0.0001: real time    0.0001
    GENKIN:  cpu time    0.0070: real time    0.0070
    ORTHCH:  cpu time    0.0198: real time    0.0198
     LOOP+:  cpu time    2.1870: real time    2.1979


--------------------------------------- Iteration      9(   1)  ---------------------------------------


    POTLOK:  cpu time    0.0112: real time    0.0123
    SETDIJ:  cpu time    0.0021: real time    0.0021
     EDDAV:  cpu time    0.3076: real time    0.3083
       DOS:  cpu time    0.0005: real time    0.0005
    CHARGE:  cpu time    0.0207: real time    0.0208
    MIXING:  cpu time    0.0005: real time    0.0005
    --------------------------------------------
      LOOP:  cpu time    0.3426: real time    0.3445

 eigenvalue-minimisations  :  1392
 total energy-change (2. order) : 0.2690649E-02  (-0.9478147E-02)
 number of electron      18.0000000 magnetization 
 augmentation part       -3.6128702 magnetization 

 Broyden mixing:
  rms(total) = 0.29393E-01    rms(broyden)= 0.29392E-01
  rms(prec ) = 0.32788E-01
  weight for this iteration     100.00

 Free energy of the ion-electron system (eV)
  ---------------------------------------------------
  alpha Z        PSCENC =         2.32870793
  Ewald energy   TEWEN  =      -680.10265573
  -Hartree energ DENC   =       -41.43062252
  -exchange      EXHF   =         0.00000000
  -V(xc)+E(xc)   XCENC  =       -83.94770770
  PAW double counting   =      1521.77093670    -1406.39884994
  entropy T*S    EENTRO =        -0.00005563
  eigenvalues    EBANDS =         8.55457827
  atomic energy  EATOM  =       669.81430600
  Solvation  Ediel_sol  =         0.00000000
  ---------------------------------------------------
  free energy    TOTEN  =        -9.41136263 eV

  energy without entropy =       -9.41130700  energy(sigma->0) =       -9.41133482


--------------------------------------------------------------------------------------------------------




--------------------------------------- Iteration      9(   2)  ---------------------------------------


    POTLOK:  cpu time    0.0110: real time    0.0110
    SETDIJ:  cpu time    0.0021: real time    0.0021
     EDDAV:  cpu time    0.3662: real time    0.3671
       DOS:  cpu time    0.0005: real time    0.0005
    CHARGE:  cpu time    0.0204: real time    0.0204
    MIXING:  cpu time    0.0006: real time    0.0006
    --------------------------------------------
      LOOP:  cpu time    0.4007: real time    0.4017

 eigenvalue-minimisations  :  1744
 total energy-change (2. order) :-0.2548854E-03  (-0.4878876E-03)
 number of electron      18.0000000 magnetization 
 augmentation part       -3.6097231 magnetization 

 Broyden mixing:
  rms(total) = 0.12870E-01    rms(broyden)= 0.12870E-01
  rms(prec ) = 0.16403E-01
  weight for this iteration     100.00

 eigenvalues of (default mixing * dielectric matrix)
  average eigenvalue GAMMA=   0.8530
  0.8530

 Free energy of the ion-electron system (eV)
  ---------------------------------------------------
  alpha Z        PSCENC =         2.32870793
  Ewald energy   TEWEN  =      -680.10265573
  -Hartree energ DENC   =       -41.34973968
  -exchange      EXHF   =         0.00000000
  -V(xc)+E(xc)   XCENC  =       -83.94402994
  PAW double counting   =      1531.95145694    -1416.58179981
  entropy T*S    EENTRO =        -0.00005593
  eigenvalues    EBANDS =         8.47219270
  atomic energy  EATOM  =       669.81430600
  Solvation  Ediel_sol  =         0.00000000
  ---------------------------------------------------
  free energy    TOTEN  =        -9.41161752 eV

  energy without entropy =       -9.41156159  energy(sigma->0) =       -9.41158955


--------------------------------------------------------------------------------------------------------




--------------------------------------- Iteration      9(   3)  ---------------------------------------


    POTLOK:  cpu time    0.0111: real time    0.0111
    SETDIJ:  cpu time    0.0021: real time    0.0021
     EDDAV:  cpu time    0.3695: real time    0.3704
       DOS:  cpu time    0.0005: real time    0.0005
    CHARGE:  cpu time    0.0203: real time    0.0203
    MIXING:  cpu time    0.0006: real time    0.0006
    --------------------------------------------
      LOOP:  cpu time    0.4040: real time    0.4050

 eigenvalue-minimisations  :  1784
 total energy-change (2. order) : 0.1050836E-03  (-0.1203235E-04)
 number of electron      18.0000000 magnetization 
 augmentation part       -3.6107895 magnetization 

 Broyden mixing:
  rms(total) = 0.66455E-02    rms(broyden)= 0.66455E-02
  rms(prec ) = 0.90466E-02
  weight for this iteration     100.00

 eigenvalues of (default mixing * dielectric matrix)
  average eigenvalue GAMMA=   1.4886
  0.9063  2.0708

 Free energy of the ion-electron system (eV)
  ---------------------------------------------------
  alpha Z        PSCENC =         2.32870793
  Ewald energy   TEWEN  =      -680.10265573
  -Hartree energ DENC   =       -41.30248725
  -exchange      EXHF   =         0.00000000
  -V(xc)+E(xc)   XCENC  =       -83.94022948
  PAW double counting   =      1534.40730922    -1419.03895577
  entropy T*S    EENTRO =        -0.00005445
  eigenvalues    EBANDS =         8.42254710
  atomic energy  EATOM  =       669.81430600
  Solvation  Ediel_sol  =         0.00000000
  ---------------------------------------------------
  free energy    TOTEN  =        -9.41151243 eV

  energy without entropy =       -9.41145798  energy(sigma->0) =       -9.41148521


--------------------------------------------------------------------------------------------------------




--------------------------------------- Iteration      9(   4)  ---------------------------------------


    POTLOK:  cpu time    0.0110: real time    0.0110
    SETDIJ:  cpu time    0.0021: real time    0.0021
     EDDAV:  cpu time    0.3327: real time    0.3335
       DOS:  cpu time    0.0005: real time    0.0005
    CHARGE:  cpu time    0.0203: real time    0.0204
    MIXING:  cpu time    0.0006: real time    0.0006
    --------------------------------------------
      LOOP:  cpu time    0.3672: real time    0.3681

 eigenvalue-minimisations  :  1560
 total energy-change (2. order) : 0.5634628E-04  (-0.1304130E-04)
 number of electron      18.0000000 magnetization 
 augmentation part       -3.6124241 magnetization 

 Broyden mixing:
  rms(total) = 0.47480E-02    rms(broyden)= 0.47480E-02
  rms(prec ) = 0.47806E-02
  weight for this iteration     100.00

 eigenvalues of (default mixing * dielectric matrix)
  average eigenvalue GAMMA=   1.4687
  2.0695  1.1683  1.1683

 Free energy of the ion-electron system (eV)
  ---------------------------------------------------
  alpha Z        PSCENC =         2.32870793
  Ewald energy   TEWEN  =      -680.10265573
  -Hartree energ DENC   =       -41.23572577
  -exchange      EXHF   =         0.00000000
  -V(xc)+E(xc)   XCENC  =       -83.93399487
  PAW double counting   =      1538.20755334    -1422.84246097
  entropy T*S    EENTRO =        -0.00005268
  eigenvalues    EBANDS =         8.35286667
  atomic energy  EATOM  =       669.81430600
  Solvation  Ediel_sol  =         0.00000000
  ---------------------------------------------------
  free energy    TOTEN  =        -9.41145609 eV

  energy without entropy =       -9.41140341  energy(sigma->0) =       -9.41142975


--------------------------------------------------------------------------------------------------------




--------------------------------------- Iteration      9(   5)  ---------------------------------------


    POTLOK:  cpu time    0.0110: real time    0.0110
    SETDIJ:  cpu time    0.0021: real time    0.0021
     EDDAV:  cpu time    0.2258: real time    0.2263
       DOS:  cpu time    0.0005: real time    0.0005
    --------------------------------------------
      LOOP:  cpu time    0.2394: real time    0.2399

 eigenvalue-minimisations  :   808
 total energy-change (2. order) :-0.5897671E-06  (-0.4502171E-06)
 number of electron      18.0000000 magnetization 
 augmentation part       -3.6124241 magnetization 

 Free energy of the ion-electron system (eV)
  ---------------------------------------------------
  alpha Z        PSCENC =         2.32870793
  Ewald energy   TEWEN  =      -680.10265573
  -Hartree energ DENC   =       -41.23444243
  -exchange      EXHF   =         0.00000000
  -V(xc)+E(xc)   XCENC  =       -83.93340693
  PAW double counting   =      1538.92444033    -1423.56054610
  entropy T*S    EENTRO =        -0.00005287
  eigenvalues    EBANDS =         8.35219313
  atomic energy  EATOM  =       669.81430600
  Solvation  Ediel_sol  =         0.00000000
  ---------------------------------------------------
  free energy    TOTEN  =        -9.41145668 eV

  energy without entropy =       -9.41140381  energy(sigma->0) =       -9.41143024


--------------------------------------------------------------------------------------------------------




 average (electrostatic) potential at core
  the test charge radii are     1.1897
  (the norm of the test charge is              1.0000)
       1 -88.8764       2 -88.8764       3 -88.8764
 
 
 
 E-fermi :   6.2476     XC(G=0):  -9.1465     alpha+bet :-10.7132


 k-point     1 :       0.0000    0.0000    0.0000
  band No.  band energies     occupation 
      1      -7.5038      2.00000
      2      -4.2006      2.00000
      3      -4.2006      2.00000
      4       3.1118      2.00000
      5       3.4597      2.00000
      6       3.4597      2.00000
      7       4.4036      2.00000
      8       4.4036      2.00000
      9       5.1160      2.00000
     10       7.1307      0.00000
     11       7.1307      0.00000
     12       7.6920      0.00000
     13      11.1167      0.00000
     14      11.1167      0.00000
     15      12.3222      0.00000
     16      12.3222      0.00000

 k-point     2 :       0.1111    0.0000    0.0000
  band No.  band energies     occupation 
      1      -7.4150      2.00000
      2      -4.2243      2.00000
      3      -4.1780      2.00000
      4       2.4441      2.00000
      5       2.9819      2.00000
      6       3.1965      2.00000
      7       4.7420      2.00000
      8       4.9875      2.00000
      9       5.4701      2.00000
     10       6.7843      0.00000
     11       7.0432      0.00000
     12       7.5292      0.00000
     13      10.7920      0.00000
     14      11.0691      0.00000
     15      12.1830      0.00000
     16      12.4521      0.00000

 k-point     3 :       0.2222    0.0000    0.0000
  band No.  band energies     occupation 
      1      -7.1583      2.00000
      2      -4.3430      2.00000
      3      -4.1145      2.00000
      4       1.6242      2.00000
      5       2.3682      2.00000
      6       2.7796      2.00000
      7       4.8788      2.00000
      8       5.1796      2.00000
      9       5.3161      2.00000
     10       6.8969      0.00000
     11       7.1061      0.00000
     12       7.6580      0.00000
     13       9.9717      0.00000
     14      11.2997      0.00000
     15      12.3953      0.00000
     16      13.1327      0.00000

 k-point     4 :       0.3333   -0.0000    0.0000
  band No.  band energies     occupation 
      1      -6.7748      2.00000
      2      -4.6263      2.00000
      3      -4.0326      2.00000
      4       1.2598      2.00000
      5       1.8935      2.00000
      6       2.4476      2.00000
      7       3.7203      2.00000
      8       5.3039      2.00000
      9       5.3598      2.00000
     10       6.8385      0.00000
     11       7.0014      0.00000
     12       8.8577      0.00000
     13       9.2978      0.00000
     14      12.1034      0.00000
     15      13.1695      0.00000
     16      14.1142      0.00000

 k-point     5 :       0.4444    0.0000    0.0000
  band No.  band energies     occupation 
      1      -6.3993      2.00000
      2      -4.9730      2.00000
      3      -3.9737      2.00000
      4       1.2774      2.00000
      5       1.6993      2.00000
      6       2.3342      2.00000
      7       2.7483      2.00000
      8       5.2519      2.00000
      9       5.3864      2.00000
     10       6.8369      0.00000
     11       6.8863      0.00000
     12       8.9402      0.00000
     13       9.7362      0.00000
     14      13.2831      0.00000
     15      14.4208      0.00000
     16      14.9854      0.00000

 k-point     6 :       0.1111    0.1111    0.0000
  band No.  band energies     occupation 
      1      -7.2419      2.00000
      2      -4.2768      2.00000
      3      -4.1550      2.00000
      4       1.8969      2.00000
      5       2.2135      2.00000
      6       3.2902      2.00000
      7       4.4631      2.00000
      8       5.4396      2.00000
      9       5.4472      2.00000
     10       6.7603      0.00000
     11       7.0883      0.00000
     12       7.6234      0.00000
     13      10.5595      0.00000
     14      10.6164      0.00000
     15      12.5196      0.00000
     16      12.8725      0.00000

 k-point     7 :       0.2222    0.1111    0.0000
  band No.  band energies     occupation 
      1      -6.9189      2.00000
      2      -4.4492      2.00000
      3      -4.1244      2.00000
      4       1.4069      2.00000
      5       1.7735      2.00000
      6       2.9418      2.00000
      7       4.2801      2.00000
      8       4.5874      2.00000
      9       5.1342      2.00000
     10       7.2305      0.00000
     11       7.6403      0.00000
     12       8.1488      0.00000
     13       9.8988      0.00000
     14      10.9432      0.00000
     15      13.1371      0.00000
     16      13.5839      0.00000

 k-point     8 :       0.3333    0.1111    0.0000
  band No.  band energies     occupation 
      1      -6.5195      2.00000
      2      -4.7731      2.00000
      3      -4.0880      2.00000
      4       1.3007      2.00000
      5       1.6401      2.00000
      6       2.5257      2.00000
      7       3.2446      2.00000
      8       4.5784      2.00000
      9       4.8476      2.00000
     10       7.4012      0.00000
     11       7.6344      0.00000
     12       9.2691      0.00000
     13       9.4535      0.00000
     14      11.9148      0.00000
     15      14.1170      0.00000
     16      14.5240      0.00000

 k-point     9 :       0.4444    0.1111    0.0000
  band No.  band energies     occupation 
      1      -6.2874      2.00000
      2      -4.9908      2.00000
      3      -4.0717      2.00000
      4       1.3649      2.00000
      5       1.6856      2.00000
      6       2.4932      2.00000
      7       2.5515      2.00000
      8       4.6580      2.00000
      9       4.6794      2.00000
     10       7.4346      0.00000
     11       7.6187      0.00000
     12       9.2920      0.00000
     13       9.7735      0.00000
     14      12.9885      0.00000
     15      13.8348      0.00000
     16      15.1007      0.00000

 k-point    10 :       0.2222    0.2222    0.0000
  band No.  band energies     occupation 
      1      -6.5688      2.00000
      2      -4.5952      2.00000
      3      -4.2390      2.00000
      4       1.4062      2.00000
      5       1.4813      2.00000
      6       2.9149      2.00000
      7       3.7279      2.00000
      8       4.0738      2.00000
      9       4.0939      2.00000
     10       8.1498      0.00000
     11       8.3852      0.00000
     12       8.5167      0.00000
     13      10.3411      0.00000
     14      10.6433      0.00000
     15      13.4126      0.00000
     16      14.7660      0.00000

 k-point    11 :       0.3333    0.2222    0.0000
  band No.  band energies     occupation 
      1      -6.2434      2.00000
      2      -4.8019      2.00000
      3      -4.3332      2.00000
      4       1.5150      2.00000
      5       1.6316      2.00000
      6       2.6671      2.00000
      7       2.9873      2.00000
      8       3.7273      2.00000
      9       3.8056      2.00000
     10       8.3780      0.00000
     11       8.6209      0.00000
     12       9.3684      0.00000
     13      10.2477      0.00000
     14      11.6209      0.00000
     15      13.2636      0.00000
     16      14.3461      0.00000

 k-point    12 :       0.3333    0.3333    0.0000
  band No.  band energies     occupation 
      1      -6.1146      2.00000
      2      -4.6376      2.00000
      3      -4.6376      2.00000
      4       1.7009      2.00000
      5       1.7009      2.00000
      6       2.9658      2.00000
      7       2.9658      2.00000
      8       3.0909      2.00000
      9       3.2537      2.00000
     10       9.0408      0.00000
     11       9.0408      0.00000
     12       9.2605      0.00000
     13      10.9960      0.00000
     14      11.8301      0.00000
     15      11.8301      0.00000
     16      14.7379      0.00000

 k-point    13 :       0.0000    0.0000    0.2500
  band No.  band energies     occupation 
      1      -7.2783      2.00000
      2      -5.5532      2.00000
      3      -2.8154      2.00000
      4       2.7619      2.00000
      5       3.2225      2.00000
      6       3.6180      2.00000
      7       4.6129      2.00000
      8       4.7313      2.00000
      9       5.1618      2.00000
     10       6.7202      0.00000
     11       6.7984      0.00000
     12       7.1416      0.00000
     13      10.4276      0.00000
     14      11.5192      0.00000
     15      11.8437      0.00000
     16      12.3324      0.00000

 k-point    14 :       0.1111    0.0000    0.2500
  band No.  band energies     occupation 
      1      -7.1931      2.00000
      2      -5.4978      2.00000
      3      -2.9288      2.00000
      4       2.4281      2.00000
      5       3.0944      2.00000
      6       3.5159      2.00000
      7       4.2799      2.00000
      8       4.7627      2.00000
      9       4.8645      2.00000
     10       6.9613      0.00000
     11       7.2003      0.00000
     12       7.5692      0.00000
     13      10.5151      0.00000
     14      11.5253      0.00000
     15      11.7966      0.00000
     16      12.0508      0.00000

 k-point    15 :       0.2222    0.0000    0.2500
  band No.  band energies     occupation 
      1      -6.9523      2.00000
      2      -5.3360      2.00000
      3      -3.2922      2.00000
      4       2.0754      2.00000
      5       2.6903      2.00000
      6       3.1742      2.00000
      7       3.6456      2.00000
      8       4.2635      2.00000
      9       4.6951      2.00000
     10       7.5161      0.00000
     11       7.9773      0.00000
     12       8.3662      0.00000
     13      10.8389      0.00000
     14      11.2630      0.00000
     15      11.8370      0.00000
     16      12.2544      0.00000

 k-point    16 :       0.3333   -0.0000    0.2500
  band No.  band energies     occupation 
      1      -6.6037      2.00000
      2      -5.1253      2.00000
      3      -3.8061      2.00000
      4       1.7356      2.00000
      5       2.1074      2.00000
      6       2.7873      2.00000
      7       3.1659      2.00000
      8       4.2872      2.00000
      9       4.6205      2.00000
     10       7.5650      0.00000
     11       8.1311      0.00000
     12       9.2720      0.00000
     13      10.3202      0.00000
     14      11.7787      0.00000
     15      12.4370      0.00000
     16      13.1120      0.00000

 k-point    17 :       0.4444    0.0000    0.2500
  band No.  band energies     occupation 
      1      -6.2658      2.00000
      2      -5.1014      2.00000
      3      -4.0841      2.00000
      4       1.0570      2.00000
      5       1.8053      2.00000
      6       2.5032      2.00000
      7       3.6377      2.00000
      8       4.3373      2.00000
      9       4.5833      2.00000
     10       7.4278      0.00000
     11       8.0771      0.00000
     12       9.1039      0.00000
     13       9.8194      0.00000
     14      12.2964      0.00000
     15      13.8835      0.00000
     16      14.3227      0.00000

 k-point    18 :      -0.4444   -0.0000    0.2500
  band No.  band energies     occupation 
      1      -6.2195      2.00000
      2      -5.2866      2.00000
      3      -3.8621      2.00000
      4       0.6866      2.00000
      5       1.6909      2.00000
      6       2.4652      2.00000
      7       4.4112      2.00000
      8       4.4803      2.00000
      9       4.7274      2.00000
     10       7.2588      0.00000
     11       7.8790      0.00000
     12       8.2944      0.00000
     13       9.5090      0.00000
     14      12.9069      0.00000
     15      14.1964      0.00000
     16      14.8202      0.00000

 k-point    19 :      -0.3333    0.0000    0.2500
  band No.  band energies     occupation 
      1      -6.5623      2.00000
      2      -5.3287      2.00000
      3      -3.4848      2.00000
      4       0.8842      2.00000
      5       1.7748      2.00000
      6       2.6168      2.00000
      7       4.6903      2.00000
      8       4.7748      2.00000
      9       5.6009      2.00000
     10       6.9371      0.00000
     11       7.3885      0.00000
     12       7.6155      0.00000
     13       9.4223      0.00000
     14      12.8941      0.00000
     15      13.3763      0.00000
     16      14.0287      0.00000

 k-point    20 :      -0.2222   -0.0000    0.2500
  band No.  band energies     occupation 
      1      -6.9393      2.00000
      2      -5.4043      2.00000
      3      -3.1411      2.00000
      4       1.6338      2.00000
      5       2.0702      2.00000
      6       2.9209      2.00000
      7       4.9634      2.00000
      8       5.0880      2.00000
      9       5.6944      2.00000
     10       6.6705      0.00000
     11       7.0626      0.00000
     12       7.3035      0.00000
     13       9.6616      0.00000
     14      12.2799      0.00000
     15      12.4669      0.00000
     16      12.9230      0.00000

 k-point    21 :      -0.1111   -0.0000    0.2500
  band No.  band energies     occupation 
      1      -7.1915      2.00000
      2      -5.5063      2.00000
      3      -2.9050      2.00000
      4       2.4663      2.00000
      5       2.7227      2.00000
      6       3.3331      2.00000
      7       4.7545      2.00000
      8       5.0693      2.00000
      9       5.2893      2.00000
     10       6.5994      0.00000
     11       6.6512      0.00000
     12       7.5937      0.00000
     13      10.1914      0.00000
     14      11.5943      0.00000
     15      11.9686      0.00000
     16      12.4031      0.00000

 k-point    22 :       0.1111    0.1111    0.2500
  band No.  band energies     occupation 
      1      -7.0258      2.00000
      2      -5.4103      2.00000
      3      -3.1188      2.00000
      4       2.0643      2.00000
      5       2.3485      2.00000
      6       3.1967      2.00000
      7       4.2528      2.00000
      8       4.8059      2.00000
      9       5.1935      2.00000
     10       7.0145      0.00000
     11       7.5397      0.00000
     12       7.6853      0.00000
     13      10.2178      0.00000
     14      11.6645      0.00000
     15      11.9813      0.00000
     16      12.3963      0.00000

 k-point    23 :       0.2222    0.1111    0.2500
  band No.  band energies     occupation 
      1      -6.7259      2.00000
      2      -5.2285      2.00000
      3      -3.5636      2.00000
      4       1.6821      2.00000
      5       2.1257      2.00000
      6       2.9961      2.00000
      7       3.2503      2.00000
      8       4.3056      2.00000
      9       5.3583      2.00000
     10       7.2121      0.00000
     11       7.8884      0.00000
     12       8.8649      0.00000
     13      10.6392      0.00000
     14      11.0603      0.00000
     15      12.2948      0.00000
     16      13.1591      0.00000

 k-point    24 :       0.3333    0.1111    0.2500
  band No.  band energies     occupation 
      1      -6.3678      2.00000
      2      -5.0728      2.00000
      3      -4.0248      2.00000
      4       1.3651      2.00000
      5       1.6195      2.00000
      6       2.7004      2.00000
      7       3.3004      2.00000
      8       3.9292      2.00000
      9       5.4339      2.00000
     10       7.0612      0.00000
     11       8.2812      0.00000
     12       9.2675      0.00000
     13      10.1963      0.00000
     14      11.8459      0.00000
     15      12.8192      0.00000
     16      13.8173      0.00000

 k-point    25 :       0.4444    0.1111    0.2500
  band No.  band energies     occupation 
      1      -6.1410      2.00000
      2      -5.1803      2.00000
      3      -4.0691      2.00000
      4       0.8570      2.00000
      5       1.5109      2.00000
      6       2.5999      2.00000
      7       3.5046      2.00000
      8       4.1695      2.00000
      9       5.4814      2.00000
     10       6.9247      0.00000
     11       8.3551      0.00000
     12       8.7144      0.00000
     13       9.9110      0.00000
     14      12.6696      0.00000
     15      13.7925      0.00000
     16      14.0498      0.00000

 k-point    26 :      -0.4444    0.1111    0.2500
  band No.  band energies     occupation 
      1      -6.3244      2.00000
      2      -5.2692      2.00000
      3      -3.7699      2.00000
      4       0.7536      2.00000
      5       1.6757      2.00000
      6       2.5884      2.00000
      7       3.5590      2.00000
      8       5.0553      2.00000
      9       5.5376      2.00000
     10       6.8086      0.00000
     11       7.7208      0.00000
     12       8.3421      0.00000
     13       9.7935      0.00000
     14      12.5183      0.00000
     15      13.3930      0.00000
     16      14.3807      0.00000

 k-point    27 :      -0.3333    0.1111    0.2500
  band No.  band energies     occupation 
      1      -6.7098      2.00000
      2      -5.3105      2.00000
      3      -3.4172      2.00000
      4       1.2297      2.00000
      5       1.9479      2.00000
      6       2.7872      2.00000
      7       3.8139      2.00000
      8       5.2613      2.00000
      9       5.8953      2.00000
     10       6.6273      0.00000
     11       7.2144      0.00000
     12       8.1309      0.00000
     13       9.8515      0.00000
     14      11.8432      0.00000
     15      12.7493      0.00000
     16      13.6002      0.00000

 k-point    28 :       0.2222    0.2222    0.2500
  band No.  band energies     occupation 
      1      -6.3889      2.00000
      2      -5.1638      2.00000
      3      -3.8610      2.00000
      4       1.0358      2.00000
      5       1.8097      2.00000
      6       2.5581      2.00000
      7       3.0885      2.00000
      8       4.7350      2.00000
      9       5.7364      2.00000
     10       6.9575      0.00000
     11       7.7528      0.00000
     12       8.9949      0.00000
     13      10.5660      0.00000
     14      11.1443      0.00000
     15      13.0939      0.00000
     16      14.0151      0.00000

 k-point    29 :       0.3333    0.2222    0.2500
  band No.  band energies     occupation 
      1      -6.0979      2.00000
      2      -5.0898      2.00000
      3      -4.1926      2.00000
      4       1.0331      2.00000
      5       1.3630      2.00000
      6       2.2086      2.00000
      7       3.4270      2.00000
      8       4.2737      2.00000
      9       5.4899      2.00000
     10       7.2048      0.00000
     11       8.4099      0.00000
     12       8.9646      0.00000
     13      10.6111      0.00000
     14      11.7449      0.00000
     15      13.4252      0.00000
     16      13.6218      0.00000

 k-point    30 :       0.4444    0.2222    0.2500
  band No.  band energies     occupation 
      1      -6.0828      2.00000
      2      -5.1521      2.00000
      3      -4.1262      2.00000
      4       0.8579      2.00000
      5       1.4600      2.00000
      6       2.2274      2.00000
      7       3.3328      2.00000
      8       4.6737      2.00000
      9       5.2944      2.00000
     10       7.3830      0.00000
     11       8.0957      0.00000
     12       8.8578      0.00000
     13      10.5112      0.00000
     14      12.0036      0.00000
     15      13.1943      0.00000
     16      14.1749      0.00000

 k-point    31 :       0.3333    0.3333    0.2500
  band No.  band energies     occupation 
      1      -5.9692      2.00000
      2      -5.0909      2.00000
      3      -4.2923      2.00000
      4       0.9890      2.00000
      5       1.3609      2.00000
      6       1.7960      2.00000
      7       3.6653      2.00000
      8       4.5478      2.00000
      9       4.9120      2.00000
     10       7.9715      0.00000
     11       8.4336      0.00000
     12       8.5260      0.00000
     13      11.4346      0.00000
     14      11.7177      0.00000
     15      12.1482      0.00000
     16      14.4714      0.00000

 k-point    32 :       0.0000    0.0000    0.5000
  band No.  band energies     occupation 
      1      -6.6135      2.00000
      2      -6.6135      2.00000
      3      -2.1064      2.00000
      4       2.2710      2.00000
      5       3.4554      2.00000
      6       3.4554      2.00000
      7       4.8311      2.00000
      8       5.1697      2.00000
      9       5.1697      2.00000
     10       6.4655      0.00000
     11       6.4655      0.00000
     12       6.4814      0.00000
     13      10.0890      0.00000
     14      11.2583      0.00000
     15      11.2583      0.00000
     16      13.2085      0.00000

 k-point    33 :       0.1111    0.0000    0.5000
  band No.  band energies     occupation 
      1      -6.5461      2.00000
      2      -6.5304      2.00000
      3      -2.2980      2.00000
      4       2.2401      2.00000
      5       3.2818      2.00000
      6       3.3938      2.00000
      7       4.2241      2.00000
      8       4.6774      2.00000
      9       4.9090      2.00000
     10       6.7602      0.00000
     11       6.9721      0.00000
     12       7.4591      0.00000
     13      10.3213      0.00000
     14      10.9792      0.00000
     15      11.5773      0.00000
     16      13.3042      0.00000

 k-point    34 :       0.2222    0.0000    0.5000
  band No.  band energies     occupation 
      1      -6.3634      2.00000
      2      -6.2888      2.00000
      3      -2.7948      2.00000
      4       1.8656      2.00000
      5       2.6908      2.00000
      6       3.1181      2.00000
      7       4.0263      2.00000
      8       4.2074      2.00000
      9       4.6376      2.00000
     10       7.3269      0.00000
     11       7.7652      0.00000
     12       8.3054      0.00000
     13      10.4452      0.00000
     14      11.3161      0.00000
     15      12.2314      0.00000
     16      12.7968      0.00000

 k-point    35 :       0.3333   -0.0000    0.5000
  band No.  band energies     occupation 
      1      -6.1301      2.00000
      2      -5.9235      2.00000
      3      -3.4237      2.00000
      4       1.0095      2.00000
      5       2.4951      2.00000
      6       2.8194      2.00000
      7       3.7620      2.00000
      8       4.0149      2.00000
      9       5.0009      2.00000
     10       7.6807      0.00000
     11       8.0714      0.00000
     12       8.4000      0.00000
     13      10.4750      0.00000
     14      11.6543      0.00000
     15      12.9417      0.00000
     16      13.2733      0.00000

 k-point    36 :       0.4444    0.0000    0.5000
  band No.  band energies     occupation 
      1      -5.9582      2.00000
      2      -5.5604      2.00000
      3      -3.9469      2.00000
      4       0.4417      2.00000
      5       2.4848      2.00000
      6       2.5950      2.00000
      7       3.5771      2.00000
      8       3.8850      2.00000
      9       5.7433      2.00000
     10       7.0295      0.00000
     11       8.1131      0.00000
     12       8.6771      0.00000
     13      10.6027      0.00000
     14      11.2791      0.00000
     15      14.0025      0.00000
     16      14.2840      0.00000

 k-point    37 :       0.1111    0.1111    0.5000
  band No.  band energies     occupation 
      1      -6.4164      2.00000
      2      -6.3721      2.00000
      3      -2.6388      2.00000
      4       2.0728      2.00000
      5       2.9028      2.00000
      6       3.0041      2.00000
      7       3.9589      2.00000
      8       4.1553      2.00000
      9       5.2409      2.00000
     10       6.6173      0.00000
     11       7.9797      0.00000
     12       8.0686      0.00000
     13      10.7357      0.00000
     14      10.7380      0.00000
     15      12.1990      0.00000
     16      12.8954      0.00000

 k-point    38 :       0.2222    0.1111    0.5000
  band No.  band energies     occupation 
      1      -6.1951      2.00000
      2      -6.0777      2.00000
      3      -3.1883      2.00000
      4       1.4626      2.00000
      5       2.2938      2.00000
      6       2.5084      2.00000
      7       3.9816      2.00000
      8       4.4239      2.00000
      9       5.1587      2.00000
     10       7.0530      0.00000
     11       8.2582      0.00000
     12       8.3861      0.00000
     13      10.5763      0.00000
     14      11.4837      0.00000
     15      12.4990      0.00000
     16      13.2186      0.00000

 k-point    39 :       0.3333    0.1111    0.5000
  band No.  band energies     occupation 
      1      -5.9748      2.00000
      2      -5.7092      2.00000
      3      -3.7606      2.00000
      4       0.7277      2.00000
      5       2.0234      2.00000
      6       2.1888      2.00000
      7       4.0985      2.00000
      8       4.5492      2.00000
      9       5.4197      2.00000
     10       7.3730      0.00000
     11       7.7992      0.00000
     12       8.4475      0.00000
     13      10.6452      0.00000
     14      11.6436      0.00000
     15      12.9019      0.00000
     16      14.0143      0.00000

 k-point    40 :       0.4444    0.1111    0.5000
  band No.  band energies     occupation 
      1      -5.8792      2.00000
      2      -5.4932      2.00000
      3      -4.0527      2.00000
      4       0.4358      2.00000
      5       1.9529      2.00000
      6       2.0635      2.00000
      7       4.2581      2.00000
      8       4.3510      2.00000
      9       6.0028      2.00000
     10       6.8000      0.00000
     11       7.9260      0.00000
     12       8.4174      0.00000
     13      10.7906      0.00000
     14      11.3161      0.00000
     15      14.1709      0.00000
     16      14.3587      0.00000

 k-point    41 :       0.2222    0.2222    0.5000
  band No.  band energies     occupation 
      1      -5.9537      2.00000
      2      -5.7995      2.00000
      3      -3.6671      2.00000
      4       1.1007      2.00000
      5       1.5275      2.00000
      6       1.8987      2.00000
      7       4.5158      2.00000
      8       4.8624      2.00000
      9       5.6641      2.00000
     10       6.8730      0.00000
     11       8.0639      0.00000
     12       8.0939      0.00000
     13      10.9196      0.00000
     14      11.7832      0.00000
     15      12.6127      0.00000
     16      12.8365      0.00000

 k-point    42 :       0.3333    0.2222    0.5000
  band No.  band energies     occupation 
      1      -5.7642      2.00000
      2      -5.5547      2.00000
      3      -4.0421      2.00000
      4       0.7095      2.00000
      5       1.2953      2.00000
      6       1.4932      2.00000
      7       4.9269      2.00000
      8       5.3134      2.00000
      9       5.9112      2.00000
     10       6.9089      0.00000
     11       7.4541      0.00000
     12       7.8168      0.00000
     13      11.3007      0.00000
     14      11.9437      0.00000
     15      12.9109      0.00000
     16      13.2705      0.00000

 k-point    43 :       0.3333    0.3333    0.5000
  band No.  band energies     occupation 
      1      -5.5825      2.00000
      2      -5.5825      2.00000
      3      -4.1482      2.00000
      4       0.9301      2.00000
      5       1.0117      2.00000
      6       1.0117      2.00000
      7       5.2947      2.00000
      8       6.1680      1.97548
      9       6.1680      1.97548
     10       6.3171      0.04903
     11       7.2839      0.00000
     12       7.2839      0.00000
     13      12.0909      0.00000
     14      12.5585      0.00000
     15      12.5585      0.00000
     16      13.2167      0.00000


--------------------------------------------------------------------------------------------------------


 soft charge-density along one line, spin component           1
         0         1         2         3         4         5         6         7         8         9
 total charge-density along one line
 
 pseudopotential strength for first ion, spin component:           1
 51.583  56.124  -0.000  -0.000  -0.045  -0.000  -0.000  -0.065
 56.124  61.067  -0.000  -0.000  -0.049  -0.000  -0.000  -0.071
 -0.000  -0.000  12.703   0.009   0.000  18.310   0.013   0.000
 -0.000  -0.000   0.009  12.717   0.000   0.013  18.331   0.000
 -0.045  -0.049   0.000   0.000  12.717   0.000   0.000  18.331
 -0.000  -0.000  18.310   0.013   0.000  26.403   0.019   0.000
 -0.000  -0.000   0.013  18.331   0.000   0.019  26.432   0.000
 -0.065  -0.071   0.000   0.000  18.331   0.000   0.000  26.432
  0.000   0.000  -0.009   0.000  -0.000  -0.013   0.000  -0.000
  0.014   0.015   0.000  -0.000   0.000   0.000  -0.000   0.000
  0.006   0.007   0.000  -0.000   0.005   0.000  -0.000   0.008
  0.000   0.000   0.000  -0.008  -0.000   0.000  -0.012  -0.000
  0.011   0.012   0.000  -0.000  -0.009   0.000  -0.000  -0.012
 total augmentation occupancy for first ion, spin component:           1
 13.743 -10.095   0.000  -0.000   1.924   0.000  -0.000  -0.486   0.000  -0.159  -0.093   0.000  -0.118
-10.095   8.681   0.000  -0.000  -1.614   0.000   0.000   0.415   0.000   0.143   0.083  -0.000   0.105
  0.000   0.000   2.564   0.192   0.000  -0.512  -0.172   0.000  -0.048   0.000   0.000  -0.046   0.000
 -0.000  -0.000   0.192   2.872  -0.000  -0.172  -0.788   0.000  -0.045   0.000   0.000  -0.108   0.000
  1.924  -1.614   0.000  -0.000   2.787   0.000   0.000  -0.741   0.000  -0.050  -0.013   0.000  -0.048
  0.000   0.000  -0.512  -0.172  -0.000   0.187   0.063   0.000   0.012   0.000  -0.000   0.017  -0.000
 -0.000  -0.000  -0.172  -0.788   0.000   0.063   0.287  -0.000   0.017   0.000   0.000   0.031  -0.000
 -0.486   0.415   0.000   0.000  -0.741   0.000   0.000   0.262  -0.000   0.014   0.003   0.000   0.012
  0.000   0.000  -0.048  -0.045   0.000   0.012   0.017  -0.000   0.010   0.000   0.000   0.011   0.000
 -0.159   0.143   0.000   0.000  -0.050   0.000   0.000   0.014   0.000   0.015   0.003   0.000   0.005
 -0.093   0.083   0.000   0.000  -0.013   0.000   0.000   0.003   0.000   0.003   0.007   0.000  -0.000
  0.000  -0.000  -0.046  -0.108   0.000   0.017   0.031   0.000   0.011   0.000   0.000   0.027  -0.000
 -0.118   0.105   0.000   0.000  -0.048  -0.000  -0.000   0.012   0.000   0.005  -0.000  -0.000   0.010


------------------------ aborting loop because EDIFF is reached ----------------------------------------


    CHARGE:  cpu time    0.0207: real time    0.0208
    FORLOC:  cpu time    0.0008: real time    0.0008
    FORNL :  cpu time    0.0758: real time    0.0760
    STRESS:  cpu time    0.2246: real time    0.2252
    FORCOR:  cpu time    0.0115: real time    0.0115
    FORHAR:  cpu time    0.0028: real time    0.0028
    MIXING:  cpu time    0.0006: real time    0.0006
    OFIELD:  cpu time    0.0000: real time    0.0000

 ---------------------------------------------------------------------------------------------

         DFTD3 V3.0 Rev 1        
 Edisp (eV)   -0.80536

 E6    (eV) :    -0.3076
 E8    (eV) :    -0.4977
 % E8        : 61.80
    FORVDW:  cpu time    0.0097: real time    0.0098

  FORCE on cell =-STRESS in cart. coord.  units (eV):
  Direction    XX          YY          ZZ          XY          YZ          ZX
  --------------------------------------------------------------------------------------
  Alpha Z     2.32871     2.32871     2.32871
  Ewald    -237.50823  -237.50823  -205.08680    -0.00000    -0.00000     0.00000
  Hartree    11.04950    11.04950    19.13746     0.00000     0.00000    -0.00000
  E(xc)     -70.38256   -70.38256   -69.95015    -0.00000     0.00000    -0.00000
  Local    -111.46497  -111.46502  -143.97357    -0.00004     0.00000    -0.00000
  n-local   331.98594   332.83505   328.52639    -1.25919    -0.68337    -1.18572
  augment   -81.06477   -81.06472   -79.08454     0.00004    -0.00000     0.00000
  Kinetic   151.74906   158.85235   149.03228    -7.75082     0.18924     1.76353
  Fock        0.00000     0.00000     0.00000     0.00000     0.00000     0.00000
  vdW        -0.75379    -0.75379    -0.89285     0.00000    -0.00000    -0.00000
  -------------------------------------------------------------------------------------
  Total      -0.08491    -0.08491     0.03694     0.00000    -0.00000     0.00000
  in kB      -1.35530    -1.35530     0.58956     0.00000    -0.00000     0.00000
  external pressure =       -0.71 kB  Pullay stress =        0.00 kB


 VOLUME and BASIS-vectors are now :
 -----------------------------------------------------------------------------
  energy-cutoff  :      520.00
  volume of cell :      100.38
      direct lattice vectors                 reciprocal lattice vectors
     4.428171774  0.000000000 -0.000000000     0.225826831  0.130381182  0.000000000
    -2.214085887  3.834909249  0.000000000     0.000000000  0.260762364  0.000000000
    -0.000000000  0.000000000  5.911013258     0.000000000 -0.000000000  0.169175733

  length of vectors
     4.428171774  4.428171774  5.911013258     0.260762364  0.260762364  0.169175733


 FORCES acting on ions
    electron-ion (+dipol)            ewald-force                    non-local-force                 convergence-correction
 -----------------------------------------------------------------------------------------------
   -.984E+01 0.112E-04 -.929E-06   0.144E+02 0.161E-05 0.143E-05   -.458E+01 -.278E-16 0.111E-15   -.142E-03 -.108E-07 0.143E-09
   0.492E+01 -.852E+01 -.185E-04   -.721E+01 0.125E+02 -.807E-05   0.229E+01 -.397E+01 -.555E-16   0.708E-04 -.123E-03 -.392E-10
   0.492E+01 0.852E+01 0.191E-04   -.721E+01 -.125E+02 0.664E-05   0.229E+01 0.397E+01 0.000E+00   0.708E-04 0.123E-03 -.109E-09
 -----------------------------------------------------------------------------------------------
   0.258E-04 -.840E-05 -.311E-06   0.888E-15 0.000E+00 0.347E-17   0.000E+00 0.000E+00 0.555E-16   -.267E-08 -.590E-08 -.550E-11
 
 
 POSITION                                       TOTAL-FORCE (eV/Angst)
 -----------------------------------------------------------------------------------
      1.23004      0.00000      1.97034        -0.004558      0.000000      0.000000
     -0.61502      1.06525      3.94068         0.002279     -0.003947     -0.000000
      1.59907      2.76966      0.00000         0.002279      0.003947      0.000000
 -----------------------------------------------------------------------------------
    total drift:                                0.000026     -0.000008     -0.000000


--------------------------------------------------------------------------------------------------------



  FREE ENERGIE OF THE ION-ELECTRON SYSTEM (eV)
  ---------------------------------------------------
  free  energy   TOTEN  =       -10.21681355 eV

  energy  without entropy=      -10.21676068  energy(sigma->0) =      -10.21678712
 
 d Force = 0.6735204E-03[ 0.984E-04, 0.125E-02]  d Energy = 0.1244872E-02-0.571E-03
 d Force =-0.3045515E+00[-0.312E+00,-0.298E+00]  d Ewald  = 0.5029004E+00-0.807E+00


--------------------------------------------------------------------------------------------------------


    POTLOK:  cpu time    0.0131: real time    0.0131


--------------------------------------------------------------------------------------------------------




--------------------------------------------------------------------------------------------------------


    WAVPRE:  cpu time    0.0025: real time    0.0046
    FEWALD:  cpu time    0.0001: real time    0.0001
    GENKIN:  cpu time    0.0069: real time    0.0069
    ORTHCH:  cpu time    0.0200: real time    0.0200
     LOOP+:  cpu time    2.1538: real time    2.1645


--------------------------------------- Iteration     10(   1)  ---------------------------------------


    POTLOK:  cpu time    0.0120: real time    0.0133
    SETDIJ:  cpu time    0.0023: real time    0.0023
     EDDAV:  cpu time    0.3166: real time    0.3173
       DOS:  cpu time    0.0005: real time    0.0005
    CHARGE:  cpu time    0.0207: real time    0.0207
    MIXING:  cpu time    0.0005: real time    0.0005
    --------------------------------------------
      LOOP:  cpu time    0.3525: real time    0.3546

 eigenvalue-minimisations  :  1464
 total energy-change (2. order) : 0.8953171E-03  (-0.2831156E-02)
 number of electron      17.9999999 magnetization 
 augmentation part       -3.6098164 magnetization 

 Broyden mixing:
  rms(total) = 0.12725E-01    rms(broyden)= 0.12725E-01
  rms(prec ) = 0.21148E-01
  weight for this iteration     100.00

 Free energy of the ion-electron system (eV)
  ---------------------------------------------------
  alpha Z        PSCENC =         2.33469980
  Ewald energy   TEWEN  =      -680.83533771
  -Hartree energ DENC   =       -41.20733506
  -exchange      EXHF   =         0.00000000
  -V(xc)+E(xc)   XCENC  =       -83.92642257
  PAW double counting   =      1539.94097120    -1424.57819801
  entropy T*S    EENTRO =        -0.00008160
  eigenvalues    EBANDS =         9.04683718
  atomic energy  EATOM  =       669.81430600
  Solvation  Ediel_sol  =         0.00000000
  ---------------------------------------------------
  free energy    TOTEN  =        -9.41056077 eV

  energy without entropy =       -9.41047917  energy(sigma->0) =       -9.41051997


--------------------------------------------------------------------------------------------------------




--------------------------------------- Iteration     10(   2)  ---------------------------------------


    POTLOK:  cpu time    0.0109: real time    0.0110
    SETDIJ:  cpu time    0.0021: real time    0.0021
     EDDAV:  cpu time    0.3547: real time    0.3555
       DOS:  cpu time    0.0005: real time    0.0005
    CHARGE:  cpu time    0.0208: real time    0.0208
    MIXING:  cpu time    0.0005: real time    0.0005
    --------------------------------------------
      LOOP:  cpu time    0.3895: real time    0.3905

 eigenvalue-minimisations  :  1688
 total energy-change (2. order) : 0.2329604E-03  (-0.1051955E-03)
 number of electron      17.9999999 magnetization 
 augmentation part       -3.6100447 magnetization 

 Broyden mixing:
  rms(total) = 0.66263E-02    rms(broyden)= 0.66263E-02
  rms(prec ) = 0.11811E-01
  weight for this iteration     100.00

 eigenvalues of (default mixing * dielectric matrix)
  average eigenvalue GAMMA=   1.0249
  1.0249

 Free energy of the ion-electron system (eV)
  ---------------------------------------------------
  alpha Z        PSCENC =         2.33469980
  Ewald energy   TEWEN  =      -680.83533771
  -Hartree energ DENC   =       -41.10128822
  -exchange      EXHF   =         0.00000000
  -V(xc)+E(xc)   XCENC  =       -83.92566834
  PAW double counting   =      1539.86571869    -1424.50130971
  entropy T*S    EENTRO =        -0.00008540
  eigenvalues    EBANDS =         8.93863708
  atomic energy  EATOM  =       669.81430600
  Solvation  Ediel_sol  =         0.00000000
  ---------------------------------------------------
  free energy    TOTEN  =        -9.41032781 eV

  energy without entropy =       -9.41024242  energy(sigma->0) =       -9.41028511


--------------------------------------------------------------------------------------------------------




--------------------------------------- Iteration     10(   3)  ---------------------------------------


    POTLOK:  cpu time    0.0108: real time    0.0108
    SETDIJ:  cpu time    0.0022: real time    0.0022
     EDDAV:  cpu time    0.3766: real time    0.3775
       DOS:  cpu time    0.0005: real time    0.0005
    CHARGE:  cpu time    0.0208: real time    0.0209
    MIXING:  cpu time    0.0006: real time    0.0006
    --------------------------------------------
      LOOP:  cpu time    0.4115: real time    0.4125

 eigenvalue-minimisations  :  1832
 total energy-change (2. order) : 0.1282133E-03  (-0.1777539E-04)
 number of electron      17.9999999 magnetization 
 augmentation part       -3.6116622 magnetization 

 Broyden mixing:
  rms(total) = 0.36319E-02    rms(broyden)= 0.36319E-02
  rms(prec ) = 0.50238E-02
  weight for this iteration     100.00

 eigenvalues of (default mixing * dielectric matrix)
  average eigenvalue GAMMA=   1.0720
  0.9352  1.2089

 Free energy of the ion-electron system (eV)
  ---------------------------------------------------
  alpha Z        PSCENC =         2.33469980
  Ewald energy   TEWEN  =      -680.83533771
  -Hartree energ DENC   =       -41.01489158
  -exchange      EXHF   =         0.00000000
  -V(xc)+E(xc)   XCENC  =       -83.92357082
  PAW double counting   =      1540.80007603    -1425.43510306
  entropy T*S    EENTRO =        -0.00008781
  eigenvalues    EBANDS =         8.84970956
  atomic energy  EATOM  =       669.81430600
  Solvation  Ediel_sol  =         0.00000000
  ---------------------------------------------------
  free energy    TOTEN  =        -9.41019960 eV

  energy without entropy =       -9.41011179  energy(sigma->0) =       -9.41015569


--------------------------------------------------------------------------------------------------------




--------------------------------------- Iteration     10(   4)  ---------------------------------------


    POTLOK:  cpu time    0.0108: real time    0.0108
    SETDIJ:  cpu time    0.0022: real time    0.0022
     EDDAV:  cpu time    0.3379: real time    0.3387
       DOS:  cpu time    0.0005: real time    0.0005
    CHARGE:  cpu time    0.0211: real time    0.0211
    MIXING:  cpu time    0.0007: real time    0.0007
    --------------------------------------------
      LOOP:  cpu time    0.3732: real time    0.3741

 eigenvalue-minimisations  :  1568
 total energy-change (2. order) : 0.1204682E-04  (-0.2738288E-05)
 number of electron      17.9999999 magnetization 
 augmentation part       -3.6124187 magnetization 

 Broyden mixing:
  rms(total) = 0.44844E-02    rms(broyden)= 0.44844E-02
  rms(prec ) = 0.46639E-02
  weight for this iteration     100.00

 eigenvalues of (default mixing * dielectric matrix)
  average eigenvalue GAMMA=   1.9872
  1.0942  2.4337  2.4337

 Free energy of the ion-electron system (eV)
  ---------------------------------------------------
  alpha Z        PSCENC =         2.33469980
  Ewald energy   TEWEN  =      -680.83533771
  -Hartree energ DENC   =       -40.98524542
  -exchange      EXHF   =         0.00000000
  -V(xc)+E(xc)   XCENC  =       -83.92268308
  PAW double counting   =      1541.56785582    -1426.20349491
  entropy T*S    EENTRO =        -0.00008805
  eigenvalues    EBANDS =         8.81980000
  atomic energy  EATOM  =       669.81430600
  Solvation  Ediel_sol  =         0.00000000
  ---------------------------------------------------
  free energy    TOTEN  =        -9.41018755 eV

  energy without entropy =       -9.41009950  energy(sigma->0) =       -9.41014353


--------------------------------------------------------------------------------------------------------




--------------------------------------- Iteration     10(   5)  ---------------------------------------


    POTLOK:  cpu time    0.0114: real time    0.0114
    SETDIJ:  cpu time    0.0023: real time    0.0023
     EDDAV:  cpu time    0.2243: real time    0.2248
       DOS:  cpu time    0.0005: real time    0.0005
    --------------------------------------------
      LOOP:  cpu time    0.2384: real time    0.2389

 eigenvalue-minimisations  :   800
 total energy-change (2. order) : 0.1036920E-05  (-0.3852629E-06)
 number of electron      17.9999999 magnetization 
 augmentation part       -3.6124187 magnetization 

 Free energy of the ion-electron system (eV)
  ---------------------------------------------------
  alpha Z        PSCENC =         2.33469980
  Ewald energy   TEWEN  =      -680.83533771
  -Hartree energ DENC   =       -40.97325261
  -exchange      EXHF   =         0.00000000
  -V(xc)+E(xc)   XCENC  =       -83.92268235
  PAW double counting   =      1542.52975301    -1427.16764413
  entropy T*S    EENTRO =        -0.00008729
  eigenvalues    EBANDS =         8.81005876
  atomic energy  EATOM  =       669.81430600
  Solvation  Ediel_sol  =         0.00000000
  ---------------------------------------------------
  free energy    TOTEN  =        -9.41018651 eV

  energy without entropy =       -9.41009923  energy(sigma->0) =       -9.41014287


--------------------------------------------------------------------------------------------------------




 average (electrostatic) potential at core
  the test charge radii are     1.1897
  (the norm of the test charge is              1.0000)
       1 -88.8482       2 -88.8482       3 -88.8482
 
 
 
 E-fermi :   6.2681     XC(G=0):  -9.1592     alpha+bet :-10.7407


 k-point     1 :       0.0000    0.0000    0.0000
  band No.  band energies     occupation 
      1      -7.4845      2.00000
      2      -4.1815      2.00000
      3      -4.1815      2.00000
      4       3.1582      2.00000
      5       3.5020      2.00000
      6       3.5020      2.00000
      7       4.4399      2.00000
      8       4.4399      2.00000
      9       5.1486      2.00000
     10       7.1607      0.00000
     11       7.1607      0.00000
     12       7.7406      0.00000
     13      11.1398      0.00000
     14      11.1398      0.00000
     15      12.3523      0.00000
     16      12.3523      0.00000

 k-point     2 :       0.1111    0.0000    0.0000
  band No.  band energies     occupation 
      1      -7.3949      2.00000
      2      -4.2039      2.00000
      3      -4.1580      2.00000
      4       2.4781      2.00000
      5       3.0173      2.00000
      6       3.2371      2.00000
      7       4.7824      2.00000
      8       5.0264      2.00000
      9       5.5097      2.00000
     10       6.8106      0.00000
     11       7.0720      0.00000
     12       7.5727      0.00000
     13      10.8161      0.00000
     14      11.0965      0.00000
     15      12.2184      0.00000
     16      12.4843      0.00000

 k-point     3 :       0.2222    0.0000    0.0000
  band No.  band energies     occupation 
      1      -7.1361      2.00000
      2      -4.3197      2.00000
      3      -4.0919      2.00000
      4       1.6469      2.00000
      5       2.3946      2.00000
      6       2.8166      2.00000
      7       4.9085      2.00000
      8       5.2175      2.00000
      9       5.3541      2.00000
     10       6.9239      0.00000
     11       7.1392      0.00000
     12       7.6958      0.00000
     13       9.9941      0.00000
     14      11.3389      0.00000
     15      12.4351      0.00000
     16      13.1654      0.00000

 k-point     4 :       0.3333   -0.0000    0.0000
  band No.  band energies     occupation 
      1      -6.7488      2.00000
      2      -4.6017      2.00000
      3      -4.0067      2.00000
      4       1.2756      2.00000
      5       1.9126      2.00000
      6       2.4808      2.00000
      7       3.7388      2.00000
      8       5.3422      2.00000
      9       5.3949      2.00000
     10       6.8630      0.00000
     11       7.0306      0.00000
     12       8.8928      0.00000
     13       9.3180      0.00000
     14      12.1567      0.00000
     15      13.2186      0.00000
     16      14.1399      0.00000

 k-point     5 :       0.4444    0.0000    0.0000
  band No.  band energies     occupation 
      1      -6.3683      2.00000
      2      -4.9508      2.00000
      3      -3.9454      2.00000
      4       1.2916      2.00000
      5       1.7174      2.00000
      6       2.3602      2.00000
      7       2.7622      2.00000
      8       5.2876      2.00000
      9       5.4211      2.00000
     10       6.8606      0.00000
     11       6.9117      0.00000
     12       8.9588      0.00000
     13       9.7668      0.00000
     14      13.3450      0.00000
     15      14.4801      0.00000
     16      15.0352      0.00000

 k-point     6 :       0.1111    0.1111    0.0000
  band No.  band energies     occupation 
      1      -7.2205      2.00000
      2      -4.2542      2.00000
      3      -4.1333      2.00000
      4       1.9236      2.00000
      5       2.2412      2.00000
      6       3.3308      2.00000
      7       4.4956      2.00000
      8       5.4765      2.00000
      9       5.4837      2.00000
     10       6.7908      0.00000
     11       7.1178      0.00000
     12       7.6642      0.00000
     13      10.5889      0.00000
     14      10.6430      0.00000
     15      12.5534      0.00000
     16      12.9122      0.00000

 k-point     7 :       0.2222    0.1111    0.0000
  band No.  band energies     occupation 
      1      -6.8944      2.00000
      2      -4.4242      2.00000
      3      -4.1000      2.00000
      4       1.4253      2.00000
      5       1.7955      2.00000
      6       2.9761      2.00000
      7       4.3055      2.00000
      8       4.6154      2.00000
      9       5.1649      2.00000
     10       7.2620      0.00000
     11       7.6773      0.00000
     12       8.1855      0.00000
     13       9.9243      0.00000
     14      10.9808      0.00000
     15      13.1749      0.00000
     16      13.6343      0.00000

 k-point     8 :       0.3333    0.1111    0.0000
  band No.  band energies     occupation 
      1      -6.4905      2.00000
      2      -4.7489      2.00000
      3      -4.0610      2.00000
      4       1.3158      2.00000
      5       1.6586      2.00000
      6       2.5531      2.00000
      7       3.2606      2.00000
      8       4.6064      2.00000
      9       4.8753      2.00000
     10       7.4320      0.00000
     11       7.6688      0.00000
     12       9.3017      0.00000
     13       9.4779      0.00000
     14      11.9650      0.00000
     15      14.1567      0.00000
     16      14.5754      0.00000

 k-point     9 :       0.4444    0.1111    0.0000
  band No.  band energies     occupation 
      1      -6.2546      2.00000
      2      -4.9692      2.00000
      3      -4.0435      2.00000
      4       1.3797      2.00000
      5       1.7066      2.00000
      6       2.5184      2.00000
      7       2.5602      2.00000
      8       4.6859      2.00000
      9       4.7054      2.00000
     10       7.4656      0.00000
     11       7.6510      0.00000
     12       9.3145      0.00000
     13       9.8048      0.00000
     14      13.0499      0.00000
     15      13.8931      0.00000
     16      15.1370      0.00000

 k-point    10 :       0.2222    0.2222    0.0000
  band No.  band energies     occupation 
      1      -6.5405      2.00000
      2      -4.5692      2.00000
      3      -4.2134      2.00000
      4       1.4221      2.00000
      5       1.5001      2.00000
      6       2.9445      2.00000
      7       3.7497      2.00000
      8       4.0948      2.00000
      9       4.1143      2.00000
     10       8.1891      0.00000
     11       8.4206      0.00000
     12       8.5529      0.00000
     13      10.3773      0.00000
     14      10.6758      0.00000
     15      13.4531      0.00000
     16      14.8152      0.00000

 k-point    11 :       0.3333    0.2222    0.0000
  band No.  band energies     occupation 
      1      -6.2103      2.00000
      2      -4.7782      2.00000
      3      -4.3068      2.00000
      4       1.5323      2.00000
      5       1.6515      2.00000
      6       2.6874      2.00000
      7       3.0022      2.00000
      8       3.7464      2.00000
      9       3.8247      2.00000
     10       8.4164      0.00000
     11       8.6582      0.00000
     12       9.4037      0.00000
     13      10.2805      0.00000
     14      11.6677      0.00000
     15      13.3197      0.00000
     16      14.3885      0.00000

 k-point    12 :       0.3333    0.3333    0.0000
  band No.  band energies     occupation 
      1      -6.0793      2.00000
      2      -4.6133      2.00000
      3      -4.6133      2.00000
      4       1.7221      2.00000
      5       1.7221      2.00000
      6       2.9817      2.00000
      7       2.9817      2.00000
      8       3.1107      2.00000
      9       3.2626      2.00000
     10       9.0795      0.00000
     11       9.0795      0.00000
     12       9.2988      0.00000
     13      11.0452      0.00000
     14      11.8729      0.00000
     15      11.8729      0.00000
     16      14.7791      0.00000

 k-point    13 :       0.0000    0.0000    0.2500
  band No.  band energies     occupation 
      1      -7.2593      2.00000
      2      -5.5356      2.00000
      3      -2.7904      2.00000
      4       2.7856      2.00000
      5       3.2673      2.00000
      6       3.6603      2.00000
      7       4.6487      2.00000
      8       4.7791      2.00000
      9       5.1975      2.00000
     10       6.7542      0.00000
     11       6.8287      0.00000
     12       7.1905      0.00000
     13      10.4404      0.00000
     14      11.5584      0.00000
     15      11.8778      0.00000
     16      12.3595      0.00000

 k-point    14 :       0.1111    0.0000    0.2500
  band No.  band energies     occupation 
      1      -7.1734      2.00000
      2      -5.4793      2.00000
      3      -2.9028      2.00000
      4       2.4514      2.00000
      5       3.1369      2.00000
      6       3.5578      2.00000
      7       4.3106      2.00000
      8       4.7954      2.00000
      9       4.9025      2.00000
     10       7.0016      0.00000
     11       7.2334      0.00000
     12       7.6169      0.00000
     13      10.5371      0.00000
     14      11.5624      0.00000
     15      11.8235      0.00000
     16      12.0736      0.00000

 k-point    15 :       0.2222    0.0000    0.2500
  band No.  band energies     occupation 
      1      -6.9305      2.00000
      2      -5.3148      2.00000
      3      -3.2653      2.00000
      4       2.0969      2.00000
      5       2.7281      2.00000
      6       3.2075      2.00000
      7       3.6707      2.00000
      8       4.2922      2.00000
      9       4.7238      2.00000
     10       7.5468      0.00000
     11       8.0211      0.00000
     12       8.4127      0.00000
     13      10.8703      0.00000
     14      11.2912      0.00000
     15      11.8564      0.00000
     16      12.2847      0.00000

 k-point    16 :       0.3333   -0.0000    0.2500
  band No.  band energies     occupation 
      1      -6.5784      2.00000
      2      -5.0995      2.00000
      3      -3.7814      2.00000
      4       1.7586      2.00000
      5       2.1342      2.00000
      6       2.8190      2.00000
      7       3.1798      2.00000
      8       4.3155      2.00000
      9       4.6462      2.00000
     10       7.5929      0.00000
     11       8.1680      0.00000
     12       9.3074      0.00000
     13      10.3373      0.00000
     14      11.8048      0.00000
     15      12.4698      0.00000
     16      13.1610      0.00000

 k-point    17 :       0.4444    0.0000    0.2500
  band No.  band energies     occupation 
      1      -6.2363      2.00000
      2      -5.0735      2.00000
      3      -4.0616      2.00000
      4       1.0741      2.00000
      5       1.8266      2.00000
      6       2.5357      2.00000
      7       3.6486      2.00000
      8       4.3664      2.00000
      9       4.6077      2.00000
     10       7.4551      0.00000
     11       8.1098      0.00000
     12       9.1245      0.00000
     13       9.8340      0.00000
     14      12.3080      0.00000
     15      13.9413      0.00000
     16      14.3780      0.00000

 k-point    18 :      -0.4444   -0.0000    0.2500
  band No.  band energies     occupation 
      1      -6.1888      2.00000
      2      -5.2625      2.00000
      3      -3.8356      2.00000
      4       0.7015      2.00000
      5       1.7075      2.00000
      6       2.4985      2.00000
      7       4.4332      2.00000
      8       4.5113      2.00000
      9       4.7451      2.00000
     10       7.2877      0.00000
     11       7.9109      0.00000
     12       8.3123      0.00000
     13       9.5250      0.00000
     14      12.9215      0.00000
     15      14.2476      0.00000
     16      14.8661      0.00000

 k-point    19 :      -0.3333    0.0000    0.2500
  band No.  band energies     occupation 
      1      -6.5365      2.00000
      2      -5.3055      2.00000
      3      -3.4560      2.00000
      4       0.9030      2.00000
      5       1.7895      2.00000
      6       2.6514      2.00000
      7       4.7214      2.00000
      8       4.8103      2.00000
      9       5.6197      2.00000
     10       6.9647      0.00000
     11       7.4118      0.00000
     12       7.6524      0.00000
     13       9.4425      0.00000
     14      12.9321      0.00000
     15      13.4140      0.00000
     16      14.0632      0.00000

 k-point    20 :      -0.2222   -0.0000    0.2500
  band No.  band energies     occupation 
      1      -6.9173      2.00000
      2      -5.3835      2.00000
      3      -3.1129      2.00000
      4       1.6611      2.00000
      5       2.0872      2.00000
      6       2.9576      2.00000
      7       4.9996      2.00000
      8       5.1272      2.00000
      9       5.7262      2.00000
     10       6.6985      0.00000
     11       7.1026      0.00000
     12       7.3319      0.00000
     13       9.6857      0.00000
     14      12.3045      0.00000
     15      12.5037      0.00000
     16      12.9669      0.00000

 k-point    21 :      -0.1111   -0.0000    0.2500
  band No.  band energies     occupation 
      1      -7.1718      2.00000
      2      -5.4878      2.00000
      3      -2.8789      2.00000
      4       2.4887      2.00000
      5       2.7607      2.00000
      6       3.3727      2.00000
      7       4.7864      2.00000
      8       5.1134      2.00000
      9       5.3322      2.00000
     10       6.6348      0.00000
     11       6.6836      0.00000
     12       7.6338      0.00000
     13      10.2142      0.00000
     14      11.6184      0.00000
     15      12.0043      0.00000
     16      12.4355      0.00000

 k-point    22 :       0.1111    0.1111    0.2500
  band No.  band energies     occupation 
      1      -7.0047      2.00000
      2      -5.3900      2.00000
      3      -3.0915      2.00000
      4       2.0905      2.00000
      5       2.3745      2.00000
      6       3.2338      2.00000
      7       4.2832      2.00000
      8       4.8438      2.00000
      9       5.2247      2.00000
     10       7.0466      0.00000
     11       7.5783      0.00000
     12       7.7276      0.00000
     13      10.2469      0.00000
     14      11.6918      0.00000
     15      11.9975      0.00000
     16      12.4384      0.00000

 k-point    23 :       0.2222    0.1111    0.2500
  band No.  band energies     occupation 
      1      -6.7020      2.00000
      2      -5.2049      2.00000
      3      -3.5369      2.00000
      4       1.7085      2.00000
      5       2.1487      2.00000
      6       3.0215      2.00000
      7       3.2749      2.00000
      8       4.3355      2.00000
      9       5.3879      2.00000
     10       7.2348      0.00000
     11       7.9294      0.00000
     12       8.9078      0.00000
     13      10.6684      0.00000
     14      11.0889      0.00000
     15      12.3049      0.00000
     16      13.2111      0.00000

 k-point    24 :       0.3333    0.1111    0.2500
  band No.  band energies     occupation 
      1      -6.3398      2.00000
      2      -5.0449      2.00000
      3      -4.0017      2.00000
      4       1.3876      2.00000
      5       1.6408      2.00000
      6       2.7262      2.00000
      7       3.3175      2.00000
      8       3.9506      2.00000
      9       5.4648      2.00000
     10       7.0821      0.00000
     11       8.3189      0.00000
     12       9.2962      0.00000
     13      10.2163      0.00000
     14      11.8816      0.00000
     15      12.8382      0.00000
     16      13.8572      0.00000

 k-point    25 :       0.4444    0.1111    0.2500
  band No.  band energies     occupation 
      1      -6.1093      2.00000
      2      -5.1543      2.00000
      3      -4.0451      2.00000
      4       0.8732      2.00000
      5       1.5310      2.00000
      6       2.6298      2.00000
      7       3.5248      2.00000
      8       4.1816      2.00000
      9       5.5147      2.00000
     10       6.9471      0.00000
     11       8.3886      0.00000
     12       8.7351      0.00000
     13       9.9309      0.00000
     14      12.6918      0.00000
     15      13.8413      0.00000
     16      14.1014      0.00000

 k-point    26 :      -0.4444    0.1111    0.2500
  band No.  band energies     occupation 
      1      -6.2955      2.00000
      2      -5.2448      2.00000
      3      -3.7425      2.00000
      4       0.7704      2.00000
      5       1.6935      2.00000
      6       2.6187      2.00000
      7       3.5809      2.00000
      8       5.0753      2.00000
      9       5.5706      2.00000
     10       6.8345      0.00000
     11       7.7399      0.00000
     12       8.3790      0.00000
     13       9.8163      0.00000
     14      12.5607      0.00000
     15      13.4157      0.00000
     16      14.4118      0.00000

 k-point    27 :      -0.3333    0.1111    0.2500
  band No.  band energies     occupation 
      1      -6.6857      2.00000
      2      -5.2877      2.00000
      3      -3.3888      2.00000
      4       1.2527      2.00000
      5       1.9647      2.00000
      6       2.8201      2.00000
      7       3.8395      2.00000
      8       5.3012      2.00000
      9       5.9243      2.00000
     10       6.6476      0.00000
     11       7.2429      0.00000
     12       8.1730      0.00000
     13       9.8782      0.00000
     14      11.8739      0.00000
     15      12.7721      0.00000
     16      13.6525      0.00000

 k-point    28 :       0.2222    0.2222    0.2500
  band No.  band energies     occupation 
      1      -6.3612      2.00000
      2      -5.1379      2.00000
      3      -3.8351      2.00000
      4       1.0565      2.00000
      5       1.8314      2.00000
      6       2.5832      2.00000
      7       3.1033      2.00000
      8       4.7646      2.00000
      9       5.7618      2.00000
     10       6.9753      0.00000
     11       7.7898      0.00000
     12       9.0333      0.00000
     13      10.5988      0.00000
     14      11.1735      0.00000
     15      13.1113      0.00000
     16      14.0531      0.00000

 k-point    29 :       0.3333    0.2222    0.2500
  band No.  band energies     occupation 
      1      -6.0660      2.00000
      2      -5.0617      2.00000
      3      -4.1701      2.00000
      4       1.0537      2.00000
      5       1.3815      2.00000
      6       2.2302      2.00000
      7       3.4427      2.00000
      8       4.2927      2.00000
      9       5.5140      2.00000
     10       7.2276      0.00000
     11       8.4460      0.00000
     12       8.9930      0.00000
     13      10.6417      0.00000
     14      11.7875      0.00000
     15      13.4735      0.00000
     16      13.6433      0.00000

 k-point    30 :       0.4444    0.2222    0.2500
  band No.  band energies     occupation 
      1      -6.0504      2.00000
      2      -5.1256      2.00000
      3      -4.1021      2.00000
      4       0.8757      2.00000
      5       1.4802      2.00000
      6       2.2497      2.00000
      7       3.3492      2.00000
      8       4.6914      2.00000
      9       5.3185      2.00000
     10       7.4104      0.00000
     11       8.1205      0.00000
     12       8.8940      0.00000
     13      10.5413      0.00000
     14      12.0478      0.00000
     15      13.2359      0.00000
     16      14.2115      0.00000

 k-point    31 :       0.3333    0.3333    0.2500
  band No.  band energies     occupation 
      1      -5.9348      2.00000
      2      -5.0630      2.00000
      3      -4.2706      2.00000
      4       1.0096      2.00000
      5       1.3807      2.00000
      6       1.8123      2.00000
      7       3.6828      2.00000
      8       4.5666      2.00000
      9       4.9288      2.00000
     10       7.9955      0.00000
     11       8.4652      0.00000
     12       8.5593      0.00000
     13      11.4784      0.00000
     14      11.7651      0.00000
     15      12.1887      0.00000
     16      14.5028      0.00000

 k-point    32 :       0.0000    0.0000    0.5000
  band No.  band energies     occupation 
      1      -6.5954      2.00000
      2      -6.5954      2.00000
      3      -2.0748      2.00000
      4       2.2812      2.00000
      5       3.4972      2.00000
      6       3.4972      2.00000
      7       4.8680      2.00000
      8       5.2163      2.00000
      9       5.2163      2.00000
     10       6.5071      0.00000
     11       6.5071      0.00000
     12       6.5115      0.00000
     13      10.0990      0.00000
     14      11.2975      0.00000
     15      11.2975      0.00000
     16      13.2442      0.00000

 k-point    33 :       0.1111    0.0000    0.5000
  band No.  band energies     occupation 
      1      -6.5271      2.00000
      2      -6.5115      2.00000
      3      -2.2664      2.00000
      4       2.2545      2.00000
      5       3.3209      2.00000
      6       3.4338      2.00000
      7       4.2522      2.00000
      8       4.7148      2.00000
      9       4.9489      2.00000
     10       6.7966      0.00000
     11       7.0181      0.00000
     12       7.5047      0.00000
     13      10.3355      0.00000
     14      11.0120      0.00000
     15      11.6177      0.00000
     16      13.3307      0.00000

 k-point    34 :       0.2222    0.0000    0.5000
  band No.  band energies     occupation 
      1      -6.3422      2.00000
      2      -6.2676      2.00000
      3      -2.7641      2.00000
      4       1.8917      2.00000
      5       2.7131      2.00000
      6       3.1574      2.00000
      7       4.0506      2.00000
      8       4.2350      2.00000
      9       4.6669      2.00000
     10       7.3631      0.00000
     11       7.8137      0.00000
     12       8.3434      0.00000
     13      10.4633      0.00000
     14      11.3489      0.00000
     15      12.2726      0.00000
     16      12.8209      0.00000

 k-point    35 :       0.3333   -0.0000    0.5000
  band No.  band energies     occupation 
      1      -6.1057      2.00000
      2      -5.8984      2.00000
      3      -3.3964      2.00000
      4       1.0313      2.00000
      5       2.5190      2.00000
      6       2.8563      2.00000
      7       3.7893      2.00000
      8       4.0368      2.00000
      9       5.0159      2.00000
     10       7.7081      0.00000
     11       8.0953      0.00000
     12       8.4445      0.00000
     13      10.4892      0.00000
     14      11.6738      0.00000
     15      12.9820      0.00000
     16      13.3209      0.00000

 k-point    36 :       0.4444    0.0000    0.5000
  band No.  band energies     occupation 
      1      -5.9312      2.00000
      2      -5.5298      2.00000
      3      -3.9250      2.00000
      4       0.4582      2.00000
      5       2.5140      2.00000
      6       2.6285      2.00000
      7       3.6024      2.00000
      8       3.9055      2.00000
      9       5.7560      2.00000
     10       7.0383      0.00000
     11       8.1394      0.00000
     12       8.7167      0.00000
     13      10.6157      0.00000
     14      11.2862      0.00000
     15      14.0295      0.00000
     16      14.3346      0.00000

 k-point    37 :       0.1111    0.1111    0.5000
  band No.  band energies     occupation 
      1      -6.3960      2.00000
      2      -6.3517      2.00000
      3      -2.6076      2.00000
      4       2.0953      2.00000
      5       2.9351      2.00000
      6       3.0393      2.00000
      7       3.9803      2.00000
      8       4.1804      2.00000
      9       5.2849      2.00000
     10       6.6523      0.00000
     11       8.0229      0.00000
     12       8.1137      0.00000
     13      10.7581      0.00000
     14      10.7636      0.00000
     15      12.2423      0.00000
     16      12.9237      0.00000

 k-point    38 :       0.2222    0.1111    0.5000
  band No.  band energies     occupation 
      1      -6.1718      2.00000
      2      -6.0543      2.00000
      3      -3.1592      2.00000
      4       1.4882      2.00000
      5       2.3189      2.00000
      6       2.5384      2.00000
      7       4.0010      2.00000
      8       4.4425      2.00000
      9       5.1956      2.00000
     10       7.0877      0.00000
     11       8.2897      0.00000
     12       8.4218      0.00000
     13      10.5969      0.00000
     14      11.5135      0.00000
     15      12.5220      0.00000
     16      13.2588      0.00000

 k-point    39 :       0.3333    0.1111    0.5000
  band No.  band energies     occupation 
      1      -5.9483      2.00000
      2      -5.6810      2.00000
      3      -3.7360      2.00000
      4       0.7468      2.00000
      5       2.0492      2.00000
      6       2.2162      2.00000
      7       4.1205      2.00000
      8       4.5762      2.00000
      9       5.4367      2.00000
     10       7.3933      0.00000
     11       7.8236      0.00000
     12       8.4820      0.00000
     13      10.6614      0.00000
     14      11.6574      0.00000
     15      12.9416      0.00000
     16      14.0498      0.00000

 k-point    40 :       0.4444    0.1111    0.5000
  band No.  band energies     occupation 
      1      -5.8512      2.00000
      2      -5.4610      2.00000
      3      -4.0320      2.00000
      4       0.4520      2.00000
      5       1.9792      2.00000
      6       2.0900      2.00000
      7       4.2862      2.00000
      8       4.3738      2.00000
      9       6.0192      2.00000
     10       6.8071      0.00000
     11       7.9500      0.00000
     12       8.4532      0.00000
     13      10.8065      0.00000
     14      11.3234      0.00000
     15      14.2119      0.00000
     16      14.4141      0.00000

 k-point    41 :       0.2222    0.2222    0.5000
  band No.  band energies     occupation 
      1      -5.9272      2.00000
      2      -5.7726      2.00000
      3      -3.6411      2.00000
      4       1.1239      2.00000
      5       1.5499      2.00000
      6       1.9226      2.00000
      7       4.5324      2.00000
      8       4.8796      2.00000
      9       5.7044      2.00000
     10       6.8997      0.00000
     11       8.0909      0.00000
     12       8.1147      0.00000
     13      10.9482      0.00000
     14      11.8104      0.00000
     15      12.6342      0.00000
     16      12.8536      0.00000

 k-point    42 :       0.3333    0.2222    0.5000
  band No.  band energies     occupation 
      1      -5.7350      2.00000
      2      -5.5233      2.00000
      3      -4.0203      2.00000
      4       0.7279      2.00000
      5       1.3166      2.00000
      6       1.5154      2.00000
      7       4.9481      2.00000
      8       5.3383      2.00000
      9       5.9355      2.00000
     10       6.9271      0.00000
     11       7.4723      0.00000
     12       7.8421      0.00000
     13      11.3283      0.00000
     14      11.9624      0.00000
     15      12.9468      0.00000
     16      13.3035      0.00000

 k-point    43 :       0.3333    0.3333    0.5000
  band No.  band energies     occupation 
      1      -5.5508      2.00000
      2      -5.5508      2.00000
      3      -4.1276      2.00000
      4       0.9503      2.00000
      5       1.0304      2.00000
      6       1.0304      2.00000
      7       5.3174      2.00000
      8       6.1971      1.95548
      9       6.1971      1.95548
     10       6.3283      0.08903
     11       7.3011      0.00000
     12       7.3011      0.00000
     13      12.1340      0.00000
     14      12.5870      0.00000
     15      12.5870      0.00000
     16      13.2648      0.00000


--------------------------------------------------------------------------------------------------------


 soft charge-density along one line, spin component           1
         0         1         2         3         4         5         6         7         8         9
 total charge-density along one line
 
 pseudopotential strength for first ion, spin component:           1
 51.571  56.111  -0.000  -0.000  -0.044  -0.000  -0.000  -0.064
 56.111  61.054  -0.000  -0.000  -0.048  -0.000  -0.000  -0.070
 -0.000  -0.000  12.701   0.009   0.000  18.307   0.013   0.000
 -0.000  -0.000   0.009  12.715   0.000   0.013  18.328   0.000
 -0.044  -0.048   0.000   0.000  12.715   0.000   0.000  18.328
 -0.000  -0.000  18.307   0.013   0.000  26.398   0.018   0.000
 -0.000  -0.000   0.013  18.328   0.000   0.018  26.428   0.000
 -0.064  -0.070   0.000   0.000  18.328   0.000   0.000  26.427
  0.000   0.000  -0.009   0.000  -0.000  -0.013   0.000  -0.000
  0.014   0.015   0.000  -0.000   0.000   0.000  -0.000   0.000
  0.006   0.007   0.000  -0.000   0.005   0.000  -0.000   0.008
  0.000   0.000   0.000  -0.008  -0.000   0.000  -0.012  -0.000
  0.011   0.012   0.000  -0.000  -0.008   0.000  -0.000  -0.012
 total augmentation occupancy for first ion, spin component:           1
 13.786 -10.131   0.000  -0.000   1.909   0.000   0.000  -0.481  -0.000  -0.158  -0.095   0.000  -0.117
-10.131   8.712   0.000   0.000  -1.602   0.000   0.000   0.411   0.000   0.142   0.084   0.000   0.105
  0.000   0.000   2.565   0.190   0.000  -0.513  -0.170   0.000  -0.048   0.000   0.000  -0.046   0.000
  0.000  -0.000   0.190   2.878  -0.000  -0.170  -0.792   0.000  -0.045   0.000   0.000  -0.107   0.000
  1.909  -1.602   0.000  -0.000   2.787   0.000   0.000  -0.740   0.000  -0.050  -0.013   0.000  -0.048
  0.000   0.000  -0.513  -0.170   0.000   0.188   0.062   0.000   0.011   0.000   0.000   0.016  -0.000
  0.000   0.000  -0.170  -0.792   0.000   0.062   0.289  -0.000   0.016   0.000   0.000   0.031  -0.000
 -0.481   0.411  -0.000   0.000  -0.740   0.000   0.000   0.261  -0.000   0.014   0.003  -0.000   0.011
  0.000   0.000  -0.048  -0.045   0.000   0.011   0.016  -0.000   0.010  -0.000   0.000   0.011   0.000
 -0.158   0.142   0.000   0.000  -0.050   0.000   0.000   0.014  -0.000   0.015   0.004   0.000   0.005
 -0.095   0.084   0.000   0.000  -0.013  -0.000   0.000   0.003  -0.000   0.004   0.007  -0.000  -0.000
  0.000   0.000  -0.046  -0.107   0.000   0.016   0.031  -0.000   0.011   0.000   0.000   0.027  -0.000
 -0.117   0.105   0.000   0.000  -0.048  -0.000  -0.000   0.011   0.000   0.005  -0.000  -0.000   0.010


------------------------ aborting loop because EDIFF is reached ----------------------------------------


    CHARGE:  cpu time    0.0208: real time    0.0208
    FORLOC:  cpu time    0.0008: real time    0.0008
    FORNL :  cpu time    0.0764: real time    0.0766
    STRESS:  cpu time    0.2243: real time    0.2248
    FORCOR:  cpu time    0.0114: real time    0.0114
    FORHAR:  cpu time    0.0029: real time    0.0029
    MIXING:  cpu time    0.0006: real time    0.0006
    OFIELD:  cpu time    0.0000: real time    0.0000

 ---------------------------------------------------------------------------------------------

         DFTD3 V3.0 Rev 1        
 Edisp (eV)   -0.80694

 E6    (eV) :    -0.3084
 E8    (eV) :    -0.4986
 % E8        : 61.79
    FORVDW:  cpu time    0.0099: real time    0.0100

  FORCE on cell =-STRESS in cart. coord.  units (eV):
  Direction    XX          YY          ZZ          XY          YZ          ZX
  --------------------------------------------------------------------------------------
  Alpha Z     2.33470     2.33470     2.33470
  Ewald    -237.85995  -237.85995  -205.11604    -0.00000    -0.00000     0.00000
  Hartree    10.94926    10.94926    19.06977     0.00000     0.00000    -0.00000
  E(xc)     -70.39294   -70.39295   -69.95215    -0.00000     0.00000    -0.00000
  Local    -111.04937  -111.04941  -143.82962    -0.00004     0.00000    -0.00000
  n-local   332.01860   332.85434   328.49957    -1.28204    -0.68653    -1.19970
  augment   -81.07388   -81.07384   -79.06720     0.00004    -0.00000     0.00000
  Kinetic   151.80102   158.92502   148.98288    -7.76282     0.16868     1.72843
  Fock        0.00000     0.00000     0.00000     0.00000     0.00000     0.00000
  vdW        -0.74754    -0.74754    -0.89865     0.00000    -0.00000    -0.00000
  -------------------------------------------------------------------------------------
  Total      -0.04024    -0.04024     0.02325     0.00000     0.00000     0.00000
  in kB      -0.64387    -0.64387     0.37210     0.00000     0.00000     0.00000
  external pressure =       -0.31 kB  Pullay stress =        0.00 kB


 VOLUME and BASIS-vectors are now :
 -----------------------------------------------------------------------------
  energy-cutoff  :      520.00
  volume of cell :      100.12
      direct lattice vectors                 reciprocal lattice vectors
     4.418272689  0.000000000 -0.000000000     0.226332793  0.130673299  0.000000000
    -2.209136345  3.826336390  0.000000000    -0.000000000  0.261346598  0.000000000
    -0.000000000 -0.000000000  5.922291704     0.000000000 -0.000000000  0.168853554

  length of vectors
     4.418272689  4.418272689  5.922291704     0.261346598  0.261346598  0.168853554


 FORCES acting on ions
    electron-ion (+dipol)            ewald-force                    non-local-force                 convergence-correction
 -----------------------------------------------------------------------------------------------
   -.966E+01 0.111E-04 -.917E-06   0.142E+02 0.160E-05 0.142E-05   -.455E+01 0.173E-18 0.000E+00   -.207E-02 -.202E-08 -.222E-10
   0.483E+01 -.837E+01 -.185E-04   -.711E+01 0.123E+02 -.812E-05   0.227E+01 -.394E+01 -.555E-16   0.104E-02 -.179E-02 0.185E-09
   0.483E+01 0.837E+01 0.191E-04   -.711E+01 -.123E+02 0.670E-05   0.227E+01 0.394E+01 0.000E+00   0.104E-02 0.179E-02 -.160E-09
 -----------------------------------------------------------------------------------------------
   0.259E-04 -.836E-05 -.316E-06   0.888E-15 0.000E+00 0.521E-17   -.444E-15 0.444E-15 -.555E-16   -.270E-09 -.393E-09 0.285E-11
 
 
 POSITION                                       TOTAL-FORCE (eV/Angst)
 -----------------------------------------------------------------------------------
      1.22868     -0.00000      1.97410        -0.002622      0.000000      0.000000
     -0.61434      1.06407      3.94819         0.001311     -0.002271     -0.000000
      1.59480      2.76227      0.00000         0.001311      0.002271      0.000000
 -----------------------------------------------------------------------------------
    total drift:                                0.000026     -0.000008     -0.000000


--------------------------------------------------------------------------------------------------------



  FREE ENERGIE OF THE ION-ELECTRON SYSTEM (eV)
  ---------------------------------------------------
  free  energy   TOTEN  =       -10.21712989 eV

  energy  without entropy=      -10.21704260  energy(sigma->0) =      -10.21708624
 
 d Force =-0.1496459E-04[-0.109E-04,-0.190E-04]  d Energy = 0.3163335E-03-0.331E-03
 d Force = 0.5971981E-01[ 0.593E-01, 0.601E-01]  d Ewald  = 0.7326820E+00-0.673E+00


--------------------------------------------------------------------------------------------------------


    POTLOK:  cpu time    0.0191: real time    0.0192


--------------------------------------------------------------------------------------------------------


 Conjugate gradient step on ions:
 trial-energy change:   -0.000316  1 .order   -0.000322   -0.000431   -0.000213
  (g-gl).g = 0.297E-03      g.g   = 0.257E-03  gl.gl    = 0.191E-02
 g(Force)  = 0.301E-05   g(Stress)= 0.254E-03 ortho     = 0.304E-04
 gamma     =   0.15533
 trial     =   1.64809
 opt step  =   3.26242  (harmonic =   3.26242) maximal distance =0.00275663
 next E    =   -10.217240   (d E  =  -0.00043)


--------------------------------------------------------------------------------------------------------


    WAVPRE:  cpu time    0.0035: real time    0.0130
    FEWALD:  cpu time    0.0001: real time    0.0001
    GENKIN:  cpu time    0.0091: real time    0.0091
    ORTHCH:  cpu time    0.0199: real time    0.0199
     LOOP+:  cpu time    2.1749: real time    2.1995


--------------------------------------- Iteration     11(   1)  ---------------------------------------


    POTLOK:  cpu time    0.0151: real time    0.0200
    SETDIJ:  cpu time    0.0022: real time    0.0022
     EDDAV:  cpu time    0.3203: real time    0.3211
       DOS:  cpu time    0.0005: real time    0.0005
    CHARGE:  cpu time    0.0206: real time    0.0206
    MIXING:  cpu time    0.0005: real time    0.0005
    --------------------------------------------
      LOOP:  cpu time    0.3593: real time    0.3649

 eigenvalue-minimisations  :  1480
 total energy-change (2. order) : 0.1087397E-02  (-0.2702377E-02)
 number of electron      17.9999998 magnetization 
 augmentation part       -3.6099540 magnetization 

 Broyden mixing:
  rms(total) = 0.12490E-01    rms(broyden)= 0.12489E-01
  rms(prec ) = 0.20761E-01
  weight for this iteration     100.00

 Free energy of the ion-electron system (eV)
  ---------------------------------------------------
  alpha Z        PSCENC =         2.34061491
  Ewald energy   TEWEN  =      -681.55669826
  -Hartree energ DENC   =       -40.94403446
  -exchange      EXHF   =         0.00000000
  -V(xc)+E(xc)   XCENC  =       -83.91599117
  PAW double counting   =      1542.58141301    -1427.21901951
  entropy T*S    EENTRO =        -0.00012592
  eigenvalues    EBANDS =         9.49043525
  atomic energy  EATOM  =       669.81430600
  Solvation  Ediel_sol  =         0.00000000
  ---------------------------------------------------
  free energy    TOTEN  =        -9.40910015 eV

  energy without entropy =       -9.40897424  energy(sigma->0) =       -9.40903719


--------------------------------------------------------------------------------------------------------




--------------------------------------- Iteration     11(   2)  ---------------------------------------


    POTLOK:  cpu time    0.0111: real time    0.0111
    SETDIJ:  cpu time    0.0021: real time    0.0021
     EDDAV:  cpu time    0.3569: real time    0.3578
       DOS:  cpu time    0.0005: real time    0.0005
    CHARGE:  cpu time    0.0206: real time    0.0206
    MIXING:  cpu time    0.0005: real time    0.0005
    --------------------------------------------
      LOOP:  cpu time    0.3917: real time    0.3926

 eigenvalue-minimisations  :  1704
 total energy-change (2. order) : 0.2282585E-03  (-0.1006691E-03)
 number of electron      17.9999998 magnetization 
 augmentation part       -3.6101921 magnetization 

 Broyden mixing:
  rms(total) = 0.66454E-02    rms(broyden)= 0.66454E-02
  rms(prec ) = 0.11675E-01
  weight for this iteration     100.00

 eigenvalues of (default mixing * dielectric matrix)
  average eigenvalue GAMMA=   1.0301
  1.0301

 Free energy of the ion-electron system (eV)
  ---------------------------------------------------
  alpha Z        PSCENC =         2.34061491
  Ewald energy   TEWEN  =      -681.55669826
  -Hartree energ DENC   =       -40.83932522
  -exchange      EXHF   =         0.00000000
  -V(xc)+E(xc)   XCENC  =       -83.91518689
  PAW double counting   =      1542.57222604    -1427.20824815
  entropy T*S    EENTRO =        -0.00013089
  eigenvalues    EBANDS =         9.38357057
  atomic energy  EATOM  =       669.81430600
  Solvation  Ediel_sol  =         0.00000000
  ---------------------------------------------------
  free energy    TOTEN  =        -9.40887190 eV

  energy without entropy =       -9.40874101  energy(sigma->0) =       -9.40880645


--------------------------------------------------------------------------------------------------------




--------------------------------------- Iteration     11(   3)  ---------------------------------------


    POTLOK:  cpu time    0.0110: real time    0.0110
    SETDIJ:  cpu time    0.0021: real time    0.0021
     EDDAV:  cpu time    0.3732: real time    0.3741
       DOS:  cpu time    0.0005: real time    0.0005
    CHARGE:  cpu time    0.0206: real time    0.0206
    MIXING:  cpu time    0.0006: real time    0.0006
    --------------------------------------------
      LOOP:  cpu time    0.4079: real time    0.4089

 eigenvalue-minimisations  :  1808
 total energy-change (2. order) : 0.1250783E-03  (-0.1755496E-04)
 number of electron      17.9999998 magnetization 
 augmentation part       -3.6118077 magnetization 

 Broyden mixing:
  rms(total) = 0.35126E-02    rms(broyden)= 0.35126E-02
  rms(prec ) = 0.48603E-02
  weight for this iteration     100.00

 eigenvalues of (default mixing * dielectric matrix)
  average eigenvalue GAMMA=   1.0806
  0.9312  1.2299

 Free energy of the ion-electron system (eV)
  ---------------------------------------------------
  alpha Z        PSCENC =         2.34061491
  Ewald energy   TEWEN  =      -681.55669826
  -Hartree energ DENC   =       -40.75330465
  -exchange      EXHF   =         0.00000000
  -V(xc)+E(xc)   XCENC  =       -83.91305867
  PAW double counting   =      1543.48519896    -1428.12069723
  entropy T*S    EENTRO =        -0.00013406
  eigenvalues    EBANDS =         9.29502618
  atomic energy  EATOM  =       669.81430600
  Solvation  Ediel_sol  =         0.00000000
  ---------------------------------------------------
  free energy    TOTEN  =        -9.40874682 eV

  energy without entropy =       -9.40861276  energy(sigma->0) =       -9.40867979


--------------------------------------------------------------------------------------------------------




--------------------------------------- Iteration     11(   4)  ---------------------------------------


    POTLOK:  cpu time    0.0110: real time    0.0110
    SETDIJ:  cpu time    0.0021: real time    0.0021
     EDDAV:  cpu time    0.3209: real time    0.3216
       DOS:  cpu time    0.0005: real time    0.0005
    CHARGE:  cpu time    0.0208: real time    0.0208
    MIXING:  cpu time    0.0006: real time    0.0006
    --------------------------------------------
      LOOP:  cpu time    0.3558: real time    0.3567

 eigenvalue-minimisations  :  1456
 total energy-change (2. order) : 0.1133329E-04  (-0.2479562E-05)
 number of electron      17.9999998 magnetization 
 augmentation part       -3.6124915 magnetization 

 Broyden mixing:
  rms(total) = 0.41500E-02    rms(broyden)= 0.41500E-02
  rms(prec ) = 0.43367E-02
  weight for this iteration     100.00

 eigenvalues of (default mixing * dielectric matrix)
  average eigenvalue GAMMA=   1.9839
  1.0853  2.4332  2.4332

 Free energy of the ion-electron system (eV)
  ---------------------------------------------------
  alpha Z        PSCENC =         2.34061491
  Ewald energy   TEWEN  =      -681.55669826
  -Hartree energ DENC   =       -40.72458720
  -exchange      EXHF   =         0.00000000
  -V(xc)+E(xc)   XCENC  =       -83.91218493
  PAW double counting   =      1544.22410375    -1428.86022391
  entropy T*S    EENTRO =        -0.00013434
  eigenvalues    EBANDS =         9.26606850
  atomic energy  EATOM  =       669.81430600
  Solvation  Ediel_sol  =         0.00000000
  ---------------------------------------------------
  free energy    TOTEN  =        -9.40873548 eV

  energy without entropy =       -9.40860114  energy(sigma->0) =       -9.40866831


--------------------------------------------------------------------------------------------------------




--------------------------------------- Iteration     11(   5)  ---------------------------------------


    POTLOK:  cpu time    0.0110: real time    0.0110
    SETDIJ:  cpu time    0.0021: real time    0.0021
     EDDAV:  cpu time    0.2287: real time    0.2292
       DOS:  cpu time    0.0005: real time    0.0005
    --------------------------------------------
      LOOP:  cpu time    0.2423: real time    0.2428

 eigenvalue-minimisations  :   832
 total energy-change (2. order) : 0.4965847E-06  (-0.6092805E-06)
 number of electron      17.9999998 magnetization 
 augmentation part       -3.6124915 magnetization 

 Free energy of the ion-electron system (eV)
  ---------------------------------------------------
  alpha Z        PSCENC =         2.34061491
  Ewald energy   TEWEN  =      -681.55669826
  -Hartree energ DENC   =       -40.71157861
  -exchange      EXHF   =         0.00000000
  -V(xc)+E(xc)   XCENC  =       -83.91192153
  PAW double counting   =      1545.35932246    -1429.99761335
  entropy T*S    EENTRO =        -0.00013334
  eigenvalues    EBANDS =         9.25496675
  atomic energy  EATOM  =       669.81430600
  Solvation  Ediel_sol  =         0.00000000
  ---------------------------------------------------
  free energy    TOTEN  =        -9.40873499 eV

  energy without entropy =       -9.40860164  energy(sigma->0) =       -9.40866832


--------------------------------------------------------------------------------------------------------




 average (electrostatic) potential at core
  the test charge radii are     1.1897
  (the norm of the test charge is              1.0000)
       1 -88.8219       2 -88.8219       3 -88.8219
 
 
 
 E-fermi :   6.2879     XC(G=0):  -9.1718     alpha+bet :-10.7679


 k-point     1 :       0.0000    0.0000    0.0000
  band No.  band energies     occupation 
      1      -7.4660      2.00000
      2      -4.1633      2.00000
      3      -4.1633      2.00000
      4       3.2037      2.00000
      5       3.5433      2.00000
      6       3.5433      2.00000
      7       4.4755      2.00000
      8       4.4755      2.00000
      9       5.1807      2.00000
     10       7.1900      0.00000
     11       7.1900      0.00000
     12       7.7881      0.00000
     13      11.1623      0.00000
     14      11.1623      0.00000
     15      12.3820      0.00000
     16      12.3820      0.00000

 k-point     2 :       0.1111    0.0000    0.0000
  band No.  band energies     occupation 
      1      -7.3757      2.00000
      2      -4.1844      2.00000
      3      -4.1388      2.00000
      4       2.5114      2.00000
      5       3.0519      2.00000
      6       3.2770      2.00000
      7       4.8218      2.00000
      8       5.0645      2.00000
      9       5.5486      2.00000
     10       6.8362      0.00000
     11       7.1002      0.00000
     12       7.6154      0.00000
     13      10.8399      0.00000
     14      11.1235      0.00000
     15      12.2533      0.00000
     16      12.5159      0.00000

 k-point     3 :       0.2222    0.0000    0.0000
  band No.  band energies     occupation 
      1      -7.1147      2.00000
      2      -4.2973      2.00000
      3      -4.0702      2.00000
      4       1.6691      2.00000
      5       2.4203      2.00000
      6       2.8530      2.00000
      7       4.9373      2.00000
      8       5.2547      2.00000
      9       5.3912      2.00000
     10       6.9502      0.00000
     11       7.1716      0.00000
     12       7.7326      0.00000
     13      10.0164      0.00000
     14      11.3777      0.00000
     15      12.4743      0.00000
     16      13.1973      0.00000

 k-point     4 :       0.3333   -0.0000    0.0000
  band No.  band energies     occupation 
      1      -6.7238      2.00000
      2      -4.5778      2.00000
      3      -3.9817      2.00000
      4       1.2910      2.00000
      5       1.9310      2.00000
      6       2.5134      2.00000
      7       3.7568      2.00000
      8       5.3794      2.00000
      9       5.4292      2.00000
     10       6.8868      0.00000
     11       7.0591      0.00000
     12       8.9264      0.00000
     13       9.3382      0.00000
     14      12.2093      0.00000
     15      13.2670      0.00000
     16      14.1642      0.00000

 k-point     5 :       0.4444    0.0000    0.0000
  band No.  band energies     occupation 
      1      -6.3383      2.00000
      2      -4.9293      2.00000
      3      -3.9180      2.00000
      4       1.3054      2.00000
      5       1.7348      2.00000
      6       2.3856      2.00000
      7       2.7760      2.00000
      8       5.3225      2.00000
      9       5.4550      2.00000
     10       6.8836      0.00000
     11       6.9364      0.00000
     12       8.9773      0.00000
     13       9.7958      0.00000
     14      13.4058      0.00000
     15      14.5381      0.00000
     16      15.0786      0.00000

 k-point     6 :       0.1111    0.1111    0.0000
  band No.  band energies     occupation 
      1      -7.1998      2.00000
      2      -4.2325      2.00000
      3      -4.1125      2.00000
      4       1.9497      2.00000
      5       2.2683      2.00000
      6       3.3706      2.00000
      7       4.5274      2.00000
      8       5.5125      2.00000
      9       5.5192      2.00000
     10       6.8205      0.00000
     11       7.1466      0.00000
     12       7.7042      0.00000
     13      10.6181      0.00000
     14      10.6692      0.00000
     15      12.5866      0.00000
     16      12.9512      0.00000

 k-point     7 :       0.2222    0.1111    0.0000
  band No.  band energies     occupation 
      1      -6.8709      2.00000
      2      -4.4000      2.00000
      3      -4.0764      2.00000
      4       1.4433      2.00000
      5       1.8170      2.00000
      6       3.0096      2.00000
      7       4.3302      2.00000
      8       4.6429      2.00000
      9       5.1948      2.00000
     10       7.2926      0.00000
     11       7.7135      0.00000
     12       8.2210      0.00000
     13       9.9497      0.00000
     14      11.0181      0.00000
     15      13.2120      0.00000
     16      13.6839      0.00000

 k-point     8 :       0.3333    0.1111    0.0000
  band No.  band energies     occupation 
      1      -6.4625      2.00000
      2      -4.7253      2.00000
      3      -4.0347      2.00000
      4       1.3304      2.00000
      5       1.6764      2.00000
      6       2.5799      2.00000
      7       3.2761      2.00000
      8       4.6337      2.00000
      9       4.9024      2.00000
     10       7.4618      0.00000
     11       7.7023      0.00000
     12       9.3328      0.00000
     13       9.5022      0.00000
     14      12.0146      0.00000
     15      14.1952      0.00000
     16      14.6252      0.00000

 k-point     9 :       0.4444    0.1111    0.0000
  band No.  band energies     occupation 
      1      -6.2228      2.00000
      2      -4.9482      2.00000
      3      -4.0161      2.00000
      4       1.3940      2.00000
      5       1.7269      2.00000
      6       2.5431      2.00000
      7       2.5686      2.00000
      8       4.7131      2.00000
      9       4.7308      2.00000
     10       7.4960      0.00000
     11       7.6826      0.00000
     12       9.3368      0.00000
     13       9.8345      0.00000
     14      13.1103      0.00000
     15      13.9503      0.00000
     16      15.1719      0.00000

 k-point    10 :       0.2222    0.2222    0.0000
  band No.  band energies     occupation 
      1      -6.5132      2.00000
      2      -4.5440      2.00000
      3      -4.1886      2.00000
      4       1.4374      2.00000
      5       1.5184      2.00000
      6       2.9734      2.00000
      7       3.7709      2.00000
      8       4.1153      2.00000
      9       4.1341      2.00000
     10       8.2274      0.00000
     11       8.4547      0.00000
     12       8.5880      0.00000
     13      10.4131      0.00000
     14      10.7080      0.00000
     15      13.4929      0.00000
     16      14.8628      0.00000

 k-point    11 :       0.3333    0.2222    0.0000
  band No.  band energies     occupation 
      1      -6.1782      2.00000
      2      -4.7553      2.00000
      3      -4.2812      2.00000
      4       1.5490      2.00000
      5       1.6709      2.00000
      6       2.7072      2.00000
      7       3.0168      2.00000
      8       3.7649      2.00000
      9       3.8434      2.00000
     10       8.4537      0.00000
     11       8.6943      0.00000
     12       9.4377      0.00000
     13      10.3129      0.00000
     14      11.7139      0.00000
     15      13.3750      0.00000
     16      14.4300      0.00000

 k-point    12 :       0.3333    0.3333    0.0000
  band No.  band energies     occupation 
      1      -6.0450      2.00000
      2      -4.5898      2.00000
      3      -4.5898      2.00000
      4       1.7427      2.00000
      5       1.7427      2.00000
      6       2.9972      2.00000
      7       2.9972      2.00000
      8       3.1300      2.00000
      9       3.2713      2.00000
     10       9.1169      0.00000
     11       9.1169      0.00000
     12       9.3359      0.00000
     13      11.0940      0.00000
     14      11.9153      0.00000
     15      11.9153      0.00000
     16      14.8192      0.00000

 k-point    13 :       0.0000    0.0000    0.2500
  band No.  band energies     occupation 
      1      -7.2411      2.00000
      2      -5.5187      2.00000
      3      -2.7665      2.00000
      4       2.8083      2.00000
      5       3.3113      2.00000
      6       3.7016      2.00000
      7       4.6840      2.00000
      8       4.8259      2.00000
      9       5.2325      2.00000
     10       6.7874      0.00000
     11       6.8584      0.00000
     12       7.2385      0.00000
     13      10.4531      0.00000
     14      11.5969      0.00000
     15      11.9115      0.00000
     16      12.3860      0.00000

 k-point    14 :       0.1111    0.0000    0.2500
  band No.  band energies     occupation 
      1      -7.1545      2.00000
      2      -5.4616      2.00000
      3      -2.8778      2.00000
      4       2.4740      2.00000
      5       3.1784      2.00000
      6       3.5989      2.00000
      7       4.3407      2.00000
      8       4.8274      2.00000
      9       4.9398      2.00000
     10       7.0412      0.00000
     11       7.2658      0.00000
     12       7.6636      0.00000
     13      10.5587      0.00000
     14      11.5989      0.00000
     15      11.8501      0.00000
     16      12.0960      0.00000

 k-point    15 :       0.2222    0.0000    0.2500
  band No.  band energies     occupation 
      1      -6.9095      2.00000
      2      -5.2943      2.00000
      3      -3.2392      2.00000
      4       2.1176      2.00000
      5       2.7650      2.00000
      6       3.2400      2.00000
      7       3.6955      2.00000
      8       4.3200      2.00000
      9       4.7519      2.00000
     10       7.5766      0.00000
     11       8.0639      0.00000
     12       8.4580      0.00000
     13      10.9010      0.00000
     14      11.3196      0.00000
     15      11.8742      0.00000
     16      12.3161      0.00000

 k-point    16 :       0.3333   -0.0000    0.2500
  band No.  band energies     occupation 
      1      -6.5540      2.00000
      2      -5.0746      2.00000
      3      -3.7575      2.00000
      4       1.7810      2.00000
      5       2.1602      2.00000
      6       2.8499      2.00000
      7       3.1934      2.00000
      8       4.3430      2.00000
      9       4.6713      2.00000
     10       7.6201      0.00000
     11       8.2040      0.00000
     12       9.3414      0.00000
     13      10.3542      0.00000
     14      11.8291      0.00000
     15      12.5037      0.00000
     16      13.2094      0.00000

 k-point    17 :       0.4444    0.0000    0.2500
  band No.  band energies     occupation 
      1      -6.2077      2.00000
      2      -5.0464      2.00000
      3      -4.0399      2.00000
      4       1.0908      2.00000
      5       1.8473      2.00000
      6       2.5675      2.00000
      7       3.6590      2.00000
      8       4.3948      2.00000
      9       4.6316      2.00000
     10       7.4817      0.00000
     11       8.1416      0.00000
     12       9.1439      0.00000
     13       9.8485      0.00000
     14      12.3189      0.00000
     15      13.9989      0.00000
     16      14.4320      0.00000

 k-point    18 :      -0.4444   -0.0000    0.2500
  band No.  band energies     occupation 
      1      -6.1591      2.00000
      2      -5.2393      2.00000
      3      -3.8099      2.00000
      4       0.7160      2.00000
      5       1.7235      2.00000
      6       2.5310      2.00000
      7       4.4542      2.00000
      8       4.5414      2.00000
      9       4.7627      2.00000
     10       7.3160      0.00000
     11       7.9418      0.00000
     12       8.3292      0.00000
     13       9.5410      0.00000
     14      12.9351      0.00000
     15      14.2984      0.00000
     16      14.9111      0.00000

 k-point    19 :      -0.3333    0.0000    0.2500
  band No.  band energies     occupation 
      1      -6.5115      2.00000
      2      -5.2831      2.00000
      3      -3.4280      2.00000
      4       0.9213      2.00000
      5       1.8036      2.00000
      6       2.6853      2.00000
      7       4.7519      2.00000
      8       4.8449      2.00000
      9       5.6377      2.00000
     10       6.9913      0.00000
     11       7.4342      0.00000
     12       7.6885      0.00000
     13       9.4625      0.00000
     14      12.9694      0.00000
     15      13.4515      0.00000
     16      14.0965      0.00000

 k-point    20 :      -0.2222   -0.0000    0.2500
  band No.  band energies     occupation 
      1      -6.8962      2.00000
      2      -5.3635      2.00000
      3      -3.0856      2.00000
      4       1.6878      2.00000
      5       2.1037      2.00000
      6       2.9936      2.00000
      7       5.0351      2.00000
      8       5.1654      2.00000
      9       5.7568      2.00000
     10       6.7257      0.00000
     11       7.1417      0.00000
     12       7.3597      0.00000
     13       9.7097      0.00000
     14      12.3288      0.00000
     15      12.5399      0.00000
     16      13.0105      0.00000

 k-point    21 :      -0.1111   -0.0000    0.2500
  band No.  band energies     occupation 
      1      -7.1529      2.00000
      2      -5.4701      2.00000
      3      -2.8538      2.00000
      4       2.5103      2.00000
      5       2.7980      2.00000
      6       3.4115      2.00000
      7       4.8175      2.00000
      8       5.1566      2.00000
      9       5.3745      2.00000
     10       6.6695      0.00000
     11       6.7153      0.00000
     12       7.6730      0.00000
     13      10.2368      0.00000
     14      11.6422      0.00000
     15      12.0395      0.00000
     16      12.4673      0.00000

 k-point    22 :       0.1111    0.1111    0.2500
  band No.  band energies     occupation 
      1      -6.9843      2.00000
      2      -5.3706      2.00000
      3      -3.0652      2.00000
      4       2.1157      2.00000
      5       2.4002      2.00000
      6       3.2700      2.00000
      7       4.3128      2.00000
      8       4.8807      2.00000
      9       5.2550      2.00000
     10       7.0779      0.00000
     11       7.6158      0.00000
     12       7.7692      0.00000
     13      10.2758      0.00000
     14      11.7186      0.00000
     15      12.0135      0.00000
     16      12.4802      0.00000

 k-point    23 :       0.2222    0.1111    0.2500
  band No.  band energies     occupation 
      1      -6.6788      2.00000
      2      -5.1820      2.00000
      3      -3.5110      2.00000
      4       1.7341      2.00000
      5       2.1711      2.00000
      6       3.0458      2.00000
      7       3.2994      2.00000
      8       4.3647      2.00000
      9       5.4165      2.00000
     10       7.2569      0.00000
     11       7.9695      0.00000
     12       8.9493      0.00000
     13      10.6970      0.00000
     14      11.1176      0.00000
     15      12.3149      0.00000
     16      13.2622      0.00000

 k-point    24 :       0.3333    0.1111    0.2500
  band No.  band energies     occupation 
      1      -6.3126      2.00000
      2      -5.0178      2.00000
      3      -3.9793      2.00000
      4       1.4095      2.00000
      5       1.6615      2.00000
      6       2.7510      2.00000
      7       3.3344      2.00000
      8       3.9714      2.00000
      9       5.4949      2.00000
     10       7.1023      0.00000
     11       8.3555      0.00000
     12       9.3235      0.00000
     13      10.2362      0.00000
     14      11.9162      0.00000
     15      12.8577      0.00000
     16      13.8962      0.00000

 k-point    25 :       0.4444    0.1111    0.2500
  band No.  band energies     occupation 
      1      -6.0786      2.00000
      2      -5.1290      2.00000
      3      -4.0218      2.00000
      4       0.8889      2.00000
      5       1.5504      2.00000
      6       2.6589      2.00000
      7       3.5445      2.00000
      8       4.1932      2.00000
      9       5.5472      2.00000
     10       6.9688      0.00000
     11       8.4211      0.00000
     12       8.7548      0.00000
     13       9.9507      0.00000
     14      12.7126      0.00000
     15      13.8899      0.00000
     16      14.1526      0.00000

 k-point    26 :      -0.4444    0.1111    0.2500
  band No.  band energies     occupation 
      1      -6.2675      2.00000
      2      -5.2212      2.00000
      3      -3.7159      2.00000
      4       0.7867      2.00000
      5       1.7107      2.00000
      6       2.6483      2.00000
      7       3.6024      2.00000
      8       5.0942      2.00000
      9       5.6032      2.00000
     10       6.8595      0.00000
     11       7.7581      0.00000
     12       8.4148      0.00000
     13       9.8388      0.00000
     14      12.6027      0.00000
     15      13.4378      0.00000
     16      14.4419      0.00000

 k-point    27 :      -0.3333    0.1111    0.2500
  band No.  band energies     occupation 
      1      -6.6623      2.00000
      2      -5.2657      2.00000
      3      -3.3613      2.00000
      4       1.2753      2.00000
      5       1.9809      2.00000
      6       2.8523      2.00000
      7       3.8646      2.00000
      8       5.3401      2.00000
      9       5.9523      2.00000
     10       6.6671      0.00000
     11       7.2708      0.00000
     12       8.2141      0.00000
     13       9.9047      0.00000
     14      11.9043      0.00000
     15      12.7949      0.00000
     16      13.7038      0.00000

 k-point    28 :       0.2222    0.2222    0.2500
  band No.  band energies     occupation 
      1      -6.3343      2.00000
      2      -5.1127      2.00000
      3      -3.8099      2.00000
      4       1.0768      2.00000
      5       1.8525      2.00000
      6       2.6076      2.00000
      7       3.1178      2.00000
      8       4.7934      2.00000
      9       5.7863      2.00000
     10       6.9924      0.00000
     11       7.8259      0.00000
     12       9.0703      0.00000
     13      10.6313      0.00000
     14      11.2024      0.00000
     15      13.1288      0.00000
     16      14.0899      0.00000

 k-point    29 :       0.3333    0.2222    0.2500
  band No.  band energies     occupation 
      1      -6.0349      2.00000
      2      -5.0345      2.00000
      3      -4.1483      2.00000
      4       1.0738      2.00000
      5       1.3995      2.00000
      6       2.2512      2.00000
      7       3.4579      2.00000
      8       4.3111      2.00000
      9       5.5372      2.00000
     10       7.2495      0.00000
     11       8.4810      0.00000
     12       9.0203      0.00000
     13      10.6720      0.00000
     14      11.8296      0.00000
     15      13.5186      0.00000
     16      13.6672      0.00000

 k-point    30 :       0.4444    0.2222    0.2500
  band No.  band energies     occupation 
      1      -6.0189      2.00000
      2      -5.1000      2.00000
      3      -4.0788      2.00000
      4       0.8931      2.00000
      5       1.4997      2.00000
      6       2.2715      2.00000
      7       3.3651      2.00000
      8       4.7084      2.00000
      9       5.3419      2.00000
     10       7.4369      0.00000
     11       8.1444      0.00000
     12       8.9290      0.00000
     13      10.5711      0.00000
     14      12.0916      0.00000
     15      13.2763      0.00000
     16      14.2482      0.00000

 k-point    31 :       0.3333    0.3333    0.2500
  band No.  band energies     occupation 
      1      -5.9014      2.00000
      2      -5.0360      2.00000
      3      -4.2496      2.00000
      4       1.0296      2.00000
      5       1.3998      2.00000
      6       1.8280      2.00000
      7       3.6997      2.00000
      8       4.5847      2.00000
      9       4.9450      2.00000
     10       8.0185      0.00000
     11       8.4956      0.00000
     12       8.5915      0.00000
     13      11.5218      0.00000
     14      11.8119      0.00000
     15      12.2288      0.00000
     16      14.5340      0.00000

 k-point    32 :       0.0000    0.0000    0.5000
  band No.  band energies     occupation 
      1      -6.5780      2.00000
      2      -6.5780      2.00000
      3      -2.0444      2.00000
      4       2.2905      2.00000
      5       3.5382      2.00000
      6       3.5382      2.00000
      7       4.9044      2.00000
      8       5.2620      2.00000
      9       5.2620      2.00000
     10       6.5410      0.00000
     11       6.5479      0.00000
     12       6.5479      0.00000
     13      10.1092      0.00000
     14      11.3360      0.00000
     15      11.3360      0.00000
     16      13.2796      0.00000

 k-point    33 :       0.1111    0.0000    0.5000
  band No.  band energies     occupation 
      1      -6.5090      2.00000
      2      -6.4933      2.00000
      3      -2.2358      2.00000
      4       2.2679      2.00000
      5       3.3592      2.00000
      6       3.4730      2.00000
      7       4.2799      2.00000
      8       4.7513      2.00000
      9       4.9881      2.00000
     10       6.8321      0.00000
     11       7.0634      0.00000
     12       7.5494      0.00000
     13      10.3501      0.00000
     14      11.0445      0.00000
     15      11.6576      0.00000
     16      13.3567      0.00000

 k-point    34 :       0.2222    0.0000    0.5000
  band No.  band energies     occupation 
      1      -6.3218      2.00000
      2      -6.2472      2.00000
      3      -2.7344      2.00000
      4       1.9168      2.00000
      5       2.7347      2.00000
      6       3.1957      2.00000
      7       4.0740      2.00000
      8       4.2624      2.00000
      9       4.6956      2.00000
     10       7.3984      0.00000
     11       7.8612      0.00000
     12       8.3802      0.00000
     13      10.4812      0.00000
     14      11.3816      0.00000
     15      12.3131      0.00000
     16      12.8446      0.00000

 k-point    35 :       0.3333   -0.0000    0.5000
  band No.  band energies     occupation 
      1      -6.0821      2.00000
      2      -5.8741      2.00000
      3      -3.3698      2.00000
      4       1.0525      2.00000
      5       2.5419      2.00000
      6       2.8924      2.00000
      7       3.8160      2.00000
      8       4.0583      2.00000
      9       5.0303      2.00000
     10       7.7345      0.00000
     11       8.1185      0.00000
     12       8.4877      0.00000
     13      10.5033      0.00000
     14      11.6929      0.00000
     15      13.0218      0.00000
     16      13.3683      0.00000

 k-point    36 :       0.4444    0.0000    0.5000
  band No.  band energies     occupation 
      1      -5.9051      2.00000
      2      -5.5001      2.00000
      3      -3.9037      2.00000
      4       0.4743      2.00000
      5       2.5423      2.00000
      6       2.6612      2.00000
      7       3.6272      2.00000
      8       3.9255      2.00000
      9       5.7679      2.00000
     10       7.0465      0.00000
     11       8.1649      0.00000
     12       8.7550      0.00000
     13      10.6284      0.00000
     14      11.2932      0.00000
     15      14.0554      0.00000
     16      14.3839      0.00000

 k-point    37 :       0.1111    0.1111    0.5000
  band No.  band energies     occupation 
      1      -6.3762      2.00000
      2      -6.3321      2.00000
      3      -2.5774      2.00000
      4       2.1168      2.00000
      5       2.9666      2.00000
      6       3.0737      2.00000
      7       4.0014      2.00000
      8       4.2049      2.00000
      9       5.3280      2.00000
     10       6.6864      0.00000
     11       8.0650      0.00000
     12       8.1576      0.00000
     13      10.7783      0.00000
     14      10.7912      0.00000
     15      12.2850      0.00000
     16      12.9517      0.00000

 k-point    38 :       0.2222    0.1111    0.5000
  band No.  band energies     occupation 
      1      -6.1492      2.00000
      2      -6.0317      2.00000
      3      -3.1310      2.00000
      4       1.5131      2.00000
      5       2.3432      2.00000
      6       2.5677      2.00000
      7       4.0199      2.00000
      8       4.4604      2.00000
      9       5.2317      2.00000
     10       7.1216      0.00000
     11       8.3200      0.00000
     12       8.4567      0.00000
     13      10.6174      0.00000
     14      11.5433      0.00000
     15      12.5443      0.00000
     16      13.2981      0.00000

 k-point    39 :       0.3333    0.1111    0.5000
  band No.  band energies     occupation 
      1      -5.9226      2.00000
      2      -5.6537      2.00000
      3      -3.7120      2.00000
      4       0.7654      2.00000
      5       2.0744      2.00000
      6       2.2430      2.00000
      7       4.1418      2.00000
      8       4.6025      2.00000
      9       5.4531      2.00000
     10       7.4126      0.00000
     11       7.8474      0.00000
     12       8.5155      0.00000
     13      10.6775      0.00000
     14      11.6710      0.00000
     15      12.9812      0.00000
     16      14.0849      0.00000

 k-point    40 :       0.4444    0.1111    0.5000
  band No.  band energies     occupation 
      1      -5.8241      2.00000
      2      -5.4297      2.00000
      3      -4.0119      2.00000
      4       0.4678      2.00000
      5       2.0049      2.00000
      6       2.1158      2.00000
      7       4.3134      2.00000
      8       4.3959      2.00000
      9       6.0348      2.00000
     10       6.8138      0.00000
     11       7.9733      0.00000
     12       8.4879      0.00000
     13      10.8223      0.00000
     14      11.3308      0.00000
     15      14.2521      0.00000
     16      14.4683      0.00000

 k-point    41 :       0.2222    0.2222    0.5000
  band No.  band energies     occupation 
      1      -5.9015      2.00000
      2      -5.7464      2.00000
      3      -3.6159      2.00000
      4       1.1466      2.00000
      5       1.5717      2.00000
      6       1.9458      2.00000
      7       4.5483      2.00000
      8       4.8960      2.00000
      9       5.7436      2.00000
     10       6.9255      0.00000
     11       8.1169      0.00000
     12       8.1347      0.00000
     13      10.9767      0.00000
     14      11.8377      0.00000
     15      12.6555      0.00000
     16      12.8706      0.00000

 k-point    42 :       0.3333    0.2222    0.5000
  band No.  band energies     occupation 
      1      -5.7066      2.00000
      2      -5.4929      2.00000
      3      -3.9991      2.00000
      4       0.7457      2.00000
      5       1.3374      2.00000
      6       1.5370      2.00000
      7       4.9685      2.00000
      8       5.3622      2.00000
      9       5.9590      2.00000
     10       6.9445      0.00000
     11       7.4898      0.00000
     12       7.8666      0.00000
     13      11.3556      0.00000
     14      11.9810      0.00000
     15      12.9826      0.00000
     16      13.3363      0.00000

 k-point    43 :       0.3333    0.3333    0.5000
  band No.  band energies     occupation 
      1      -5.5200      2.00000
      2      -5.5200      2.00000
      3      -4.1076      2.00000
      4       0.9699      2.00000
      5       1.0486      2.00000
      6       1.0486      2.00000
      7       5.3395      2.00000
      8       6.2250      1.92487
      9       6.2250      1.92487
     10       6.3388      0.15026
     11       7.3175      0.00000
     12       7.3175      0.00000
     13      12.1767      0.00000
     14      12.6154      0.00000
     15      12.6154      0.00000
     16      13.3124      0.00000


--------------------------------------------------------------------------------------------------------


 soft charge-density along one line, spin component           1
         0         1         2         3         4         5         6         7         8         9
 total charge-density along one line
 
 pseudopotential strength for first ion, spin component:           1
 51.560  56.099  -0.000  -0.000  -0.044  -0.000  -0.000  -0.064
 56.099  61.041  -0.000  -0.000  -0.048  -0.000  -0.000  -0.070
 -0.000  -0.000  12.699   0.009   0.000  18.304   0.013   0.000
 -0.000  -0.000   0.009  12.713   0.000   0.013  18.324   0.000
 -0.044  -0.048   0.000   0.000  12.713   0.000   0.000  18.324
 -0.000  -0.000  18.304   0.013   0.000  26.393   0.018   0.000
 -0.000  -0.000   0.013  18.324   0.000   0.018  26.423   0.000
 -0.064  -0.070   0.000   0.000  18.324   0.000   0.000  26.423
  0.000   0.000  -0.009   0.000  -0.000  -0.013   0.000  -0.000
  0.014   0.015   0.000  -0.000   0.000   0.000  -0.000   0.000
  0.006   0.007   0.000  -0.000   0.005   0.000  -0.000   0.008
  0.000   0.000   0.000  -0.008  -0.000   0.000  -0.012  -0.000
  0.011   0.012   0.000  -0.000  -0.008   0.000  -0.000  -0.012
 total augmentation occupancy for first ion, spin component:           1
 13.818 -10.160   0.000  -0.000   1.893   0.000   0.000  -0.476   0.000  -0.158  -0.097   0.000  -0.116
-10.160   8.738   0.000   0.000  -1.588   0.000  -0.000   0.407   0.000   0.142   0.086   0.000   0.104
  0.000   0.000   2.568   0.188   0.000  -0.515  -0.168   0.000  -0.047   0.000   0.000  -0.046   0.000
  0.000  -0.000   0.188   2.883  -0.000  -0.169  -0.795   0.000  -0.044   0.000   0.000  -0.106   0.000
  1.893  -1.588   0.000  -0.000   2.787   0.000   0.000  -0.740   0.000  -0.050  -0.013   0.000  -0.047
  0.000   0.000  -0.515  -0.169  -0.000   0.188   0.062   0.000   0.011   0.000   0.000   0.016  -0.000
  0.000  -0.000  -0.168  -0.795   0.000   0.062   0.290  -0.000   0.016   0.000   0.000   0.031  -0.000
 -0.476   0.407   0.000   0.000  -0.740   0.000  -0.000   0.262  -0.000   0.014   0.003   0.000   0.011
  0.000   0.000  -0.047  -0.044   0.000   0.011   0.016  -0.000   0.010  -0.000   0.000   0.011   0.000
 -0.158   0.142   0.000   0.000  -0.050   0.000   0.000   0.014  -0.000   0.015   0.004   0.000   0.005
 -0.097   0.086   0.000   0.000  -0.013   0.000   0.000   0.003   0.000   0.004   0.007  -0.000  -0.000
  0.000   0.000  -0.046  -0.106   0.000   0.016   0.031  -0.000   0.011   0.000   0.000   0.027  -0.000
 -0.116   0.104   0.000   0.000  -0.047  -0.000  -0.000   0.011   0.000   0.005  -0.000  -0.000   0.010


------------------------ aborting loop because EDIFF is reached ----------------------------------------


    CHARGE:  cpu time    0.0206: real time    0.0206
    FORLOC:  cpu time    0.0008: real time    0.0008
    FORNL :  cpu time    0.0767: real time    0.0769
    STRESS:  cpu time    0.2245: real time    0.2251
    FORCOR:  cpu time    0.0114: real time    0.0115
    FORHAR:  cpu time    0.0028: real time    0.0028
    MIXING:  cpu time    0.0006: real time    0.0006
    OFIELD:  cpu time    0.0000: real time    0.0000

 ---------------------------------------------------------------------------------------------

         DFTD3 V3.0 Rev 1        
 Edisp (eV)   -0.80847

 E6    (eV) :    -0.3091
 E8    (eV) :    -0.4994
 % E8        : 61.77
    FORVDW:  cpu time    0.0096: real time    0.0097

  FORCE on cell =-STRESS in cart. coord.  units (eV):
  Direction    XX          YY          ZZ          XY          YZ          ZX
  --------------------------------------------------------------------------------------
  Alpha Z     2.34061     2.34061     2.34061
  Ewald    -238.20582  -238.20581  -205.14567    -0.00000    -0.00000     0.00000
  Hartree    10.85166    10.85166    19.00512     0.00000     0.00000    -0.00000
  E(xc)     -70.40188   -70.40188   -69.95405    -0.00000     0.00000    -0.00000
  Local    -110.64277  -110.64282  -143.69894    -0.00004     0.00000    -0.00000
  n-local   332.05896   332.88080   328.48800    -1.30412    -0.68960    -1.21356
  augment   -81.08567   -81.08562   -79.05302     0.00004    -0.00000     0.00000
  Kinetic   151.85737   159.00028   148.93793    -7.77299     0.14806     1.69301
  Fock        0.00000     0.00000     0.00000     0.00000     0.00000     0.00000
  vdW        -0.74128    -0.74128    -0.90432     0.00000    -0.00000    -0.00000
  -------------------------------------------------------------------------------------
  Total       0.01357     0.01357     0.01566     0.00000     0.00000     0.00000
  in kB       0.21765     0.21765     0.25122     0.00000     0.00000     0.00000
  external pressure =        0.23 kB  Pullay stress =        0.00 kB


 VOLUME and BASIS-vectors are now :
 -----------------------------------------------------------------------------
  energy-cutoff  :      520.00
  volume of cell :       99.87
      direct lattice vectors                 reciprocal lattice vectors
     4.408576344  0.000000000 -0.000000000     0.226830596  0.130960706  0.000000000
    -2.204288172  3.817939108  0.000000000    -0.000000000  0.261921411  0.000000000
    -0.000000000 -0.000000000  5.933339161     0.000000000 -0.000000000  0.168539160

  length of vectors
     4.408576344  4.408576344  5.933339161     0.261921411  0.261921411  0.168539160


 FORCES acting on ions
    electron-ion (+dipol)            ewald-force                    non-local-force                 convergence-correction
 -----------------------------------------------------------------------------------------------
   -.950E+01 0.111E-04 -.906E-06   0.140E+02 0.159E-05 0.141E-05   -.451E+01 0.340E-18 0.278E-16   -.194E-02 -.227E-08 0.355E-11
   0.475E+01 -.822E+01 -.186E-04   -.701E+01 0.121E+02 -.817E-05   0.226E+01 -.391E+01 -.555E-16   0.970E-03 -.168E-02 0.262E-09
   0.475E+01 0.822E+01 0.192E-04   -.701E+01 -.121E+02 0.677E-05   0.226E+01 0.391E+01 0.000E+00   0.970E-03 0.168E-02 -.264E-09
 -----------------------------------------------------------------------------------------------
   0.259E-04 -.830E-05 -.320E-06   0.000E+00 0.000E+00 0.695E-17   0.000E+00 0.000E+00 -.278E-16   -.434E-09 -.603E-09 0.240E-11
 
 
 POSITION                                       TOTAL-FORCE (eV/Angst)
 -----------------------------------------------------------------------------------
      1.22735     -0.00000      1.97778        -0.000640      0.000000     -0.000000
     -0.61367      1.06291      3.95556         0.000320     -0.000555      0.000000
      1.59062      2.75503      0.00000         0.000320      0.000555      0.000000
 -----------------------------------------------------------------------------------
    total drift:                                0.000026     -0.000008     -0.000000


--------------------------------------------------------------------------------------------------------



  FREE ENERGIE OF THE ION-ELECTRON SYSTEM (eV)
  ---------------------------------------------------
  free  energy   TOTEN  =       -10.21720230 eV

  energy  without entropy=      -10.21706896  energy(sigma->0) =      -10.21713563
 
 d Force =-0.6660424E-05[-0.261E-05,-0.107E-04]  d Energy = 0.7241556E-04-0.791E-04
 d Force = 0.5767080E-01[ 0.573E-01, 0.581E-01]  d Ewald  = 0.7213605E+00-0.664E+00


--------------------------------------------------------------------------------------------------------


    POTLOK:  cpu time    0.0129: real time    0.0130


--------------------------------------------------------------------------------------------------------




--------------------------------------------------------------------------------------------------------


  
 reached required accuracy - stopping structural energy minimisation
 writing wavefunctions
     LOOP+:  cpu time    2.3910: real time    4.7115
    4ORBIT:  cpu time    0.0000: real time    0.0000

 total amount of memory used by VASP MPI-rank0    43509. kBytes
=======================================================================

   base      :      30000. kBytes
   nonl-proj :       6255. kBytes
   fftplans  :       1403. kBytes
   grid      :       1950. kBytes
   one-center:         16. kBytes
   wavefun   :       3885. kBytes
 
  
  
 General timing and accounting informations for this job:
 ========================================================
  
                  Total CPU time used (sec):       29.485
                            User time (sec):       28.731
                          System time (sec):        0.754
                         Elapsed time (sec):       32.847
  
                   Maximum memory used (kb):       81344.
                   Average memory used (kb):           0.
  
                          Minor page faults:        50889
                          Major page faults:            0
                 Voluntary context switches:          865
