Phosphorus                              
   1.00000000000000     
     9.2395092183766589    0.0000000000000000    0.0416118539294295
     0.0000000000000000    9.1424760485444896    0.0000000000000000
    -6.1890805787387109    0.0000000000000000   22.2079294659691833
   P 
    84
Direct
  0.3017307329963981  0.1988066802761149  0.1812580860765943
  0.6982692970036043  0.8011933347238827  0.8187418839234105
  0.6982692970036043  0.1988066802761149  0.3187419139234058
  0.3017307329963981  0.8011933347238827  0.6812581160765895
  0.1755836399206291  0.0305923599871825  0.1183061692005830
  0.8244163900793660  0.9694076290128205  0.8816938537994226
  0.8244163900793660  0.0305923599871825  0.3816938237994200
  0.1755836399206291  0.9694076290128205  0.6183061462005774
  0.9267768327284513  0.7796540779838920  0.1181504504961314
  0.0732231592715480  0.2203459220161079  0.8818495635038696
  0.0732231592715480  0.7796540779838920  0.3818495635038697
  0.9267768327284513  0.2203459220161079  0.6181504364961304
  0.0496256738021614  0.9465396236882124  0.1807510328337812
  0.9503743041978441  0.0534603873117921  0.8192489671662188
  0.9503743041978441  0.9465396236882124  0.3192489671662188
  0.0496256738021614  0.0534603873117921  0.6807510328337812
  0.7933392710492300  0.6767970817172010  0.1735380821367121
  0.2066607139507725  0.3232029182827988  0.8264619328632856
  0.2066607139507725  0.6767970817172010  0.3264619328632857
  0.7933392710492300  0.3232029182827988  0.6735380671367144
  0.6886558749797477  0.5114973711825241  0.1053741426080117
  0.3113441540202512  0.4885026288174760  0.8946258573919884
  0.3113441540202512  0.5114973711825241  0.3946258573919883
  0.6886558749797477  0.4885026288174760  0.6053741426080116
  0.5653704147853762  0.4481488213724589  0.1714696398492383
  0.4346295852146241  0.5518511786275411  0.8285303451507641
  0.4346295852146241  0.4481488213724589  0.3285303451507641
  0.5653704147853762  0.5518511786275411  0.6714696548492359
  0.4265256644828568  0.2754280022000756  0.1176899475633526
  0.5734743355171432  0.7245719977999241  0.8823100294366490
  0.5734743355171432  0.2754280022000756  0.3823100594366516
  0.4265256644828568  0.7245719977999241  0.6176899705633510
  0.0454167451308755  0.3910446457428518  0.0755246285205585
  0.9545832738691226  0.6089553542571483  0.9244753864794389
  0.9545832738691226  0.3910446457428518  0.4244753864794393
  0.0454167451308755  0.6089553542571483  0.5755246135205611
  0.0018055531003571  0.1593808403646433  0.0477900880461927
 -0.0018055511003570  0.8406191456353556  0.9522099339538092
 -0.0018055511003570  0.1593808403646433  0.4522099039538067
  0.0018055531003571  0.8406191456353556  0.5477900660461908
  0.7915235171859608  0.1384321519786058  0.0765484042782723
  0.2084765128140417  0.8615678480213941  0.9234516107217254
  0.2084765128140417  0.1384321519786058  0.4234516107217254
  0.7915235171859608  0.8615678480213941  0.5765483892782746
  0.7533589953866224  0.9096999230163733  0.0473327888627091
  0.2466410046133774  0.0903000769836267  0.9526672071372905
  0.2466410046133774  0.9096999230163733  0.4526672071372906
  0.7533589953866224  0.0903000769836267  0.5473327928627095
  0.5388737970777537  0.8688506277332421  0.0689871997565885
  0.4611262329222416  0.1311493872667558  0.9310128072434158
  0.4611262329222416  0.8688506277332421  0.4310128072434156
  0.5388737970777537  0.1311493872667558  0.5689871927565842
  0.5152494083472526  0.6422254577299547  0.0345101498679743
  0.4847505916527475  0.3577745722700409  0.9654898611320227
  0.4847505916527475  0.6422254577299547  0.4654898611320229
  0.5152494083472526  0.3577745722700409  0.5345101388679773
  0.3098645695769877  0.6353929920178206  0.0664498406778875
  0.6901354304230123  0.3646070079821795  0.9335501823221110
  0.6901354304230123  0.6353929920178206  0.4335501523221155
  0.3098645695769877  0.3646070079821795  0.5664498176778890
  0.2530979607918763  0.4035097394759581  0.0462895962439585
  0.7469020392081234  0.5964902605240419  0.9537103997560407
  0.7469020392081234  0.4035097394759581  0.4537103997560412
  0.2530979607918763  0.5964902605240419  0.5462896002439593
  0.1473161902046523  0.3880187617212305  0.1735652465834590
  0.8526837797953449  0.6119812382787692  0.8264347384165432
  0.8526837797953449  0.3880187617212305  0.3264347384165432
  0.1473161902046523  0.6119812382787692  0.6735652615834568
  0.8600415220680065  0.1009165723249215  0.1747299086320900
  0.1399584779319936  0.8990834346750829  0.8252700613679144
  0.1399584779319936  0.1009165723249215  0.3252700913679101
  0.8600415220680065  0.8990834346750829  0.6747299386320856
  0.5939444880018701  0.8236031521387204  0.1679879504907633
  0.4060555419981251  0.1763968628612775  0.8320120795092394
  0.4060555419981251  0.8236031521387204  0.3320120495092368
  0.5939444880018701  0.1763968628612775  0.6679879204907606
  0.4167263841961535  0.6452267673765189  0.1659768008094412
  0.5832736158038462  0.3547732326234814  0.8340231841905611
  0.5832736158038462  0.6452267673765189  0.3340231841905611
  0.4167263841961535  0.3547732326234814  0.6659768158094389
  0.9466119698678497  0.3228544114322466  0.2017693389566496
  0.0533880041321553  0.6771455585677510  0.7982306310433550
  0.0533880041321553  0.3228544114322466  0.2982306610433503
  0.9466119698678497  0.6771455585677510  0.7017693689566450
 
  0.00000000E+00  0.00000000E+00  0.00000000E+00
  0.00000000E+00  0.00000000E+00  0.00000000E+00
  0.00000000E+00  0.00000000E+00  0.00000000E+00
  0.00000000E+00  0.00000000E+00  0.00000000E+00
  0.00000000E+00  0.00000000E+00  0.00000000E+00
  0.00000000E+00  0.00000000E+00  0.00000000E+00
  0.00000000E+00  0.00000000E+00  0.00000000E+00
  0.00000000E+00  0.00000000E+00  0.00000000E+00
  0.00000000E+00  0.00000000E+00  0.00000000E+00
  0.00000000E+00  0.00000000E+00  0.00000000E+00
  0.00000000E+00  0.00000000E+00  0.00000000E+00
  0.00000000E+00  0.00000000E+00  0.00000000E+00
  0.00000000E+00  0.00000000E+00  0.00000000E+00
  0.00000000E+00  0.00000000E+00  0.00000000E+00
  0.00000000E+00  0.00000000E+00  0.00000000E+00
  0.00000000E+00  0.00000000E+00  0.00000000E+00
  0.00000000E+00  0.00000000E+00  0.00000000E+00
  0.00000000E+00  0.00000000E+00  0.00000000E+00
  0.00000000E+00  0.00000000E+00  0.00000000E+00
  0.00000000E+00  0.00000000E+00  0.00000000E+00
  0.00000000E+00  0.00000000E+00  0.00000000E+00
  0.00000000E+00  0.00000000E+00  0.00000000E+00
  0.00000000E+00  0.00000000E+00  0.00000000E+00
  0.00000000E+00  0.00000000E+00  0.00000000E+00
  0.00000000E+00  0.00000000E+00  0.00000000E+00
  0.00000000E+00  0.00000000E+00  0.00000000E+00
  0.00000000E+00  0.00000000E+00  0.00000000E+00
  0.00000000E+00  0.00000000E+00  0.00000000E+00
  0.00000000E+00  0.00000000E+00  0.00000000E+00
  0.00000000E+00  0.00000000E+00  0.00000000E+00
  0.00000000E+00  0.00000000E+00  0.00000000E+00
  0.00000000E+00  0.00000000E+00  0.00000000E+00
  0.00000000E+00  0.00000000E+00  0.00000000E+00
  0.00000000E+00  0.00000000E+00  0.00000000E+00
  0.00000000E+00  0.00000000E+00  0.00000000E+00
  0.00000000E+00  0.00000000E+00  0.00000000E+00
  0.00000000E+00  0.00000000E+00  0.00000000E+00
  0.00000000E+00  0.00000000E+00  0.00000000E+00
  0.00000000E+00  0.00000000E+00  0.00000000E+00
  0.00000000E+00  0.00000000E+00  0.00000000E+00
  0.00000000E+00  0.00000000E+00  0.00000000E+00
  0.00000000E+00  0.00000000E+00  0.00000000E+00
  0.00000000E+00  0.00000000E+00  0.00000000E+00
  0.00000000E+00  0.00000000E+00  0.00000000E+00
  0.00000000E+00  0.00000000E+00  0.00000000E+00
  0.00000000E+00  0.00000000E+00  0.00000000E+00
  0.00000000E+00  0.00000000E+00  0.00000000E+00
  0.00000000E+00  0.00000000E+00  0.00000000E+00
  0.00000000E+00  0.00000000E+00  0.00000000E+00
  0.00000000E+00  0.00000000E+00  0.00000000E+00
  0.00000000E+00  0.00000000E+00  0.00000000E+00
  0.00000000E+00  0.00000000E+00  0.00000000E+00
  0.00000000E+00  0.00000000E+00  0.00000000E+00
  0.00000000E+00  0.00000000E+00  0.00000000E+00
  0.00000000E+00  0.00000000E+00  0.00000000E+00
  0.00000000E+00  0.00000000E+00  0.00000000E+00
  0.00000000E+00  0.00000000E+00  0.00000000E+00
  0.00000000E+00  0.00000000E+00  0.00000000E+00
  0.00000000E+00  0.00000000E+00  0.00000000E+00
  0.00000000E+00  0.00000000E+00  0.00000000E+00
  0.00000000E+00  0.00000000E+00  0.00000000E+00
  0.00000000E+00  0.00000000E+00  0.00000000E+00
  0.00000000E+00  0.00000000E+00  0.00000000E+00
  0.00000000E+00  0.00000000E+00  0.00000000E+00
  0.00000000E+00  0.00000000E+00  0.00000000E+00
  0.00000000E+00  0.00000000E+00  0.00000000E+00
  0.00000000E+00  0.00000000E+00  0.00000000E+00
  0.00000000E+00  0.00000000E+00  0.00000000E+00
  0.00000000E+00  0.00000000E+00  0.00000000E+00
  0.00000000E+00  0.00000000E+00  0.00000000E+00
  0.00000000E+00  0.00000000E+00  0.00000000E+00
  0.00000000E+00  0.00000000E+00  0.00000000E+00
  0.00000000E+00  0.00000000E+00  0.00000000E+00
  0.00000000E+00  0.00000000E+00  0.00000000E+00
  0.00000000E+00  0.00000000E+00  0.00000000E+00
  0.00000000E+00  0.00000000E+00  0.00000000E+00
  0.00000000E+00  0.00000000E+00  0.00000000E+00
  0.00000000E+00  0.00000000E+00  0.00000000E+00
  0.00000000E+00  0.00000000E+00  0.00000000E+00
  0.00000000E+00  0.00000000E+00  0.00000000E+00
  0.00000000E+00  0.00000000E+00  0.00000000E+00
  0.00000000E+00  0.00000000E+00  0.00000000E+00
  0.00000000E+00  0.00000000E+00  0.00000000E+00
  0.00000000E+00  0.00000000E+00  0.00000000E+00
