Phosphorus
1.0
        9.2100000381         0.0000000000         0.0000000000
        0.0000000000         9.1499996185         0.0000000000
       -6.2673106922         0.0000000000        21.7136094174
    P
   84
Direct
     0.300889999         0.201269999         0.181470007
     0.699110031         0.798730016         0.818529963
     0.699110031         0.201269999         0.318529993
     0.300889999         0.798730016         0.681470037
     0.173869997         0.032620002         0.116949998
     0.826130033         0.967379987         0.883050025
     0.826130033         0.032620002         0.383049995
     0.173869997         0.967379987         0.616949975
     0.924109995         0.780990005         0.116339996
     0.075889997         0.219009995         0.883660018
     0.075889997         0.780990005         0.383660018
     0.924109995         0.219009995         0.616339982
     0.050140001         0.947690010         0.180350006
     0.949859977         0.052310001         0.819649994
     0.949859977         0.947690010         0.319649994
     0.050140001         0.052310001         0.680350006
     0.794629991         0.678719997         0.173800007
     0.205369994         0.321280003         0.826200008
     0.205369994         0.678719997         0.326200008
     0.794629991         0.321280003         0.673799992
     0.684630036         0.515320003         0.104020000
     0.315369993         0.484679997         0.895980000
     0.315369993         0.515320003         0.395980000
     0.684630036         0.484679997         0.604020000
     0.566009998         0.449320018         0.172240004
     0.433990002         0.550679982         0.827759981
     0.433990002         0.449320018         0.327759981
     0.566009998         0.550679982         0.672240019
     0.424239993         0.277409971         0.116719998
     0.575760007         0.722590029         0.883279979
     0.575760007         0.277409971         0.383280009
     0.424239993         0.722590029         0.616720021
     0.041200001         0.390670002         0.072449997
     0.958800018         0.609329998         0.927550018
     0.958800018         0.390670002         0.427550018
     0.041200001         0.609329998         0.572449982
     0.999080002         0.158810005         0.044969998
     0.000920000         0.841189981         0.955030024
     0.000920000         0.158810005         0.455029994
     0.999080002         0.841189981         0.544969976
     0.788470030         0.138779998         0.073459998
     0.211530000         0.861220002         0.926540017
     0.211530000         0.138779998         0.426540017
     0.788470030         0.861220002         0.573459983
     0.748600006         0.909189999         0.044640001
     0.251399994         0.090810001         0.955359995
     0.251399994         0.909189999         0.455359995
     0.748600006         0.090810001         0.544640005
     0.535740018         0.872640014         0.068420000
     0.464260012         0.127360001         0.931580007
     0.464260012         0.872640014         0.431580007
     0.535740018         0.127360001         0.568419993
     0.508329988         0.647240043         0.033039998
     0.491670012         0.352759987         0.966960013
     0.491670012         0.647240043         0.466960013
     0.508329988         0.352759987         0.533039987
     0.305149972         0.637149990         0.066170000
     0.694850028         0.362850010         0.933830023
     0.694850028         0.637149990         0.433829993
     0.305149972         0.362850010         0.566169977
     0.250410020         0.405550003         0.044199999
     0.749589980         0.594449997         0.955799997
     0.749589980         0.405550003         0.455799997
     0.250410020         0.594449997         0.544200003
     0.145999998         0.389050007         0.172189996
     0.853999972         0.610949993         0.827809989
     0.853999972         0.389050007         0.327809989
     0.145999998         0.610949993         0.672190011
     0.860379994         0.100550003         0.173570007
     0.139620006         0.899450004         0.826429963
     0.139620006         0.100550003         0.326429993
     0.860379994         0.899450004         0.673570037
     0.596060038         0.823840022         0.169400007
     0.403939992         0.176159993         0.830600023
     0.403939992         0.823840022         0.330599993
     0.596060038         0.176159993         0.669399977
     0.418560028         0.645810008         0.167319998
     0.581439972         0.354189992         0.832679987
     0.581439972         0.645810008         0.332679987
     0.418560028         0.354189992         0.667320013
     0.945819974         0.322959989         0.200599998
     0.054180000         0.677039981         0.799399972
     0.054180000         0.322959989         0.299400002
     0.945819974         0.677039981         0.700600028
