Phosphorus - aP42+Te                    
   1.00000000000000     
    12.9860000610000004    0.0000000000000000    0.0000000000000000
    -3.2108821820000002    6.3044316090999999    0.0000000000000000
    -6.7146322425999996  -18.7970639772000006   44.5223915105000003
   P 
    84
Selective dynamics
Direct
  0.9175000190858924  0.8914000392411268  0.0186249930398361   F   F   F
  0.1682000160325430  0.8733000159095567  0.0212000012348241   F   F   F
  0.6647999882531579  0.8729999660877539  0.0214000046195935   F   F   F
  0.4186999798224562  0.8815000057487268  0.0219250023388753   F   F   F
  0.0037000009217039  0.7160999774237951  0.0340999960804425   F   F   F
  0.7634999752385525  0.7165000438384510  0.0350500047292357   F   F   F
  0.5076000094872768  0.7081000209625330  0.0362499952326090   F   F   F
  0.2590000033453848  0.7087000012411053  0.0366750061621204   F   F   F
  0.0284000038785166  0.2626999914986854  0.0530999898880680   F   F   F
  0.2756999731495000  0.2400999963594117  0.0550999902245053   F   F   F
  0.7739999890190177  0.2414000033576400  0.0555749833522867   F   F   F
  0.5270999669671710  0.2515999972463661  0.0561499893690680   F   F   F
  0.0459999963475966  0.9085000752929062  0.0826250016720778   F   F   F
  0.8690000176036037  0.9110000132845855  0.0836250185959102   F   F   F
  0.1640000045501182  0.2606000005803040  0.0849249958890539   F   F   F
  0.5945000052693530  0.8987999559026534  0.0853250026810457   F   F   F
  0.9272000197210133  0.2662000059400995  0.0855499803981061   F   F   F
  0.3155999779718925  0.9026999473004338  0.0857000052905974   F   F   F
  0.6692000031736285  0.2531000078529573  0.0871250033387199   F   F   F
  0.4199000299360875  0.2578999996294300  0.0872499942884701   F   F   F
  0.4483000040165024  0.8294999599654389  0.1058749854640766   F   F   F
  0.5516999960176605  0.1704999804644061  0.1441249996529663   F   F   F
  0.5800999999378149  0.7421000004410061  0.1627499908285728   F   F   F
  0.3307999968371220  0.7468999623835870  0.1628749966697072   F   F   F
  0.6844000220485071  0.0973000080259609  0.1642999947178225   F   F   F
  0.0727999955321650  0.7337999344227768  0.1644500046964765   F   F   F
  0.4054999947510467  0.1011999994237414  0.1646749973273742   F   F   F
  0.8359999656311388  0.7393999695892717  0.1650750040969129   F   F   F
  0.1309999972788560  0.0889999940551078  0.1663749963038939   F   F   F
  0.9539999963900243  0.0915000066111205  0.1673749983363422   F   F   F
  0.4729000032422519  0.7483999729901782  0.1938500106393590   F   F   F
  0.2260000109475797  0.7586000561277970  0.1944250017422959   F   F   F
  0.7243000269363620  0.7598999738773884  0.1948999911640783   F   F   F
  0.9715999960654713  0.7373000383114743  0.1969000100978988   F   F   F
  0.7409999966454350  0.2912999689556628  0.2133249640410710   F   F   F
  0.4923999607165825  0.2919000088214503  0.2137499600567452   F   F   F
  0.2364999800935408  0.2834999562319851  0.2149499803878001   F   F   F
  0.9962999818926548  0.2838999927593804  0.2158999890141331   F   F   F
  0.5813000201236065  0.1185000462791308  0.2280750124935480   F   F   F
  0.3352000414942964  0.1270000486113574  0.2285999952989854   F   F   F
  0.8317999839726795  0.1266999692507298  0.2287999838822117   F   F   F
  0.0825000108314384  0.1086000132893616  0.2313749940312775   F   F   F
  0.9219820828631927  0.9135454731326594  0.2662567193880950   T   T   T
  0.1750881437776156  0.8877062515414070  0.2721484047541958   T   T   T
  0.6710344099588480  0.8895628480647298  0.2736752909157826   T   T   T
  0.4243899528198924  0.8902236252931736  0.2742260843201179   T   T   T
  0.0034718427976222  0.7358745700510722  0.2827535991688435   T   T   T
  0.7760645408998601  0.7357918063535036  0.2846223932962543   T   T   T
  0.5159493252236319  0.7227353647085561  0.2895583086706817   T   T   T
  0.2636548308693559  0.7208207916683769  0.2887460210804648   T   T   T
  0.0331819438678753  0.2867363568957438  0.3008690060471067   T   T   T
  0.2825154975466578  0.2601585249610335  0.3059520562014990   T   T   T
  0.7821578866136784  0.2633759119820804  0.3073758459599152   T   T   T
  0.5334309734758191  0.2620034273737815  0.3076797866380413   T   T   T
  0.0529490878252878  0.9263109523212744  0.3323879877062487   T   T   T
  0.8769617289795012  0.9286150152606288  0.3338010204528259   T   T   T
  0.1659524204008553  0.2828087172142345  0.3337501381456026   T   T   T
  0.6100722873062484  0.9277993204243441  0.3382313762154568   T   T   T
  0.9389229932622739  0.2855545716103454  0.3350644673891008   T   T   T
  0.3191537311129004  0.9249199388435251  0.3373633358567306   T   T   T
  0.6803364321519294  0.2802263704431054  0.3395173660862915   T   T   T
  0.4244361864899167  0.2768216777584624  0.3385766932268812   T   T   T
  0.4559060311027591  0.8524873104566931  0.3574768068276624   T   T   T
  0.5588162965111561  0.1930166574080723  0.3970967712537153   T   T   T
  0.5867567357305067  0.7589349455285359  0.4121767947923270   T   T   T
  0.3300054721161286  0.7534949893435166  0.4115333974475040   T   T   T
  0.6953433913458595  0.1185012990645337  0.4168661606743929   T   T   T
  0.0724516119056511  0.7512052615465353  0.4163505880667904   T   T   T
  0.4035888925265069  0.1136282880667376  0.4161286345155243   T   T   T
  0.8467916686548461  0.7545334065608308  0.4169954439248671   T   T   T
  0.1412219268443626  0.1180712869055738  0.4220307650219324   T   T   T
  0.9650502717661865  0.1199154972122365  0.4223272068676557   T   T   T
  0.4730386751335870  0.7545109022021587  0.4423294986707979   T   T   T
  0.2237296407786625  0.7515235495925883  0.4429120452940829   T   T   T
  0.7244692802456943  0.7587691944888530  0.4438152467268206   T   T   T
  0.9709380236962810  0.7269914481170481  0.4490866604586771   T   T   T
  0.7455353188885091  0.3010488780799322  0.4660635215041142   T   T   T
  0.4928804054473838  0.2973777220720447  0.4653483108606086   T   T   T
  0.2328168455587294  0.2804333881129732  0.4718626479115270   T   T   T
  0.0067388726558858  0.2837749984618586  0.4722187165357892   T   T   T
  0.5809717567014532  0.1180185551166397  0.4786282923896755   T   T   T
  0.3358863666935052  0.1159046982749855  0.4799548628772607   T   T   T
  0.8307782813699819  0.1232194694755901  0.4806921424355030   T   T   T
  0.0802516042486046  0.0905125396717503  0.4874075904481066   T   T   T
 
  0.00000000E+00  0.00000000E+00  0.00000000E+00
  0.00000000E+00  0.00000000E+00  0.00000000E+00
  0.00000000E+00  0.00000000E+00  0.00000000E+00
  0.00000000E+00  0.00000000E+00  0.00000000E+00
  0.00000000E+00  0.00000000E+00  0.00000000E+00
  0.00000000E+00  0.00000000E+00  0.00000000E+00
  0.00000000E+00  0.00000000E+00  0.00000000E+00
  0.00000000E+00  0.00000000E+00  0.00000000E+00
  0.00000000E+00  0.00000000E+00  0.00000000E+00
  0.00000000E+00  0.00000000E+00  0.00000000E+00
  0.00000000E+00  0.00000000E+00  0.00000000E+00
  0.00000000E+00  0.00000000E+00  0.00000000E+00
  0.00000000E+00  0.00000000E+00  0.00000000E+00
  0.00000000E+00  0.00000000E+00  0.00000000E+00
  0.00000000E+00  0.00000000E+00  0.00000000E+00
  0.00000000E+00  0.00000000E+00  0.00000000E+00
  0.00000000E+00  0.00000000E+00  0.00000000E+00
  0.00000000E+00  0.00000000E+00  0.00000000E+00
  0.00000000E+00  0.00000000E+00  0.00000000E+00
  0.00000000E+00  0.00000000E+00  0.00000000E+00
  0.00000000E+00  0.00000000E+00  0.00000000E+00
  0.00000000E+00  0.00000000E+00  0.00000000E+00
  0.00000000E+00  0.00000000E+00  0.00000000E+00
  0.00000000E+00  0.00000000E+00  0.00000000E+00
  0.00000000E+00  0.00000000E+00  0.00000000E+00
  0.00000000E+00  0.00000000E+00  0.00000000E+00
  0.00000000E+00  0.00000000E+00  0.00000000E+00
  0.00000000E+00  0.00000000E+00  0.00000000E+00
  0.00000000E+00  0.00000000E+00  0.00000000E+00
  0.00000000E+00  0.00000000E+00  0.00000000E+00
  0.00000000E+00  0.00000000E+00  0.00000000E+00
  0.00000000E+00  0.00000000E+00  0.00000000E+00
  0.00000000E+00  0.00000000E+00  0.00000000E+00
  0.00000000E+00  0.00000000E+00  0.00000000E+00
  0.00000000E+00  0.00000000E+00  0.00000000E+00
  0.00000000E+00  0.00000000E+00  0.00000000E+00
  0.00000000E+00  0.00000000E+00  0.00000000E+00
  0.00000000E+00  0.00000000E+00  0.00000000E+00
  0.00000000E+00  0.00000000E+00  0.00000000E+00
  0.00000000E+00  0.00000000E+00  0.00000000E+00
  0.00000000E+00  0.00000000E+00  0.00000000E+00
  0.00000000E+00  0.00000000E+00  0.00000000E+00
  0.00000000E+00  0.00000000E+00  0.00000000E+00
  0.00000000E+00  0.00000000E+00  0.00000000E+00
  0.00000000E+00  0.00000000E+00  0.00000000E+00
  0.00000000E+00  0.00000000E+00  0.00000000E+00
  0.00000000E+00  0.00000000E+00  0.00000000E+00
  0.00000000E+00  0.00000000E+00  0.00000000E+00
  0.00000000E+00  0.00000000E+00  0.00000000E+00
  0.00000000E+00  0.00000000E+00  0.00000000E+00
  0.00000000E+00  0.00000000E+00  0.00000000E+00
  0.00000000E+00  0.00000000E+00  0.00000000E+00
  0.00000000E+00  0.00000000E+00  0.00000000E+00
  0.00000000E+00  0.00000000E+00  0.00000000E+00
  0.00000000E+00  0.00000000E+00  0.00000000E+00
  0.00000000E+00  0.00000000E+00  0.00000000E+00
  0.00000000E+00  0.00000000E+00  0.00000000E+00
  0.00000000E+00  0.00000000E+00  0.00000000E+00
  0.00000000E+00  0.00000000E+00  0.00000000E+00
  0.00000000E+00  0.00000000E+00  0.00000000E+00
  0.00000000E+00  0.00000000E+00  0.00000000E+00
  0.00000000E+00  0.00000000E+00  0.00000000E+00
  0.00000000E+00  0.00000000E+00  0.00000000E+00
  0.00000000E+00  0.00000000E+00  0.00000000E+00
  0.00000000E+00  0.00000000E+00  0.00000000E+00
  0.00000000E+00  0.00000000E+00  0.00000000E+00
  0.00000000E+00  0.00000000E+00  0.00000000E+00
  0.00000000E+00  0.00000000E+00  0.00000000E+00
  0.00000000E+00  0.00000000E+00  0.00000000E+00
  0.00000000E+00  0.00000000E+00  0.00000000E+00
  0.00000000E+00  0.00000000E+00  0.00000000E+00
  0.00000000E+00  0.00000000E+00  0.00000000E+00
  0.00000000E+00  0.00000000E+00  0.00000000E+00
  0.00000000E+00  0.00000000E+00  0.00000000E+00
  0.00000000E+00  0.00000000E+00  0.00000000E+00
  0.00000000E+00  0.00000000E+00  0.00000000E+00
  0.00000000E+00  0.00000000E+00  0.00000000E+00
  0.00000000E+00  0.00000000E+00  0.00000000E+00
  0.00000000E+00  0.00000000E+00  0.00000000E+00
  0.00000000E+00  0.00000000E+00  0.00000000E+00
  0.00000000E+00  0.00000000E+00  0.00000000E+00
  0.00000000E+00  0.00000000E+00  0.00000000E+00
  0.00000000E+00  0.00000000E+00  0.00000000E+00
  0.00000000E+00  0.00000000E+00  0.00000000E+00
