Tellurium                               
   1.00000000000000     
     4.4189996833324372    0.0000000000000000    0.0000000000000000
    -2.2094998416662186    3.8269659851044291   -0.0000000000000000
     0.0000000000000000    0.0000000000000000    5.9216861962449832
   Te
     3
Direct
  0.2782684459388992  0.0000000000000000  0.3333333429999996
 -0.0000000000000006  0.2782684459388980  0.6666666870000029
  0.7217315840611038  0.7217315840611043 -0.0000000000000000
 
  0.00000000E+00  0.00000000E+00  0.00000000E+00
  0.00000000E+00  0.00000000E+00  0.00000000E+00
  0.00000000E+00  0.00000000E+00  0.00000000E+00
