 vasp.5.4.4.18Apr17-6-g9f103f2a35 (build Feb 10 2022 16:34:21) complex          
  
 executed on         VASP-optcell date 2026.04.16  11:06:35
 running on    4 total cores
 distrk:  each k-point on    4 cores,    1 groups
 distr:  one band on NCORES_PER_BAND=   2 cores,    2 groups


--------------------------------------------------------------------------------------------------------


 INCAR:
 POTCAR:    PAW_PBE Te 08Apr2002                  
 POTCAR:    PAW_PBE Te 08Apr2002                  
   VRHFIN =Te: s2p4                                                             
   LEXCH  = PE                                                                  
   EATOM  =   223.2721 eV,   16.4100 Ry                                         
                                                                                
   TITEL  = PAW_PBE Te 08Apr2002                                                
   LULTRA =        F    use ultrasoft PP ?                                      
   IUNSCR =        1    unscreen: 0-lin 1-nonlin 2-no                           
   RPACOR =    2.200    partial core radius                                     
   POMASS =  127.600; ZVAL   =    6.000    mass and valenz                      
   RCORE  =    2.300    outmost cutoff radius                                   
   RWIGS  =    2.900; RWIGS  =    1.535    wigner-seitz radius (au A)           
   ENMAX  =  174.982; ENMIN  =  131.236 eV                                      
   ICORE  =        3    local potential                                         
   LCOR   =        T    correct aug charges                                     
   LPAW   =        T    paw PP                                                  
   EAUG   =  368.792                                                            
   DEXC   =    0.000                                                            
   RMAX   =    2.345    core radius for proj-oper                               
   RAUG   =    1.300    factor for augmentation sphere                          
   RDEP   =    2.397    radius for radial grids                                 
   RDEPT  =    2.174    core radius for aug-charge                              
                                                                                
   Atomic configuration                                                         
   13 entries                                                                   
     n  l   j            E        occ.                                          
     1  0  0.50    -31621.2075   2.0000                                         
     2  0  0.50     -4848.7941   2.0000                                         
     2  1  1.50     -4352.1960   6.0000                                         
     3  0  0.50      -964.9612   2.0000                                         
     3  1  1.50      -803.6179   6.0000                                         
     3  2  2.50      -559.8710  10.0000                                         
     4  0  0.50      -164.3522   2.0000                                         
     4  1  1.50      -114.3756   6.0000                                         
     4  2  2.50       -41.6483  10.0000                                         
     5  0  0.50       -15.1072   2.0000                                         
     5  1  0.50        -5.9526   4.0000                                         
     5  2  1.50        -5.4423   0.0000                                         
     4  3  2.50        -5.4423   0.0000                                         
   Description                                                                  
     l       E           TYP  RCUT    TYP  RCUT                                 
     0    -15.1072389     23  2.300                                             
     0    -16.4678215     23  2.300                                             
     1     -5.9526306     23  2.300                                             
     1     -2.4873968     23  2.300                                             
     2     -5.4423304     23  2.300                                             
     3     -1.3605826     23  2.300                                             
  local pseudopotential read in
  partial core-charges read in
  partial kinetic energy density read in
  atomic valenz-charges read in
  non local Contribution for L=           0  read in
    real space projection operators read in
  non local Contribution for L=           0  read in
    real space projection operators read in
  non local Contribution for L=           1  read in
    real space projection operators read in
  non local Contribution for L=           1  read in
    real space projection operators read in
  non local Contribution for L=           2  read in
    real space projection operators read in
    PAW grid and wavefunctions read in
 
   number of l-projection  operators is LMAX  =           5
   number of lm-projection operators is LMMAX =          13
 
  PAW_PBE Te 08Apr2002                  :
 energy of atom  1       EATOM= -223.2721
 kinetic energy error for atom=    0.0007 (will be added to EATOM!!)
 
 
 POSCAR: Tellurium                               
  positions in direct lattice
  No initial velocities read in
 exchange correlation table for  LEXCH =        8
   RHO(1)=    0.500       N(1)  =     2000
   RHO(2)=  100.500       N(2)  =     4000
 


--------------------------------------------------------------------------------------------------------


 ion  position               nearest neighbor table
   1  0.262  0.000  0.333-   3 2.83   2 2.83   2 3.50   2 3.50   3 3.50   3 3.50
   2  0.000  0.262  0.667-   3 2.83   1 2.83   3 3.50   3 3.50   1 3.50   1 3.50
   3  0.738  0.738  0.000-   2 2.83   1 2.83   2 3.50   2 3.50   1 3.50   1 3.50
 
  LATTYP: Found a hexagonal cell.
 ALAT       =     4.4593000412
 C/A-ratio  =     1.3294014113
  
  Lattice vectors:
  
 A1 = (   4.4593000412,   0.0000000000,   0.0000000000)
 A2 = (  -2.2296500206,   3.8618671188,   0.0000000000)
 A3 = (   0.0000000000,   0.0000000000,   5.9281997681)


Analysis of symmetry for initial positions (statically):
=====================================================================
 Subroutine PRICEL returns:
 Original cell was already a primitive cell.
 

 Routine SETGRP: Setting up the symmetry group for a 
 hexagonal supercell.


 Subroutine GETGRP returns: Found  6 space group operations
 (whereof  2 operations were pure point group operations)
 out of a pool of 24 trial point group operations.


The static configuration has the point symmetry C_2 .
 The point group associated with its full space group is D_3 .


Analysis of symmetry for dynamics (positions and initial velocities):
=====================================================================
 Subroutine PRICEL returns:
 Original cell was already a primitive cell.
 

 Routine SETGRP: Setting up the symmetry group for a 
 hexagonal supercell.


 Subroutine GETGRP returns: Found  6 space group operations
 (whereof  2 operations were pure point group operations)
 out of a pool of 24 trial point group operations.


The dynamic configuration has the point symmetry C_2 .
 The point group associated with its full space group is D_3 .


 Subroutine INISYM returns: Found  6 space group operations
 (whereof  2 operations are pure point group operations),
 and found     1 'primitive' translations

 
 
 KPOINTS: K-Spacing Value to Generate K-Mesh: 0.04

Automatic generation of k-mesh.
Space group operators:
 irot       det(A)        alpha          n_x          n_y          n_z        tau_x        tau_y        tau_z
    1     1.000000     0.000000     1.000000     0.000000     0.000000     0.000000     0.000000     0.000000
    2     1.000000   180.000000    -0.500000    -0.866025     0.000000     0.000000     0.000000     0.000000
    3     1.000000   120.000000     0.000000     0.000000    -1.000000     0.000000     0.000000     0.333333
    4     1.000000   120.000000     0.000000     0.000000     1.000000     0.000000     0.000000     0.666667
    5     1.000000   180.000000     1.000000     0.000000     0.000000     0.000000     0.000000     0.666667
    6     1.000000   180.000000     0.500000    -0.866025     0.000000     0.000000     0.000000     0.333333
 
 Subroutine IBZKPT returns following result:
 ===========================================
 
 Found     43 irreducible k-points:
 
 Following reciprocal coordinates:
            Coordinates               Weight
  0.000000  0.000000  0.000000      1.000000
  0.111111  0.000000  0.000000      6.000000
  0.222222  0.000000  0.000000      6.000000
  0.333333 -0.000000  0.000000      6.000000
  0.444444  0.000000  0.000000      6.000000
  0.111111  0.111111  0.000000      6.000000
  0.222222  0.111111  0.000000     12.000000
  0.333333  0.111111  0.000000     12.000000
  0.444444  0.111111  0.000000      6.000000
  0.222222  0.222222  0.000000      6.000000
  0.333333  0.222222  0.000000     12.000000
  0.333333  0.333333  0.000000      2.000000
  0.000000  0.000000  0.250000      2.000000
  0.111111  0.000000  0.250000      6.000000
  0.222222  0.000000  0.250000      6.000000
  0.333333 -0.000000  0.250000      6.000000
  0.444444  0.000000  0.250000      6.000000
 -0.444444 -0.000000  0.250000      6.000000
 -0.333333  0.000000  0.250000      6.000000
 -0.222222 -0.000000  0.250000      6.000000
 -0.111111 -0.000000  0.250000      6.000000
  0.111111  0.111111  0.250000     12.000000
  0.222222  0.111111  0.250000     12.000000
  0.333333  0.111111  0.250000     12.000000
  0.444444  0.111111  0.250000     12.000000
 -0.444444  0.111111  0.250000     12.000000
 -0.333333  0.111111  0.250000     12.000000
  0.222222  0.222222  0.250000     12.000000
  0.333333  0.222222  0.250000     12.000000
  0.444444  0.222222  0.250000     12.000000
  0.333333  0.333333  0.250000      4.000000
  0.000000  0.000000  0.500000      1.000000
  0.111111  0.000000  0.500000      6.000000
  0.222222  0.000000  0.500000      6.000000
  0.333333 -0.000000  0.500000      6.000000
  0.444444  0.000000  0.500000      6.000000
  0.111111  0.111111  0.500000      6.000000
  0.222222  0.111111  0.500000     12.000000
  0.333333  0.111111  0.500000     12.000000
  0.444444  0.111111  0.500000      6.000000
  0.222222  0.222222  0.500000      6.000000
  0.333333  0.222222  0.500000     12.000000
  0.333333  0.333333  0.500000      2.000000
 
 Following cartesian coordinates:
            Coordinates               Weight
  0.000000  0.000000  0.000000      1.000000
  0.024917  0.014386  0.000000      6.000000
  0.049833  0.028771  0.000000      6.000000
  0.074750  0.043157  0.000000      6.000000
  0.099667  0.057543  0.000000      6.000000
  0.024917  0.043157  0.000000      6.000000
  0.049833  0.057543  0.000000     12.000000
  0.074750  0.071928  0.000000     12.000000
  0.099667  0.086314  0.000000      6.000000
  0.049833  0.086314  0.000000      6.000000
  0.074750  0.100700  0.000000     12.000000
  0.074750  0.129471  0.000000      2.000000
  0.000000  0.000000  0.042171      2.000000
  0.024917  0.014386  0.042171      6.000000
  0.049833  0.028771  0.042171      6.000000
  0.074750  0.043157  0.042171      6.000000
  0.099667  0.057543  0.042171      6.000000
 -0.099667 -0.057543  0.042171      6.000000
 -0.074750 -0.043157  0.042171      6.000000
 -0.049833 -0.028771  0.042171      6.000000
 -0.024917 -0.014386  0.042171      6.000000
  0.024917  0.043157  0.042171     12.000000
  0.049833  0.057543  0.042171     12.000000
  0.074750  0.071928  0.042171     12.000000
  0.099667  0.086314  0.042171     12.000000
 -0.099667 -0.028771  0.042171     12.000000
 -0.074750 -0.014386  0.042171     12.000000
  0.049833  0.086314  0.042171     12.000000
  0.074750  0.100700  0.042171     12.000000
  0.099667  0.115085  0.042171     12.000000
  0.074750  0.129471  0.042171      4.000000
  0.000000  0.000000  0.084343      1.000000
  0.024917  0.014386  0.084343      6.000000
  0.049833  0.028771  0.084343      6.000000
  0.074750  0.043157  0.084343      6.000000
  0.099667  0.057543  0.084343      6.000000
  0.024917  0.043157  0.084343      6.000000
  0.049833  0.057543  0.084343     12.000000
  0.074750  0.071928  0.084343     12.000000
  0.099667  0.086314  0.084343      6.000000
  0.049833  0.086314  0.084343      6.000000
  0.074750  0.100700  0.084343     12.000000
  0.074750  0.129471  0.084343      2.000000
 


--------------------------------------------------------------------------------------------------------




 Dimension of arrays:
   k-points           NKPTS =     43   k-points in BZ     NKDIM =     43   number of bands    NBANDS=     14
   number of dos      NEDOS =    301   number of ions     NIONS =      3
   non local maximal  LDIM  =      5   non local SUM 2l+1 LMDIM =     13
   total plane-waves  NPLWV =  28224
   max r-space proj   IRMAX =      1   max aug-charges    IRDMAX=  16277
   dimension x,y,z NGX =    28 NGY =   28 NGZ =   36
   dimension x,y,z NGXF=    56 NGYF=   56 NGZF=   72
   support grid    NGXF=    56 NGYF=   56 NGZF=   72
   ions per type =               3
   NGX,Y,Z   is equivalent  to a cutoff of  10.44, 10.44, 10.10 a.u.
   NGXF,Y,Z  is equivalent  to a cutoff of  20.88, 20.88, 20.19 a.u.

 SYSTEM =  unknown system                          
 POSCAR =  Tellurium                               

 Startparameter for this run:
   NWRITE =      2    write-flag & timer
   PREC   = n         normal or accurate (medium, high low for compatibility)
   ISTART =      0    job   : 0-new  1-cont  2-samecut
   ICHARG =      2    charge: 1-file 2-atom 10-const
   ISPIN  =      1    spin polarized calculation?
   LNONCOLLINEAR =      F non collinear calculations
   LSORBIT =      F    spin-orbit coupling
   INIWAV =      1    electr: 0-lowe 1-rand  2-diag
   LASPH  =      F    aspherical Exc in radial PAW
   METAGGA=      F    non-selfconsistent MetaGGA calc.

 Electronic Relaxation 1
   ENCUT  =  520.0 eV  38.22 Ry    6.18 a.u.   8.29  8.29 11.02*2*pi/ulx,y,z
   ENINI  =  520.0     initial cutoff
   ENAUG  =  368.8 eV  augmentation charge cutoff
   NELM   =     80;   NELMIN=  2; NELMDL= -5     # of ELM steps 
   EDIFF  = 0.1E-04   stopping-criterion for ELM
   LREAL  =      F    real-space projection
   NLSPLINE    = F    spline interpolate recip. space projectors
   LCOMPAT=      F    compatible to vasp.4.4
   GGA_COMPAT  = T    GGA compatible to vasp.4.4-vasp.4.6
   LMAXPAW     = -100 max onsite density
   LMAXMIX     =    2 max onsite mixed and CHGCAR
   VOSKOWN=      0    Vosko Wilk Nusair interpolation
   ROPT   =    0.00000
 Ionic relaxation
   EDIFFG = -.1E-01   stopping-criterion for IOM
   NSW    =    100    number of steps for IOM
   NBLOCK =      1;   KBLOCK =    100    inner block; outer block 
   IBRION =      2    ionic relax: 0-MD 1-quasi-New 2-CG
   NFREE  =      1    steps in history (QN), initial steepest desc. (CG)
   ISIF   =      3    stress and relaxation
   IWAVPR =     11    prediction:  0-non 1-charg 2-wave 3-comb
   ISYM   =      2    0-nonsym 1-usesym 2-fastsym
   LCORR  =      T    Harris-Foulkes like correction to forces

   POTIM  = 0.5000    time-step for ionic-motion
   TEIN   =    0.0    initial temperature
   TEBEG  =    0.0;   TEEND  =   0.0 temperature during run
   SMASS  =  -3.00    Nose mass-parameter (am)
   estimated Nose-frequenzy (Omega)   =  0.10E-29 period in steps =****** mass=  -0.454E-27a.u.
   SCALEE = 1.0000    scale energy and forces
   NPACO  =    256;   APACO  = 16.0  distance and # of slots for P.C.
   PSTRESS=    0.0 pullay stress

  Mass of Ions in am
   POMASS = 127.60
  Ionic Valenz
   ZVAL   =   6.00
  Atomic Wigner-Seitz radii
   RWIGS  =  -1.00
  virtual crystal weights 
   VCA    =   1.00
   NELECT =      18.0000    total number of electrons
   NUPDOWN=      -1.0000    fix difference up-down

 DOS related values:
   EMIN   =  10.00;   EMAX   =-10.00  energy-range for DOS
   EFERMI =   0.00
   ISMEAR =     0;   SIGMA  =   0.05  broadening in eV -4-tet -1-fermi 0-gaus

 Electronic relaxation 2 (details)
   IALGO  =     38    algorithm
   LDIAG  =      T    sub-space diagonalisation (order eigenvalues)
   LSUBROT=      F    optimize rotation matrix (better conditioning)
   TURBO    =      0    0=normal 1=particle mesh
   IRESTART =      0    0=no restart 2=restart with 2 vectors
   NREBOOT  =      0    no. of reboots
   NMIN     =      0    reboot dimension
   EREF     =   0.00    reference energy to select bands
   IMIX   =      4    mixing-type and parameters
     AMIX     =   0.40;   BMIX     =  1.00
     AMIX_MAG =   1.60;   BMIX_MAG =  1.00
     AMIN     =   0.10
     WC   =   100.;   INIMIX=   1;  MIXPRE=   1;  MAXMIX= -45

 Intra band minimization:
   WEIMIN = 0.0010     energy-eigenvalue tresh-hold
   EBREAK =  0.18E-06  absolut break condition
   DEPER  =   0.30     relativ break condition  

   TIME   =   0.40     timestep for ELM

  volume/ion in A,a.u.               =      34.03       229.65
  Fermi-wavevector in a.u.,A,eV,Ry     =   0.917987  1.734745 11.465641  0.842701
  Thomas-Fermi vector in A             =   2.043018
 
 Write flags
   LWAVE        =      T    write WAVECAR
   LDOWNSAMPLE  =      F    k-point downsampling of WAVECAR
   LCHARG       =      T    write CHGCAR
   LVTOT        =      F    write LOCPOT, total local potential
   LVHAR        =      F    write LOCPOT, Hartree potential only
   LELF         =      F    write electronic localiz. function (ELF)
   LORBIT       =      0    0 simple, 1 ext, 2 COOP (PROOUT), +10 PAW based schemes


 Dipole corrections
   LMONO  =      F    monopole corrections only (constant potential shift)
   LDIPOL =      F    correct potential (dipole corrections)
   IDIPOL =      0    1-x, 2-y, 3-z, 4-all directions 
   EPSILON=  1.0000000 bulk dielectric constant

 Exchange correlation treatment:
   GGA     =    --    GGA type
   LEXCH   =     8    internal setting for exchange type
   VOSKOWN=      0    Vosko Wilk Nusair interpolation
   LHFCALC =     F    Hartree Fock is set to
   LHFONE  =     F    Hartree Fock one center treatment
   AEXX    =    0.0000 exact exchange contribution

 Linear response parameters
   LEPSILON=     F    determine dielectric tensor
   LRPA    =     F    only Hartree local field effects (RPA)
   LNABLA  =     F    use nabla operator in PAW spheres
   LVEL    =     F    velocity operator in full k-point grid
   LINTERFAST=   F  fast interpolation
   KINTER  =     0    interpolate to denser k-point grid
   CSHIFT  =0.1000    complex shift for real part using Kramers Kronig
   OMEGAMAX=  -1.0    maximum frequency
   DEG_THRESHOLD= 0.2000000E-02 threshold for treating states as degnerate
   RTIME   =   -0.100 relaxation time in fs
  (WPLASMAI=    0.000 imaginary part of plasma frequency in eV, 0.658/RTIME)
   DFIELD  = 0.0000000 0.0000000 0.0000000 field for delta impulse in time
 
 Orbital magnetization related:
   ORBITALMAG=     F  switch on orbital magnetization
   LCHIMAG   =     F  perturbation theory with respect to B field
   DQ        =  0.001000  dq finite difference perturbation B field
   LLRAUG    =     F  two centre corrections for induced B field



--------------------------------------------------------------------------------------------------------


 conjugate gradient relaxation of ions
 charge density and potential will be updated during run
 non-spin polarized calculation
 Variant of blocked Davidson
 Davidson routine will perform the subspace rotation
 perform sub-space diagonalisation
    after iterative eigenvector-optimisation
 modified Broyden-mixing scheme, WC =      100.0
 initial mixing is a Kerker type mixing with AMIX =  0.4000 and BMIX =      1.0000
 Hartree-type preconditioning will be used
 using additional bands            5
 reciprocal scheme for non local part
 use partial core corrections
 calculate Harris-corrections to forces 
   (improved forces if not selfconsistent)
 use gradient corrections 
 use of overlap-Matrix (Vanderbilt PP)
 Gauss-broadening in eV      SIGMA  =   0.05


--------------------------------------------------------------------------------------------------------


  energy-cutoff  :      520.00
  volume of cell :      102.09
      direct lattice vectors                 reciprocal lattice vectors
     4.459300041  0.000000000  0.000000000     0.224250441  0.129471052  0.000000000
    -2.229650021  3.861867119  0.000000000     0.000000000  0.258942105  0.000000000
     0.000000000  0.000000000  5.928199768     0.000000000  0.000000000  0.168685274

  length of vectors
     4.459300041  4.459300041  5.928199768     0.258942105  0.258942105  0.168685274


 
 k-points in units of 2pi/SCALE and weight: K-Spacing Value to Generate K-Mesh: 0.04
   0.00000000  0.00000000  0.00000000       0.003
   0.02491672  0.01438567  0.00000000       0.019
   0.04983343  0.02877134  0.00000000       0.019
   0.07475015  0.04315702  0.00000000       0.019
   0.09966686  0.05754269  0.00000000       0.019
   0.02491672  0.04315702  0.00000000       0.019
   0.04983343  0.05754269  0.00000000       0.037
   0.07475015  0.07192836  0.00000000       0.037
   0.09966686  0.08631403  0.00000000       0.019
   0.04983343  0.08631403  0.00000000       0.019
   0.07475015  0.10069971  0.00000000       0.037
   0.07475015  0.12947105  0.00000000       0.006
   0.00000000  0.00000000  0.04217132       0.006
   0.02491672  0.01438567  0.04217132       0.019
   0.04983343  0.02877134  0.04217132       0.019
   0.07475015  0.04315702  0.04217132       0.019
   0.09966686  0.05754269  0.04217132       0.019
  -0.09966686 -0.05754269  0.04217132       0.019
  -0.07475015 -0.04315702  0.04217132       0.019
  -0.04983343 -0.02877134  0.04217132       0.019
  -0.02491672 -0.01438567  0.04217132       0.019
   0.02491672  0.04315702  0.04217132       0.037
   0.04983343  0.05754269  0.04217132       0.037
   0.07475015  0.07192836  0.04217132       0.037
   0.09966686  0.08631403  0.04217132       0.037
  -0.09966686 -0.02877134  0.04217132       0.037
  -0.07475015 -0.01438567  0.04217132       0.037
   0.04983343  0.08631403  0.04217132       0.037
   0.07475015  0.10069971  0.04217132       0.037
   0.09966686  0.11508538  0.04217132       0.037
   0.07475015  0.12947105  0.04217132       0.012
   0.00000000  0.00000000  0.08434264       0.003
   0.02491672  0.01438567  0.08434264       0.019
   0.04983343  0.02877134  0.08434264       0.019
   0.07475015  0.04315702  0.08434264       0.019
   0.09966686  0.05754269  0.08434264       0.019
   0.02491672  0.04315702  0.08434264       0.019
   0.04983343  0.05754269  0.08434264       0.037
   0.07475015  0.07192836  0.08434264       0.037
   0.09966686  0.08631403  0.08434264       0.019
   0.04983343  0.08631403  0.08434264       0.019
   0.07475015  0.10069971  0.08434264       0.037
   0.07475015  0.12947105  0.08434264       0.006
 
 k-points in reciprocal lattice and weights: K-Spacing Value to Generate K-Mesh: 0.04
   0.00000000  0.00000000  0.00000000       0.003
   0.11111111  0.00000000  0.00000000       0.019
   0.22222222  0.00000000  0.00000000       0.019
   0.33333333 -0.00000000  0.00000000       0.019
   0.44444444  0.00000000  0.00000000       0.019
   0.11111111  0.11111111  0.00000000       0.019
   0.22222222  0.11111111  0.00000000       0.037
   0.33333333  0.11111111  0.00000000       0.037
   0.44444444  0.11111111  0.00000000       0.019
   0.22222222  0.22222222  0.00000000       0.019
   0.33333333  0.22222222  0.00000000       0.037
   0.33333333  0.33333333  0.00000000       0.006
   0.00000000  0.00000000  0.25000000       0.006
   0.11111111  0.00000000  0.25000000       0.019
   0.22222222  0.00000000  0.25000000       0.019
   0.33333333 -0.00000000  0.25000000       0.019
   0.44444444  0.00000000  0.25000000       0.019
  -0.44444444 -0.00000000  0.25000000       0.019
  -0.33333333  0.00000000  0.25000000       0.019
  -0.22222222 -0.00000000  0.25000000       0.019
  -0.11111111 -0.00000000  0.25000000       0.019
   0.11111111  0.11111111  0.25000000       0.037
   0.22222222  0.11111111  0.25000000       0.037
   0.33333333  0.11111111  0.25000000       0.037
   0.44444444  0.11111111  0.25000000       0.037
  -0.44444444  0.11111111  0.25000000       0.037
  -0.33333333  0.11111111  0.25000000       0.037
   0.22222222  0.22222222  0.25000000       0.037
   0.33333333  0.22222222  0.25000000       0.037
   0.44444444  0.22222222  0.25000000       0.037
   0.33333333  0.33333333  0.25000000       0.012
   0.00000000  0.00000000  0.50000000       0.003
   0.11111111  0.00000000  0.50000000       0.019
   0.22222222  0.00000000  0.50000000       0.019
   0.33333333 -0.00000000  0.50000000       0.019
   0.44444444  0.00000000  0.50000000       0.019
   0.11111111  0.11111111  0.50000000       0.019
   0.22222222  0.11111111  0.50000000       0.037
   0.33333333  0.11111111  0.50000000       0.037
   0.44444444  0.11111111  0.50000000       0.019
   0.22222222  0.22222222  0.50000000       0.019
   0.33333333  0.22222222  0.50000000       0.037
   0.33333333  0.33333333  0.50000000       0.006
 
 position of ions in fractional coordinates (direct lattice) 
   0.26196900  0.00000000  0.33333334
   0.00000000  0.26196900  0.66666669
   0.73803103  0.73803103  0.00000000
 
 position of ions in cartesian coordinates  (Angst):
   1.16819837  0.00000000  1.97606665
  -0.58409919  1.01168947  3.95213330
   1.64555090  2.85017777  0.00000000
 


--------------------------------------------------------------------------------------------------------


 k-point  1 :   0.0000 0.0000 0.0000  plane waves:    2729
 k-point  2 :   0.1111 0.0000 0.0000  plane waves:    2751
 k-point  3 :   0.2222 0.0000 0.0000  plane waves:    2738
 k-point  4 :   0.3333-0.0000 0.0000  plane waves:    2748
 k-point  5 :   0.4444 0.0000 0.0000  plane waves:    2734
 k-point  6 :   0.1111 0.1111 0.0000  plane waves:    2745
 k-point  7 :   0.2222 0.1111 0.0000  plane waves:    2742
 k-point  8 :   0.3333 0.1111 0.0000  plane waves:    2750
 k-point  9 :   0.4444 0.1111 0.0000  plane waves:    2738
 k-point 10 :   0.2222 0.2222 0.0000  plane waves:    2744
 k-point 11 :   0.3333 0.2222 0.0000  plane waves:    2737
 k-point 12 :   0.3333 0.3333 0.0000  plane waves:    2742
 k-point 13 :   0.0000 0.0000 0.2500  plane waves:    2752
 k-point 14 :   0.1111 0.0000 0.2500  plane waves:    2750
 k-point 15 :   0.2222 0.0000 0.2500  plane waves:    2757
 k-point 16 :   0.3333-0.0000 0.2500  plane waves:    2743
 k-point 17 :   0.4444 0.0000 0.2500  plane waves:    2751
 k-point 18 :  -0.4444-0.0000 0.2500  plane waves:    2751
 k-point 19 :  -0.3333 0.0000 0.2500  plane waves:    2743
 k-point 20 :  -0.2222-0.0000 0.2500  plane waves:    2757
 k-point 21 :  -0.1111-0.0000 0.2500  plane waves:    2750
 k-point 22 :   0.1111 0.1111 0.2500  plane waves:    2754
 k-point 23 :   0.2222 0.1111 0.2500  plane waves:    2751
 k-point 24 :   0.3333 0.1111 0.2500  plane waves:    2747
 k-point 25 :   0.4444 0.1111 0.2500  plane waves:    2745
 k-point 26 :  -0.4444 0.1111 0.2500  plane waves:    2747
 k-point 27 :  -0.3333 0.1111 0.2500  plane waves:    2751
 k-point 28 :   0.2222 0.2222 0.2500  plane waves:    2759
 k-point 29 :   0.3333 0.2222 0.2500  plane waves:    2751
 k-point 30 :   0.4444 0.2222 0.2500  plane waves:    2751
 k-point 31 :   0.3333 0.3333 0.2500  plane waves:    2751
 k-point 32 :   0.0000 0.0000 0.5000  plane waves:    2722
 k-point 33 :   0.1111 0.0000 0.5000  plane waves:    2780
 k-point 34 :   0.2222 0.0000 0.5000  plane waves:    2758
 k-point 35 :   0.3333-0.0000 0.5000  plane waves:    2746
 k-point 36 :   0.4444 0.0000 0.5000  plane waves:    2762
 k-point 37 :   0.1111 0.1111 0.5000  plane waves:    2760
 k-point 38 :   0.2222 0.1111 0.5000  plane waves:    2740
 k-point 39 :   0.3333 0.1111 0.5000  plane waves:    2740
 k-point 40 :   0.4444 0.1111 0.5000  plane waves:    2752
 k-point 41 :   0.2222 0.2222 0.5000  plane waves:    2732
 k-point 42 :   0.3333 0.2222 0.5000  plane waves:    2756
 k-point 43 :   0.3333 0.3333 0.5000  plane waves:    2766

 maximum and minimum number of plane-waves per node :      1406     1352

 maximum number of plane-waves:      2780
 maximum index in each direction: 
   IXMAX=    8   IYMAX=    8   IZMAX=   11
   IXMIN=   -8   IYMIN=   -8   IZMIN=  -11


 parallel 3D FFT for wavefunctions:
    minimum data exchange during FFTs selected (reduces bandwidth)
 parallel 3D FFT for charge:
    minimum data exchange during FFTs selected (reduces bandwidth)


 total amount of memory used by VASP MPI-rank0    48763. kBytes
=======================================================================

   base      :      30000. kBytes
   nonl-proj :       6255. kBytes
   fftplans  :       2372. kBytes
   grid      :       3330. kBytes
   one-center:         16. kBytes
   wavefun   :       6790. kBytes
 
     INWAV:  cpu time    0.0000: real time    0.0002
 Broyden mixing: mesh for mixing (old mesh)
   NGX = 17   NGY = 17   NGZ = 23
  (NGX  = 56   NGY  = 56   NGZ  = 72)
  gives a total of   6647 points

 initial charge density was supplied:
 charge density of overlapping atoms calculated
 number of electron      18.0000000 magnetization 
 keeping initial charge density in first step


--------------------------------------------------------------------------------------------------------


 Maximum index for augmentation-charges         3920 (set IRDMAX)


--------------------------------------------------------------------------------------------------------


 First call to EWALD:  gamma=   0.379
 Maximum number of real-space cells 3x 3x 2
 Maximum number of reciprocal cells 3x 3x 3

    FEWALD:  cpu time    0.0010: real time    0.0010


--------------------------------------- Iteration      1(   1)  ---------------------------------------


    POTLOK:  cpu time    0.0524: real time    0.0538
    SETDIJ:  cpu time    0.0057: real time    0.0057
     EDDAV:  cpu time    0.3770: real time    0.3785
       DOS:  cpu time    0.0005: real time    0.0005
    --------------------------------------------
      LOOP:  cpu time    0.4356: real time    0.4386

 eigenvalue-minimisations  :  1204
 total energy-change (2. order) : 0.7678275E+02  (-0.6593620E+03)
 number of electron      18.0000000 magnetization 
 augmentation part       18.0000000 magnetization 

 Free energy of the ion-electron system (eV)
  ---------------------------------------------------
  alpha Z        PSCENC =         2.28965292
  Ewald energy   TEWEN  =      -672.62417676
  -Hartree energ DENC   =       -44.61341497
  -exchange      EXHF   =         0.00000000
  -V(xc)+E(xc)   XCENC  =       -84.05205210
  PAW double counting   =       623.23253030     -507.77874573
  entropy T*S    EENTRO =        -0.00146824
  eigenvalues    EBANDS =        90.51612027
  atomic energy  EATOM  =       669.81430600
  Solvation  Ediel_sol  =         0.00000000
  ---------------------------------------------------
  free energy    TOTEN  =        76.78275170 eV

  energy without entropy =       76.78421994  energy(sigma->0) =       76.78348582


--------------------------------------------------------------------------------------------------------




--------------------------------------- Iteration      1(   2)  ---------------------------------------


     EDDAV:  cpu time    0.3656: real time    0.3675
       DOS:  cpu time    0.0005: real time    0.0004
    --------------------------------------------
      LOOP:  cpu time    0.3660: real time    0.3679

 eigenvalue-minimisations  :  1576
 total energy-change (2. order) :-0.8094131E+02  (-0.7758047E+02)
 number of electron      18.0000000 magnetization 
 augmentation part       18.0000000 magnetization 

 Free energy of the ion-electron system (eV)
  ---------------------------------------------------
  alpha Z        PSCENC =         2.28965292
  Ewald energy   TEWEN  =      -672.62417676
  -Hartree energ DENC   =       -44.61341497
  -exchange      EXHF   =         0.00000000
  -V(xc)+E(xc)   XCENC  =       -84.05205210
  PAW double counting   =       623.23253030     -507.77874573
  entropy T*S    EENTRO =        -0.00000003
  eigenvalues    EBANDS =         9.57334428
  atomic energy  EATOM  =       669.81430600
  Solvation  Ediel_sol  =         0.00000000
  ---------------------------------------------------
  free energy    TOTEN  =        -4.15855608 eV

  energy without entropy =       -4.15855605  energy(sigma->0) =       -4.15855607


--------------------------------------------------------------------------------------------------------




--------------------------------------- Iteration      1(   3)  ---------------------------------------


     EDDAV:  cpu time    0.3491: real time    0.3505
       DOS:  cpu time    0.0005: real time    0.0005
    --------------------------------------------
      LOOP:  cpu time    0.3496: real time    0.3510

 eigenvalue-minimisations  :  1468
 total energy-change (2. order) :-0.5165277E+01  (-0.5124966E+01)
 number of electron      18.0000000 magnetization 
 augmentation part       18.0000000 magnetization 

 Free energy of the ion-electron system (eV)
  ---------------------------------------------------
  alpha Z        PSCENC =         2.28965292
  Ewald energy   TEWEN  =      -672.62417676
  -Hartree energ DENC   =       -44.61341497
  -exchange      EXHF   =         0.00000000
  -V(xc)+E(xc)   XCENC  =       -84.05205210
  PAW double counting   =       623.23253030     -507.77874573
  entropy T*S    EENTRO =        -0.00000099
  eigenvalues    EBANDS =         4.40806775
  atomic energy  EATOM  =       669.81430600
  Solvation  Ediel_sol  =         0.00000000
  ---------------------------------------------------
  free energy    TOTEN  =        -9.32383358 eV

  energy without entropy =       -9.32383258  energy(sigma->0) =       -9.32383308


--------------------------------------------------------------------------------------------------------




--------------------------------------- Iteration      1(   4)  ---------------------------------------


     EDDAV:  cpu time    0.3735: real time    0.3748
       DOS:  cpu time    0.0005: real time    0.0005
    --------------------------------------------
      LOOP:  cpu time    0.3740: real time    0.3753

 eigenvalue-minimisations  :  1574
 total energy-change (2. order) :-0.9271013E-01  (-0.9266610E-01)
 number of electron      18.0000000 magnetization 
 augmentation part       18.0000000 magnetization 

 Free energy of the ion-electron system (eV)
  ---------------------------------------------------
  alpha Z        PSCENC =         2.28965292
  Ewald energy   TEWEN  =      -672.62417676
  -Hartree energ DENC   =       -44.61341497
  -exchange      EXHF   =         0.00000000
  -V(xc)+E(xc)   XCENC  =       -84.05205210
  PAW double counting   =       623.23253030     -507.77874573
  entropy T*S    EENTRO =        -0.00000111
  eigenvalues    EBANDS =         4.31535774
  atomic energy  EATOM  =       669.81430600
  Solvation  Ediel_sol  =         0.00000000
  ---------------------------------------------------
  free energy    TOTEN  =        -9.41654371 eV

  energy without entropy =       -9.41654259  energy(sigma->0) =       -9.41654315


--------------------------------------------------------------------------------------------------------




--------------------------------------- Iteration      1(   5)  ---------------------------------------


     EDDAV:  cpu time    0.3679: real time    0.3691
       DOS:  cpu time    0.0005: real time    0.0005
    CHARGE:  cpu time    0.0253: real time    0.0254
    MIXING:  cpu time    0.0006: real time    0.0006
    --------------------------------------------
      LOOP:  cpu time    0.3944: real time    0.3957

 eigenvalue-minimisations  :  1560
 total energy-change (2. order) :-0.1669984E-02  (-0.1669979E-02)
 number of electron      17.9999998 magnetization 
 augmentation part       -3.6013406 magnetization 

 Broyden mixing:
  rms(total) = 0.12417E+01    rms(broyden)= 0.12417E+01
  rms(prec ) = 0.12606E+01
  weight for this iteration     100.00

 Free energy of the ion-electron system (eV)
  ---------------------------------------------------
  alpha Z        PSCENC =         2.28965292
  Ewald energy   TEWEN  =      -672.62417676
  -Hartree energ DENC   =       -44.61341497
  -exchange      EXHF   =         0.00000000
  -V(xc)+E(xc)   XCENC  =       -84.05205210
  PAW double counting   =       623.23253030     -507.77874573
  entropy T*S    EENTRO =        -0.00000111
  eigenvalues    EBANDS =         4.31368775
  atomic energy  EATOM  =       669.81430600
  Solvation  Ediel_sol  =         0.00000000
  ---------------------------------------------------
  free energy    TOTEN  =        -9.41821369 eV

  energy without entropy =       -9.41821258  energy(sigma->0) =       -9.41821313


--------------------------------------------------------------------------------------------------------




--------------------------------------- Iteration      1(   6)  ---------------------------------------


    POTLOK:  cpu time    0.0170: real time    0.0171
    SETDIJ:  cpu time    0.0023: real time    0.0023
     EDDAV:  cpu time    0.3317: real time    0.3331
       DOS:  cpu time    0.0005: real time    0.0005
    CHARGE:  cpu time    0.0245: real time    0.0245
    MIXING:  cpu time    0.0007: real time    0.0007
    --------------------------------------------
      LOOP:  cpu time    0.3767: real time    0.3781

 eigenvalue-minimisations  :  1330
 total energy-change (2. order) : 0.2243227E-01  (-0.2186366E-02)
 number of electron      17.9999998 magnetization 
 augmentation part       -3.6056647 magnetization 

 Broyden mixing:
  rms(total) = 0.78842E+00    rms(broyden)= 0.78842E+00
  rms(prec ) = 0.79860E+00
  weight for this iteration     100.00

 eigenvalues of (default mixing * dielectric matrix)
  average eigenvalue GAMMA=   2.7341
  2.7341

 Free energy of the ion-electron system (eV)
  ---------------------------------------------------
  alpha Z        PSCENC =         2.28965292
  Ewald energy   TEWEN  =      -672.62417676
  -Hartree energ DENC   =       -44.59627643
  -exchange      EXHF   =         0.00000000
  -V(xc)+E(xc)   XCENC  =       -84.00354778
  PAW double counting   =       928.42511663     -813.02322098
  entropy T*S    EENTRO =        -0.00001193
  eigenvalues    EBANDS =         4.32237692
  atomic energy  EATOM  =       669.81430600
  Solvation  Ediel_sol  =         0.00000000
  ---------------------------------------------------
  free energy    TOTEN  =        -9.39578142 eV

  energy without entropy =       -9.39576949  energy(sigma->0) =       -9.39577545


--------------------------------------------------------------------------------------------------------




--------------------------------------- Iteration      1(   7)  ---------------------------------------


    POTLOK:  cpu time    0.0169: real time    0.0170
    SETDIJ:  cpu time    0.0023: real time    0.0023
     EDDAV:  cpu time    0.3335: real time    0.3346
       DOS:  cpu time    0.0005: real time    0.0005
    CHARGE:  cpu time    0.0241: real time    0.0242
    MIXING:  cpu time    0.0007: real time    0.0007
    --------------------------------------------
      LOOP:  cpu time    0.3781: real time    0.3793

 eigenvalue-minimisations  :  1348
 total energy-change (2. order) : 0.4048175E-02  (-0.4628726E-02)
 number of electron      17.9999998 magnetization 
 augmentation part       -3.6100798 magnetization 

 Broyden mixing:
  rms(total) = 0.33675E-01    rms(broyden)= 0.33675E-01
  rms(prec ) = 0.43844E-01
  weight for this iteration     100.00

 eigenvalues of (default mixing * dielectric matrix)
  average eigenvalue GAMMA=   2.0784
  1.7074  2.4494

 Free energy of the ion-electron system (eV)
  ---------------------------------------------------
  alpha Z        PSCENC =         2.28965292
  Ewald energy   TEWEN  =      -672.62417676
  -Hartree energ DENC   =       -44.79247322
  -exchange      EXHF   =         0.00000000
  -V(xc)+E(xc)   XCENC  =       -83.90105858
  PAW double counting   =      1637.42968207    -1522.10893753
  entropy T*S    EENTRO =        -0.00009429
  eigenvalues    EBANDS =         4.50136615
  atomic energy  EATOM  =       669.81430600
  Solvation  Ediel_sol  =         0.00000000
  ---------------------------------------------------
  free energy    TOTEN  =        -9.39173324 eV

  energy without entropy =       -9.39163895  energy(sigma->0) =       -9.39168609


--------------------------------------------------------------------------------------------------------




--------------------------------------- Iteration      1(   8)  ---------------------------------------


    POTLOK:  cpu time    0.0168: real time    0.0168
    SETDIJ:  cpu time    0.0023: real time    0.0023
     EDDAV:  cpu time    0.3152: real time    0.3162
       DOS:  cpu time    0.0005: real time    0.0005
    CHARGE:  cpu time    0.0244: real time    0.0244
    MIXING:  cpu time    0.0007: real time    0.0007
    --------------------------------------------
      LOOP:  cpu time    0.3598: real time    0.3609

 eigenvalue-minimisations  :  1240
 total energy-change (2. order) : 0.8719305E-03  (-0.8798909E-03)
 number of electron      17.9999998 magnetization 
 augmentation part       -3.6084959 magnetization 

 Broyden mixing:
  rms(total) = 0.18314E-01    rms(broyden)= 0.18314E-01
  rms(prec ) = 0.18917E-01
  weight for this iteration     100.00

 eigenvalues of (default mixing * dielectric matrix)
  average eigenvalue GAMMA=   1.4870
  2.4759  1.5414  0.4438

 Free energy of the ion-electron system (eV)
  ---------------------------------------------------
  alpha Z        PSCENC =         2.28965292
  Ewald energy   TEWEN  =      -672.62417676
  -Hartree energ DENC   =       -44.85308067
  -exchange      EXHF   =         0.00000000
  -V(xc)+E(xc)   XCENC  =       -83.90772213
  PAW double counting   =      1583.08047636    -1467.75119898
  entropy T*S    EENTRO =        -0.00004746
  eigenvalues    EBANDS =         4.56092942
  atomic energy  EATOM  =       669.81430600
  Solvation  Ediel_sol  =         0.00000000
  ---------------------------------------------------
  free energy    TOTEN  =        -9.39086131 eV

  energy without entropy =       -9.39081385  energy(sigma->0) =       -9.39083758


--------------------------------------------------------------------------------------------------------




--------------------------------------- Iteration      1(   9)  ---------------------------------------


    POTLOK:  cpu time    0.0167: real time    0.0167
    SETDIJ:  cpu time    0.0022: real time    0.0022
     EDDAV:  cpu time    0.3840: real time    0.3856
       DOS:  cpu time    0.0005: real time    0.0005
    CHARGE:  cpu time    0.0246: real time    0.0247
    MIXING:  cpu time    0.0008: real time    0.0008
    --------------------------------------------
      LOOP:  cpu time    0.4289: real time    0.4306

 eigenvalue-minimisations  :  1616
 total energy-change (2. order) :-0.3827179E-04  (-0.2538986E-04)
 number of electron      17.9999998 magnetization 
 augmentation part       -3.6086144 magnetization 

 Broyden mixing:
  rms(total) = 0.13184E-01    rms(broyden)= 0.13184E-01
  rms(prec ) = 0.13710E-01
  weight for this iteration     100.00

 eigenvalues of (default mixing * dielectric matrix)
  average eigenvalue GAMMA=   1.8748
  2.4801  1.4442  1.7875  1.7875

 Free energy of the ion-electron system (eV)
  ---------------------------------------------------
  alpha Z        PSCENC =         2.28965292
  Ewald energy   TEWEN  =      -672.62417676
  -Hartree energ DENC   =       -44.85117342
  -exchange      EXHF   =         0.00000000
  -V(xc)+E(xc)   XCENC  =       -83.90724784
  PAW double counting   =      1580.29333949    -1464.96409698
  entropy T*S    EENTRO =        -0.00004861
  eigenvalues    EBANDS =         4.55854562
  atomic energy  EATOM  =       669.81430600
  Solvation  Ediel_sol  =         0.00000000
  ---------------------------------------------------
  free energy    TOTEN  =        -9.39089958 eV

  energy without entropy =       -9.39085097  energy(sigma->0) =       -9.39087528


--------------------------------------------------------------------------------------------------------




--------------------------------------- Iteration      1(  10)  ---------------------------------------


    POTLOK:  cpu time    0.0174: real time    0.0174
    SETDIJ:  cpu time    0.0024: real time    0.0024
     EDDAV:  cpu time    0.3251: real time    0.3261
       DOS:  cpu time    0.0005: real time    0.0005
    CHARGE:  cpu time    0.0241: real time    0.0242
    MIXING:  cpu time    0.0008: real time    0.0008
    --------------------------------------------
      LOOP:  cpu time    0.3702: real time    0.3714

 eigenvalue-minimisations  :  1300
 total energy-change (2. order) :-0.5175327E-04  (-0.6159236E-05)
 number of electron      17.9999998 magnetization 
 augmentation part       -3.6088221 magnetization 

 Broyden mixing:
  rms(total) = 0.24099E-02    rms(broyden)= 0.24099E-02
  rms(prec ) = 0.34901E-02
  weight for this iteration     100.00

 eigenvalues of (default mixing * dielectric matrix)
  average eigenvalue GAMMA=   1.7482
  2.5654  2.5654  1.4251  1.3118  0.8733

 Free energy of the ion-electron system (eV)
  ---------------------------------------------------
  alpha Z        PSCENC =         2.28965292
  Ewald energy   TEWEN  =      -672.62417676
  -Hartree energ DENC   =       -44.85851353
  -exchange      EXHF   =         0.00000000
  -V(xc)+E(xc)   XCENC  =       -83.90461735
  PAW double counting   =      1575.66158189    -1460.33249254
  entropy T*S    EENTRO =        -0.00005073
  eigenvalues    EBANDS =         4.56335877
  atomic energy  EATOM  =       669.81430600
  Solvation  Ediel_sol  =         0.00000000
  ---------------------------------------------------
  free energy    TOTEN  =        -9.39095133 eV

  energy without entropy =       -9.39090061  energy(sigma->0) =       -9.39092597


--------------------------------------------------------------------------------------------------------




--------------------------------------- Iteration      1(  11)  ---------------------------------------


    POTLOK:  cpu time    0.0165: real time    0.0166
    SETDIJ:  cpu time    0.0021: real time    0.0022
     EDDAV:  cpu time    0.2960: real time    0.2973
       DOS:  cpu time    0.0006: real time    0.0005
    --------------------------------------------
      LOOP:  cpu time    0.3152: real time    0.3165

 eigenvalue-minimisations  :  1126
 total energy-change (2. order) : 0.8119904E-05  (-0.2553561E-05)
 number of electron      17.9999998 magnetization 
 augmentation part       -3.6088221 magnetization 

 Free energy of the ion-electron system (eV)
  ---------------------------------------------------
  alpha Z        PSCENC =         2.28965292
  Ewald energy   TEWEN  =      -672.62417676
  -Hartree energ DENC   =       -44.86820317
  -exchange      EXHF   =         0.00000000
  -V(xc)+E(xc)   XCENC  =       -83.90417861
  PAW double counting   =      1573.57828702    -1458.24888428
  entropy T*S    EENTRO =        -0.00004790
  eigenvalues    EBANDS =         4.57230156
  atomic energy  EATOM  =       669.81430600
  Solvation  Ediel_sol  =         0.00000000
  ---------------------------------------------------
  free energy    TOTEN  =        -9.39094321 eV

  energy without entropy =       -9.39089531  energy(sigma->0) =       -9.39091926


--------------------------------------------------------------------------------------------------------




 average (electrostatic) potential at core
  the test charge radii are     1.1897
  (the norm of the test charge is              1.0000)
       1 -89.0486       2 -89.0486       3 -89.0486
 
 
 
 E-fermi :   5.9805     XC(G=0):  -9.0463     alpha+bet :-10.5335


 k-point     1 :       0.0000    0.0000    0.0000
  band No.  band energies     occupation 
      1      -7.7598      2.00000
      2      -4.4175      2.00000
      3      -4.4175      2.00000
      4       2.8124      2.00000
      5       3.0984      2.00000
      6       3.0984      2.00000
      7       4.2559      2.00000
      8       4.2559      2.00000
      9       5.1843      2.00000
     10       6.9401      0.00000
     11       6.9401      0.00000
     12       7.5823      0.00000
     13      10.8391      0.00000
     14      10.8391      0.00000

 k-point     2 :       0.1111    0.0000    0.0000
  band No.  band energies     occupation 
      1      -7.6795      2.00000
      2      -4.4417      2.00000
      3      -4.3932      2.00000
      4       2.2024      2.00000
      5       2.6987      2.00000
      6       2.9643      2.00000
      7       4.4807      2.00000
      8       4.7882      2.00000
      9       5.2687      2.00000
     10       6.7221      0.00000
     11       6.8959      0.00000
     12       7.4967      0.00000
     13      10.6462      0.00000
     14      10.8089      0.00000

 k-point     3 :       0.2222    0.0000    0.0000
  band No.  band energies     occupation 
      1      -7.4510      2.00000
      2      -4.5491      2.00000
      3      -4.3272      2.00000
      4       1.4319      2.00000
      5       2.1416      2.00000
      6       2.6310      2.00000
      7       4.5459      2.00000
      8       4.8635      2.00000
      9       5.0814      2.00000
     10       6.8395      0.00000
     11       7.0274      0.00000
     12       7.6963      0.00000
     13       9.9590      0.00000
     14      11.0438      0.00000

 k-point     4 :       0.3333   -0.0000    0.0000
  band No.  band energies     occupation 
      1      -7.1232      2.00000
      2      -4.7835      2.00000
      3      -4.2449      2.00000
      4       1.0454      2.00000
      5       1.7015      2.00000
      6       2.3495      2.00000
      7       3.5492      2.00000
      8       4.8487      2.00000
      9       5.0748      2.00000
     10       6.8563      0.00000
     11       7.0331      0.00000
     12       8.7380      0.00000
     13       9.3388      0.00000
     14      11.8198      0.00000

 k-point     5 :       0.4444    0.0000    0.0000
  band No.  band energies     occupation 
      1      -6.8326      2.00000
      2      -5.0425      2.00000
      3      -4.1868      2.00000
      4       0.9968      2.00000
      5       1.4927      2.00000
      6       2.2888      2.00000
      7       2.6848      2.00000
      8       4.7793      2.00000
      9       5.0538      2.00000
     10       6.8562      0.00000
     11       6.9770      0.00000
     12       9.0038      0.00000
     13       9.5584      0.00000
     14      12.9093      0.00000

 k-point     6 :       0.1111    0.1111    0.0000
  band No.  band energies     occupation 
      1      -7.5247      2.00000
      2      -4.4936      2.00000
      3      -4.3630      2.00000
      4       1.6812      2.00000
      5       2.0449      2.00000
      6       3.0074      2.00000
      7       4.3466      2.00000
      8       5.0439      2.00000
      9       5.1051      2.00000
     10       6.7741      0.00000
     11       7.0669      0.00000
     12       7.5683      0.00000
     13      10.4170      0.00000
     14      10.5406      0.00000

 k-point     7 :       0.2222    0.1111    0.0000
  band No.  band energies     occupation 
      1      -7.2434      2.00000
      2      -4.6417      2.00000
      3      -4.3230      2.00000
      4       1.2077      2.00000
      5       1.6080      2.00000
      6       2.7376      2.00000
      7       4.0599      2.00000
      8       4.4249      2.00000
      9       4.8060      2.00000
     10       7.2012      0.00000
     11       7.4748      0.00000
     12       8.1018      0.00000
     13       9.8860      0.00000
     14      10.8125      0.00000

 k-point     8 :       0.3333    0.1111    0.0000
  band No.  band energies     occupation 
      1      -6.9183      2.00000
      2      -4.8923      2.00000
      3      -4.2826      2.00000
      4       1.0483      2.00000
      5       1.4460      2.00000
      6       2.4229      2.00000
      7       3.1241      2.00000
      8       4.3573      2.00000
      9       4.5770      2.00000
     10       7.2905      0.00000
     11       7.5707      0.00000
     12       9.1131      0.00000
     13       9.4862      0.00000
     14      11.7172      0.00000

 k-point     9 :       0.4444    0.1111    0.0000
  band No.  band energies     occupation 
      1      -6.7506      2.00000
      2      -5.0426      2.00000
      3      -4.2652      2.00000
      4       1.0636      2.00000
      5       1.4363      2.00000
      6       2.4552      2.00000
      7       2.5100      2.00000
      8       4.3471      2.00000
      9       4.4905      2.00000
     10       7.2859      0.00000
     11       7.5954      0.00000
     12       9.3405      0.00000
     13       9.5853      0.00000
     14      12.6511      0.00000

 k-point    10 :       0.2222    0.2222    0.0000
  band No.  band energies     occupation 
      1      -6.9541      2.00000
      2      -4.7571      2.00000
      3      -4.4008      2.00000
      4       1.1670      2.00000
      5       1.2921      2.00000
      6       2.7082      2.00000
      7       3.5711      2.00000
      8       3.9196      2.00000
      9       3.9833      2.00000
     10       7.8986      0.00000
     11       8.2269      0.00000
     12       8.4573      0.00000
     13      10.2245      0.00000
     14      10.6642      0.00000

 k-point    11 :       0.3333    0.2222    0.0000
  band No.  band energies     occupation 
      1      -6.7110      2.00000
      2      -4.8879      2.00000
      3      -4.4769      2.00000
      4       1.2036      2.00000
      5       1.3495      2.00000
      6       2.5808      2.00000
      7       2.8989      2.00000
      8       3.6104      2.00000
      9       3.7150      2.00000
     10       8.1256      0.00000
     11       8.4951      0.00000
     12       9.1901      0.00000
     13      10.2004      0.00000
     14      11.5039      0.00000

 k-point    12 :       0.3333    0.3333    0.0000
  band No.  band energies     occupation 
      1      -6.6205      2.00000
      2      -4.7291      2.00000
      3      -4.7291      2.00000
      4       1.3424      2.00000
      5       1.3424      2.00000
      6       2.8584      2.00000
      7       2.8585      2.00000
      8       3.0452      2.00000
      9       3.3022      2.00000
     10       8.7842      0.00000
     11       8.7842      0.00000
     12       9.1507      0.00000
     13      10.7317      0.00000
     14      11.8236      0.00000

 k-point    13 :       0.0000    0.0000    0.2500
  band No.  band energies     occupation 
      1      -7.5323      2.00000
      2      -5.7901      2.00000
      3      -2.9964      2.00000
      4       2.3527      2.00000
      5       2.9474      2.00000
      6       3.3961      2.00000
      7       4.4215      2.00000
      8       4.4277      2.00000
      9       5.1095      2.00000
     10       6.6509      0.00000
     11       6.6671      0.00000
     12       7.0895      0.00000
     13      10.3232      0.00000
     14      11.4036      0.00000

 k-point    14 :       0.1111    0.0000    0.2500
  band No.  band energies     occupation 
      1      -7.4552      2.00000
      2      -5.7404      2.00000
      3      -3.0977      2.00000
      4       2.0873      2.00000
      5       2.7724      2.00000
      6       3.2490      2.00000
      7       4.1860      2.00000
      8       4.5301      2.00000
      9       4.7801      2.00000
     10       6.9063      0.00000
     11       7.0337      0.00000
     12       7.4216      0.00000
     13      10.4092      0.00000
     14      11.3641      0.00000

 k-point    15 :       0.2222    0.0000    0.2500
  band No.  band energies     occupation 
      1      -7.2395      2.00000
      2      -5.5995      2.00000
      3      -3.4147      2.00000
      4       1.7217      2.00000
      5       2.3632      2.00000
      6       2.9926      2.00000
      7       3.5248      2.00000
      8       4.1446      2.00000
      9       4.7010      2.00000
     10       7.2141      0.00000
     11       7.7913      0.00000
     12       8.2342      0.00000
     13      10.6798      0.00000
     14      11.0999      0.00000

 k-point    16 :       0.3333   -0.0000    0.2500
  band No.  band energies     occupation 
      1      -6.9369      2.00000
      2      -5.4276      2.00000
      3      -3.8458      2.00000
      4       1.3987      2.00000
      5       1.8054      2.00000
      6       2.6739      2.00000
      7       3.0978      2.00000
      8       4.1233      2.00000
      9       4.5934      2.00000
     10       7.2601      0.00000
     11       7.9645      0.00000
     12       9.0631      0.00000
     13      10.3051      0.00000
     14      11.5405      0.00000

 k-point    17 :       0.4444    0.0000    0.2500
  band No.  band energies     occupation 
      1      -6.6675      2.00000
      2      -5.3854      2.00000
      3      -4.0871      2.00000
      4       0.8806      2.00000
      5       1.4829      2.00000
      6       2.3921      2.00000
      7       3.4988      2.00000
      8       4.1423      2.00000
      9       4.5061      2.00000
     10       7.1601      0.00000
     11       7.9331      0.00000
     12       8.9221      0.00000
     13       9.9002      0.00000
     14      11.9247      0.00000

 k-point    18 :      -0.4444   -0.0000    0.2500
  band No.  band energies     occupation 
      1      -6.6442      2.00000
      2      -5.4900      2.00000
      3      -3.9396      2.00000
      4       0.5823      2.00000
      5       1.3904      2.00000
      6       2.3551      2.00000
      7       4.1324      2.00000
      8       4.2512      2.00000
      9       4.6320      2.00000
     10       7.0465      0.00000
     11       7.7522      0.00000
     12       8.2071      0.00000
     13       9.6182      0.00000
     14      12.4159      0.00000

 k-point    19 :      -0.3333    0.0000    0.2500
  band No.  band energies     occupation 
      1      -6.9110      2.00000
      2      -5.5583      2.00000
      3      -3.6140      2.00000
      4       0.7815      2.00000
      5       1.4883      2.00000
      6       2.5057      2.00000
      7       4.4141      2.00000
      8       4.4705      2.00000
      9       5.3422      2.00000
     10       6.7688      0.00000
     11       7.3942      0.00000
     12       7.5923      0.00000
     13       9.5021      0.00000
     14      12.4334      0.00000

 k-point    20 :      -0.2222   -0.0000    0.2500
  band No.  band energies     occupation 
      1      -7.2303      2.00000
      2      -5.6482      2.00000
      3      -3.2984      2.00000
      4       1.4588      2.00000
      5       1.7884      2.00000
      6       2.7974      2.00000
      7       4.6025      2.00000
      8       4.7666      2.00000
      9       5.4392      2.00000
     10       6.5810      0.00000
     11       7.0649      0.00000
     12       7.3331      0.00000
     13       9.6671      0.00000
     14      11.9376      0.00000

 k-point    21 :      -0.1111   -0.0000    0.2500
  band No.  band energies     occupation 
      1      -7.4540      2.00000
      2      -5.7467      2.00000
      3      -3.0790      2.00000
      4       2.1095      2.00000
      5       2.4808      2.00000
      6       3.1593      2.00000
      7       4.6310      2.00000
      8       4.6774      2.00000
      9       5.0210      2.00000
     10       6.6398      0.00000
     11       6.6645      0.00000
     12       7.4184      0.00000
     13      10.1281      0.00000
     14      11.4105      0.00000

 k-point    22 :       0.1111    0.1111    0.2500
  band No.  band energies     occupation 
      1      -7.3056      2.00000
      2      -5.6601      2.00000
      3      -3.2695      2.00000
      4       1.7622      2.00000
      5       2.1115      2.00000
      6       3.0159      2.00000
      7       4.0221      2.00000
      8       4.6206      2.00000
      9       5.0496      2.00000
     10       6.8397      0.00000
     11       7.4020      0.00000
     12       7.6259      0.00000
     13      10.1586      0.00000
     14      11.3910      0.00000

 k-point    23 :       0.2222    0.1111    0.2500
  band No.  band energies     occupation 
      1      -7.0422      2.00000
      2      -5.5047      2.00000
      3      -3.6510      2.00000
      4       1.4132      2.00000
      5       1.8229      2.00000
      6       2.8347      2.00000
      7       3.1395      2.00000
      8       4.2356      2.00000
      9       5.1624      2.00000
     10       6.9997      0.00000
     11       7.7520      0.00000
     12       8.6749      0.00000
     13      10.4909      0.00000
     14      10.9872      0.00000

 k-point    24 :       0.3333    0.1111    0.2500
  band No.  band energies     occupation 
      1      -6.7440      2.00000
      2      -5.3780      2.00000
      3      -4.0285      2.00000
      4       1.1189      2.00000
      5       1.3929      2.00000
      6       2.4998      2.00000
      7       3.1624      2.00000
      8       3.9214      2.00000
      9       5.1699      2.00000
     10       6.9450      0.00000
     11       8.0676      0.00000
     12       9.0613      0.00000
     13      10.1710      0.00000
     14      11.6334      0.00000

 k-point    25 :       0.4444    0.1111    0.2500
  band No.  band energies     occupation 
      1      -6.5791      2.00000
      2      -5.4170      2.00000
      3      -4.0926      2.00000
      4       0.7160      2.00000
      5       1.2660      2.00000
      6       2.3905      2.00000
      7       3.3827      2.00000
      8       4.0656      2.00000
      9       5.1667      2.00000
     10       6.8801      0.00000
     11       8.1195      0.00000
     12       8.5755      0.00000
     13       9.9570      0.00000
     14      12.2816      0.00000

 k-point    26 :      -0.4444    0.1111    0.2500
  band No.  band energies     occupation 
      1      -6.7200      2.00000
      2      -5.4926      2.00000
      3      -3.8566      2.00000
      4       0.6478      2.00000
      5       1.3935      2.00000
      6       2.4316      2.00000
      7       3.4373      2.00000
      8       4.7518      2.00000
      9       5.2500      2.00000
     10       6.7732      0.00000
     11       7.6754      0.00000
     12       8.1563      0.00000
     13       9.8511      0.00000
     14      12.2157      0.00000

 k-point    27 :      -0.3333    0.1111    0.2500
  band No.  band energies     occupation 
      1      -7.0316      2.00000
      2      -5.5599      2.00000
      3      -3.5421      2.00000
      4       1.0850      2.00000
      5       1.6452      2.00000
      6       2.6595      2.00000
      7       3.6429      2.00000
      8       4.9253      2.00000
      9       5.5768      2.00000
     10       6.5410      0.00000
     11       7.2934      0.00000
     12       7.9796      0.00000
     13       9.8663      0.00000
     14      11.6077      0.00000

 k-point    28 :       0.2222    0.2222    0.2500
  band No.  band energies     occupation 
      1      -6.7636      2.00000
      2      -5.4331      2.00000
      3      -3.9113      2.00000
      4       0.8845      2.00000
      5       1.4864      2.00000
      6       2.4321      2.00000
      7       2.9885      2.00000
      8       4.5522      2.00000
      9       5.4372      2.00000
     10       6.8642      0.00000
     11       7.6984      0.00000
     12       8.7710      0.00000
     13      10.4683      0.00000
     14      11.0367      0.00000

 k-point    29 :       0.3333    0.2222    0.2500
  band No.  band energies     occupation 
      1      -6.5407      2.00000
      2      -5.3649      2.00000
      3      -4.1713      2.00000
      4       0.8461      2.00000
      5       1.1475      2.00000
      6       2.0966      2.00000
      7       3.1875      2.00000
      8       4.2006      2.00000
      9       5.2426      2.00000
     10       7.1161      0.00000
     11       8.2189      0.00000
     12       8.7953      0.00000
     13      10.4988      0.00000
     14      11.5847      0.00000

 k-point    30 :       0.4444    0.2222    0.2500
  band No.  band energies     occupation 
      1      -6.5339      2.00000
      2      -5.3958      2.00000
      3      -4.1318      2.00000
      4       0.7104      2.00000
      5       1.2121      2.00000
      6       2.1121      2.00000
      7       3.1494      2.00000
      8       4.4695      2.00000
      9       5.1260      2.00000
     10       7.2242      0.00000
     11       8.0221      0.00000
     12       8.6448      0.00000
     13      10.4499      0.00000
     14      11.7904      0.00000

 k-point    31 :       0.3333    0.3333    0.2500
  band No.  band energies     occupation 
      1      -6.4514      2.00000
      2      -5.3537      2.00000
      3      -4.2467      2.00000
      4       0.7895      2.00000
      5       1.1184      2.00000
      6       1.7838      2.00000
      7       3.3287      2.00000
      8       4.3957      2.00000
      9       4.8651      2.00000
     10       7.6673      0.00000
     11       8.3481      0.00000
     12       8.4247      0.00000
     13      11.2053      0.00000
     14      11.5014      0.00000

 k-point    32 :       0.0000    0.0000    0.5000
  band No.  band energies     occupation 
      1      -6.8617      2.00000
      2      -6.8617      2.00000
      3      -2.2529      2.00000
      4       1.8322      2.00000
      5       3.2415      2.00000
      6       3.2415      2.00000
      7       4.5633      2.00000
      8       4.8425      2.00000
      9       4.8425      2.00000
     10       6.4589      0.00000
     11       6.5303      0.00000
     12       6.5303      0.00000
     13       9.9295      0.00000
     14      11.2293      0.00000

 k-point    33 :       0.1111    0.0000    0.5000
  band No.  band energies     occupation 
      1      -6.8015      2.00000
      2      -6.7854      2.00000
      3      -2.4302      2.00000
      4       1.7851      2.00000
      5       3.0449      2.00000
      6       3.1358      2.00000
      7       4.1410      2.00000
      8       4.4708      2.00000
      9       4.7234      2.00000
     10       6.6982      0.00000
     11       6.9063      0.00000
     12       7.3010      0.00000
     13      10.1584      0.00000
     14      10.9113      0.00000

 k-point    34 :       0.2222    0.0000    0.5000
  band No.  band energies     occupation 
      1      -6.6395      2.00000
      2      -6.5675      2.00000
      3      -2.8875      2.00000
      4       1.4737      2.00000
      5       2.4642      2.00000
      6       2.8346      2.00000
      7       3.9482      2.00000
      8       4.0896      2.00000
      9       4.5901      2.00000
     10       7.1013      0.00000
     11       7.6199      0.00000
     12       8.0779      0.00000
     13      10.4167      0.00000
     14      11.0514      0.00000

 k-point    35 :       0.3333   -0.0000    0.5000
  band No.  band energies     occupation 
      1      -6.4350      2.00000
      2      -6.2528      2.00000
      3      -3.4515      2.00000
      4       0.7948      2.00000
      5       2.1915      2.00000
      6       2.5156      2.00000
      7       3.7103      2.00000
      8       3.9709      2.00000
      9       4.9036      2.00000
     10       7.3030      0.00000
     11       7.9429      0.00000
     12       8.2031      0.00000
     13      10.4480      0.00000
     14      11.3889      0.00000

 k-point    36 :       0.4444    0.0000    0.5000
  band No.  band energies     occupation 
      1      -6.2866      2.00000
      2      -5.9714      2.00000
      3      -3.8850      2.00000
      4       0.3056      2.00000
      5       2.1528      2.00000
      6       2.2882      2.00000
      7       3.5499      2.00000
      8       3.8852      2.00000
      9       5.5219      2.00000
     10       6.8561      0.00000
     11       7.8321      0.00000
     12       8.4528      0.00000
     13      10.4679      0.00000
     14      11.2862      0.00000

 k-point    37 :       0.1111    0.1111    0.5000
  band No.  band energies     occupation 
      1      -6.6868      2.00000
      2      -6.6414      2.00000
      3      -2.7446      2.00000
      4       1.6249      2.00000
      5       2.6820      2.00000
      6       2.7513      2.00000
      7       3.9161      2.00000
      8       4.1168      2.00000
      9       4.9392      2.00000
     10       6.6413      0.00000
     11       7.6925      0.00000
     12       7.8946      0.00000
     13      10.5755      0.00000
     14      10.6546      0.00000

 k-point    38 :       0.2222    0.1111    0.5000
  band No.  band energies     occupation 
      1      -6.4929      2.00000
      2      -6.3814      2.00000
      3      -3.2443      2.00000
      4       1.1524      2.00000
      5       2.0916      2.00000
      6       2.2916      2.00000
      7       3.9161      2.00000
      8       4.2754      2.00000
      9       4.9685      2.00000
     10       6.9383      0.00000
     11       8.0012      0.00000
     12       8.1849      0.00000
     13      10.4803      0.00000
     14      11.2638      0.00000

 k-point    39 :       0.3333    0.1111    0.5000
  band No.  band energies     occupation 
      1      -6.3022      2.00000
      2      -6.0796      2.00000
      3      -3.7390      2.00000
      4       0.5551      2.00000
      5       1.8170      2.00000
      6       1.9651      2.00000
      7       4.0025      2.00000
      8       4.3425      2.00000
      9       5.2805      2.00000
     10       7.0677      0.00000
     11       7.7097      0.00000
     12       8.2497      0.00000
     13      10.5140      0.00000
     14      11.4952      0.00000

 k-point    40 :       0.4444    0.1111    0.5000
  band No.  band energies     occupation 
      1      -6.2205      2.00000
      2      -5.9236      2.00000
      3      -3.9673      2.00000
      4       0.3051      2.00000
      5       1.7767      2.00000
      6       1.8122      2.00000
      7       4.1305      2.00000
      8       4.1960      2.00000
      9       5.7378      2.00000
     10       6.6766      0.00000
     11       7.6902      0.00000
     12       8.2697      0.00000
     13      10.5815      0.00000
     14      11.3233      0.00000

 k-point    41 :       0.2222    0.2222    0.5000
  band No.  band energies     occupation 
      1      -6.2878      2.00000
      2      -6.1466      2.00000
      3      -3.6635      2.00000
      4       0.8389      2.00000
      5       1.4348      2.00000
      6       1.7248      2.00000
      7       4.2977      2.00000
      8       4.7050      2.00000
      9       5.3736      2.00000
     10       6.7964      0.00000
     11       7.8859      0.00000
     12       7.9604      0.00000
     13      10.7208      0.00000
     14      11.5824      0.00000

 k-point    42 :       0.3333    0.2222    0.5000
  band No.  band energies     occupation 
      1      -6.1287      2.00000
      2      -5.9630      2.00000
      3      -3.9659      2.00000
      4       0.5471      2.00000
      5       1.1808      2.00000
      6       1.3382      2.00000
      7       4.6021      2.00000
      8       5.0775      2.00000
      9       5.7060      2.00000
     10       6.6433      0.00000
     11       7.4619      0.00000
     12       7.7770      0.00000
     13      11.0594      0.00000
     14      11.8025      0.00000

 k-point    43 :       0.3333    0.3333    0.5000
  band No.  band energies     occupation 
      1      -5.9863      2.00000
      2      -5.9863      2.00000
      3      -4.0477      2.00000
      4       0.7004      2.00000
      5       0.9369      2.00000
      6       0.9369      2.00000
      7       4.8356      2.00000
      8       5.8994      1.97815
      9       5.8994      1.97815
     10       6.0518      0.04369
     11       7.3850      0.00000
     12       7.3850      0.00000
     13      11.7507      0.00000
     14      12.4161      0.00000


--------------------------------------------------------------------------------------------------------


 soft charge-density along one line, spin component           1
         0         1         2         3         4         5         6         7         8         9
 total charge-density along one line
 
 pseudopotential strength for first ion, spin component:           1
 51.667  56.215  -0.000  -0.000  -0.057  -0.000  -0.000  -0.083
 56.215  61.167  -0.000  -0.000  -0.063  -0.000  -0.000  -0.091
 -0.000  -0.000  12.719   0.010   0.000  18.334   0.015   0.000
 -0.000  -0.000   0.010  12.737   0.000   0.015  18.360   0.000
 -0.057  -0.063   0.000   0.000  12.736   0.000   0.000  18.358
 -0.000  -0.000  18.334   0.015   0.000  26.437   0.021   0.000
 -0.000  -0.000   0.015  18.360   0.000   0.021  26.474   0.000
 -0.083  -0.091   0.000   0.000  18.358   0.000   0.000  26.472
  0.000   0.000  -0.011   0.000  -0.000  -0.017   0.000  -0.000
  0.016   0.017   0.000  -0.000   0.000   0.000  -0.000   0.000
  0.008   0.009   0.000  -0.000   0.007   0.000  -0.000   0.010
  0.000   0.000   0.000  -0.011  -0.000   0.000  -0.016  -0.000
  0.013   0.014   0.000  -0.000  -0.011   0.000  -0.000  -0.016
 total augmentation occupancy for first ion, spin component:           1
 13.483  -9.953   0.000  -0.000   2.496   0.000  -0.000  -0.688   0.000  -0.184  -0.115   0.000  -0.128
 -9.953   8.632   0.000  -0.000  -2.108   0.000  -0.000   0.594   0.000   0.167   0.104   0.000   0.115
  0.000   0.000   2.605   0.286   0.000  -0.510  -0.230   0.000  -0.064   0.000  -0.000  -0.056   0.000
 -0.000   0.000   0.286   3.071   0.000  -0.230  -0.892   0.000  -0.054   0.000   0.000  -0.144  -0.000
  2.496  -2.108   0.000   0.000   2.913   0.000   0.000  -0.798   0.000  -0.062  -0.020   0.000  -0.063
  0.000   0.000  -0.510  -0.230   0.000   0.185   0.091  -0.000   0.016   0.000   0.000   0.021   0.000
 -0.000  -0.000  -0.230  -0.892  -0.000   0.091   0.330   0.000   0.022   0.000   0.000   0.046   0.000
 -0.688   0.594   0.000   0.000  -0.798   0.000   0.000   0.284   0.000   0.019   0.005   0.000   0.017
  0.000   0.000  -0.064  -0.054   0.000   0.016   0.022   0.000   0.009   0.000   0.000   0.011   0.000
 -0.184   0.167   0.000   0.000  -0.062   0.000   0.000   0.019   0.000   0.015   0.005   0.000   0.003
 -0.115   0.104   0.000   0.000  -0.020   0.000   0.000   0.005   0.000   0.005   0.009   0.000  -0.001
  0.000   0.000  -0.056  -0.144   0.000   0.021   0.046   0.000   0.011   0.000   0.000   0.028   0.000
 -0.128   0.115   0.000   0.000  -0.063   0.000   0.000   0.017   0.000   0.003  -0.001   0.000   0.010


------------------------ aborting loop because EDIFF is reached ----------------------------------------


    CHARGE:  cpu time    0.0245: real time    0.0246
    FORLOC:  cpu time    0.0009: real time    0.0009
    FORNL :  cpu time    0.0953: real time    0.0955
    STRESS:  cpu time    0.2108: real time    0.2114
    FORCOR:  cpu time    0.0172: real time    0.0172
    FORHAR:  cpu time    0.0038: real time    0.0038
    MIXING:  cpu time    0.0008: real time    0.0008
    OFIELD:  cpu time    0.0000: real time    0.0000

  Hirshfeld charges:
            ion         q(e)     
   ------------------------------
      1     Te         -0.000
      2     Te         -0.000
      3     Te          0.000

  Atomic reference data used in the T-S method for vdW correction:
            C6at              R0at           ALPHAat      REFSTATE
            (au)              (au)            (au)                
   ---------------------------------------------------------------
   Te        396.000          4.214         37.650         0

  Tkatchenko/Scheffler method for vdW energy calculation
  ---------------------------------------------------------------------------------------------

  Parameters of vdW forcefield:
            C6ts              R0ts           ALPHAts        RELVOL
            (au)              (au)            (au)                
   ---------------------------------------------------------------
   Te        394.096          4.211         37.559          0.998
   Te        394.096          4.211         37.559          0.998
   Te        394.096          4.211         37.559          0.998

  IVDW =  20
  VDW_RADIUS =    50.000 A
  VDW_IDAMPF =  0
  VDW_S6 =     1.000
  VDW_SR =     0.940
  VDW_D =    20.000
  LVDW_ONECELL = F F F
  LVDW_SAMETYPE T
  LVDW_EWALD = F

  Number of pair interactions contributing to vdW energy:   30876
  Edisp (eV):   -0.69537
    FORVDW:  cpu time    4.2302: real time    4.2433

  FORCE on cell =-STRESS in cart. coord.  units (eV):
  Direction    XX          YY          ZZ          XY          YZ          ZX
  --------------------------------------------------------------------------------------
  Alpha Z     2.28965     2.28965     2.28965
  Ewald    -239.40015  -239.40015  -193.82453    -0.00000    -0.00001     0.00000
  Hartree    11.13509    11.13509    22.60612     0.00000     0.00000    -0.00000
  E(xc)     -70.58426   -70.58426   -70.09872    -0.00000     0.00000    -0.00000
  Local    -111.09594  -111.09598  -157.77533    -0.00004     0.00000    -0.00000
  n-local   333.12939   333.92495   329.33834    -1.25925    -0.73310    -1.24840
  augment   -81.13401   -81.13396   -78.67547     0.00004    -0.00000     0.00000
  Kinetic   153.21087   159.76972   147.78797    -7.45683     0.20489     1.50226
  Fock        0.00000     0.00000     0.00000     0.00000     0.00000     0.00000
  vdW        -0.73389    -0.73389    -0.82543     0.00000    -0.00000    -0.00000
  -------------------------------------------------------------------------------------
  Total       0.49395     0.49395     0.82260     0.00000    -0.00000     0.00000
  in kB       7.75192     7.75192    12.90966     0.00000    -0.00000     0.00000
  external pressure =        9.47 kB  Pullay stress =        0.00 kB


 VOLUME and BASIS-vectors are now :
 -----------------------------------------------------------------------------
  energy-cutoff  :      520.00
  volume of cell :      102.09
      direct lattice vectors                 reciprocal lattice vectors
     4.459300041  0.000000000  0.000000000     0.224250441  0.129471052  0.000000000
    -2.229650021  3.861867119  0.000000000     0.000000000  0.258942105  0.000000000
     0.000000000  0.000000000  5.928199768     0.000000000  0.000000000  0.168685274

  length of vectors
     4.459300041  4.459300041  5.928199768     0.258942105  0.258942105  0.168685274


 FORCES acting on ions
    electron-ion (+dipol)            ewald-force                    non-local-force                 convergence-correction
 -----------------------------------------------------------------------------------------------
   -.137E+02 0.119E-04 -.129E-05   0.194E+02 0.150E-05 0.187E-05   -.531E+01 -.555E-16 0.555E-16   0.583E-02 -.261E-07 -.160E-07
   0.686E+01 -.119E+02 -.179E-04   -.969E+01 0.168E+02 -.875E-05   0.265E+01 -.460E+01 -.555E-16   -.291E-02 0.505E-02 0.414E-06
   0.686E+01 0.119E+02 0.188E-04   -.969E+01 -.168E+02 0.687E-05   0.265E+01 0.460E+01 0.000E+00   -.291E-02 -.505E-02 -.398E-06
 -----------------------------------------------------------------------------------------------
   0.251E-04 -.742E-05 -.345E-06   0.000E+00 -.355E-14 0.000E+00   0.000E+00 0.000E+00 0.000E+00   -.128E-07 0.223E-08 0.412E-10
 
 
 POSITION                                       TOTAL-FORCE (eV/Angst)
 -----------------------------------------------------------------------------------
      1.16820      0.00000      1.97607         0.347727      0.000000      0.000000
     -0.58410      1.01169      3.95213        -0.173863      0.301140     -0.000000
      1.64555      2.85018      0.00000        -0.173863     -0.301140     -0.000000
 -----------------------------------------------------------------------------------
    total drift:                                0.000025     -0.000007     -0.000000


--------------------------------------------------------------------------------------------------------



  FREE ENERGIE OF THE ION-ELECTRON SYSTEM (eV)
  ---------------------------------------------------
  free  energy   TOTEN  =       -10.08631441 eV

  energy  without entropy=      -10.08626651  energy(sigma->0) =      -10.08629046
 


--------------------------------------------------------------------------------------------------------


    POTLOK:  cpu time    0.0207: real time    0.0208


--------------------------------------------------------------------------------------------------------




--------------------------------------------------------------------------------------------------------


    WAVPRE:  cpu time    0.1441: real time    0.1748
    FEWALD:  cpu time    0.0001: real time    0.0001
    GENKIN:  cpu time    0.0060: real time    0.0060
    ORTHCH:  cpu time    0.0187: real time    0.0187
     LOOP+:  cpu time    8.9315: real time    8.9949


--------------------------------------- Iteration      2(   1)  ---------------------------------------


    POTLOK:  cpu time    0.0572: real time    0.0587
    SETDIJ:  cpu time    0.0060: real time    0.0060
     EDDAV:  cpu time    0.3768: real time    0.3783
       DOS:  cpu time    0.0005: real time    0.0005
    CHARGE:  cpu time    0.0249: real time    0.0249
    MIXING:  cpu time    0.0006: real time    0.0006
    --------------------------------------------
      LOOP:  cpu time    0.4660: real time    0.4690

 eigenvalue-minimisations  :  1210
 total energy-change (2. order) :-0.5814152E-01  (-0.1104468E+00)
 number of electron      17.9999989 magnetization 
 augmentation part       -3.6300242 magnetization 

 Broyden mixing:
  rms(total) = 0.13023E+00    rms(broyden)= 0.13023E+00
  rms(prec ) = 0.17316E+00
  weight for this iteration     100.00

 Free energy of the ion-electron system (eV)
  ---------------------------------------------------
  alpha Z        PSCENC =         2.22428415
  Ewald energy   TEWEN  =      -667.24275739
  -Hartree energ DENC   =       -43.77659269
  -exchange      EXHF   =         0.00000000
  -V(xc)+E(xc)   XCENC  =       -84.05226265
  PAW double counting   =      1574.57147525    -1459.24211895
  entropy T*S    EENTRO =        -0.00006405
  eigenvalues    EBANDS =        -1.74536252
  atomic energy  EATOM  =       669.81430600
  Solvation  Ediel_sol  =         0.00000000
  ---------------------------------------------------
  free energy    TOTEN  =        -9.44909285 eV

  energy without entropy =       -9.44902880  energy(sigma->0) =       -9.44906083


--------------------------------------------------------------------------------------------------------




--------------------------------------- Iteration      2(   2)  ---------------------------------------


    POTLOK:  cpu time    0.0171: real time    0.0171
    SETDIJ:  cpu time    0.0022: real time    0.0022
     EDDAV:  cpu time    0.3230: real time    0.3241
       DOS:  cpu time    0.0005: real time    0.0005
    CHARGE:  cpu time    0.0242: real time    0.0243
    MIXING:  cpu time    0.0006: real time    0.0006
    --------------------------------------------
      LOOP:  cpu time    0.3675: real time    0.3687

 eigenvalue-minimisations  :  1294
 total energy-change (2. order) : 0.1557507E-01  (-0.4967881E-02)
 number of electron      17.9999989 magnetization 
 augmentation part       -3.6313457 magnetization 

 Broyden mixing:
  rms(total) = 0.64172E-01    rms(broyden)= 0.64172E-01
  rms(prec ) = 0.92876E-01
  weight for this iteration     100.00

 eigenvalues of (default mixing * dielectric matrix)
  average eigenvalue GAMMA=   0.8714
  0.8714

 Free energy of the ion-electron system (eV)
  ---------------------------------------------------
  alpha Z        PSCENC =         2.22428415
  Ewald energy   TEWEN  =      -667.24275739
  -Hartree energ DENC   =       -44.62126065
  -exchange      EXHF   =         0.00000000
  -V(xc)+E(xc)   XCENC  =       -84.07752333
  PAW double counting   =      1519.96572328    -1404.63684143
  entropy T*S    EENTRO =        -0.00006147
  eigenvalues    EBANDS =        -0.85938694
  atomic energy  EATOM  =       669.81430600
  Solvation  Ediel_sol  =         0.00000000
  ---------------------------------------------------
  free energy    TOTEN  =        -9.43351778 eV

  energy without entropy =       -9.43345631  energy(sigma->0) =       -9.43348705


--------------------------------------------------------------------------------------------------------




--------------------------------------- Iteration      2(   3)  ---------------------------------------


    POTLOK:  cpu time    0.0168: real time    0.0169
    SETDIJ:  cpu time    0.0022: real time    0.0022
     EDDAV:  cpu time    0.3430: real time    0.3441
       DOS:  cpu time    0.0005: real time    0.0005
    CHARGE:  cpu time    0.0245: real time    0.0246
    MIXING:  cpu time    0.0006: real time    0.0006
    --------------------------------------------
      LOOP:  cpu time    0.3877: real time    0.3890

 eigenvalue-minimisations  :  1396
 total energy-change (2. order) : 0.7217187E-02  (-0.6365335E-03)
 number of electron      17.9999989 magnetization 
 augmentation part       -3.6205825 magnetization 

 Broyden mixing:
  rms(total) = 0.24515E-01    rms(broyden)= 0.24515E-01
  rms(prec ) = 0.42674E-01
  weight for this iteration     100.00

 eigenvalues of (default mixing * dielectric matrix)
  average eigenvalue GAMMA=   1.3402
  0.8084  1.8721

 Free energy of the ion-electron system (eV)
  ---------------------------------------------------
  alpha Z        PSCENC =         2.22428415
  Ewald energy   TEWEN  =      -667.24275739
  -Hartree energ DENC   =       -45.12931089
  -exchange      EXHF   =         0.00000000
  -V(xc)+E(xc)   XCENC  =       -84.10268132
  PAW double counting   =      1506.76735125    -1391.43124568
  entropy T*S    EENTRO =        -0.00006578
  eigenvalues    EBANDS =        -0.32618093
  atomic energy  EATOM  =       669.81430600
  Solvation  Ediel_sol  =         0.00000000
  ---------------------------------------------------
  free energy    TOTEN  =        -9.42630060 eV

  energy without entropy =       -9.42623482  energy(sigma->0) =       -9.42626771


--------------------------------------------------------------------------------------------------------




--------------------------------------- Iteration      2(   4)  ---------------------------------------


    POTLOK:  cpu time    0.0171: real time    0.0172
    SETDIJ:  cpu time    0.0022: real time    0.0022
     EDDAV:  cpu time    0.3157: real time    0.3167
       DOS:  cpu time    0.0005: real time    0.0005
    CHARGE:  cpu time    0.0245: real time    0.0245
    MIXING:  cpu time    0.0007: real time    0.0007
    --------------------------------------------
      LOOP:  cpu time    0.3607: real time    0.3619

 eigenvalue-minimisations  :  1234
 total energy-change (2. order) : 0.2836425E-02  (-0.5469004E-03)
 number of electron      17.9999989 magnetization 
 augmentation part       -3.6091338 magnetization 

 Broyden mixing:
  rms(total) = 0.40370E-01    rms(broyden)= 0.40370E-01
  rms(prec ) = 0.40508E-01
  weight for this iteration     100.00

 eigenvalues of (default mixing * dielectric matrix)
  average eigenvalue GAMMA=   1.7212
  1.2079  2.2180  1.7378

 Free energy of the ion-electron system (eV)
  ---------------------------------------------------
  alpha Z        PSCENC =         2.22428415
  Ewald energy   TEWEN  =      -667.24275739
  -Hartree energ DENC   =       -45.63839914
  -exchange      EXHF   =         0.00000000
  -V(xc)+E(xc)   XCENC  =       -84.12996359
  PAW double counting   =      1491.86800318    -1376.51568042
  entropy T*S    EENTRO =        -0.00007129
  eigenvalues    EBANDS =         0.19681433
  atomic energy  EATOM  =       669.81430600
  Solvation  Ediel_sol  =         0.00000000
  ---------------------------------------------------
  free energy    TOTEN  =        -9.42346417 eV

  energy without entropy =       -9.42339288  energy(sigma->0) =       -9.42342853


--------------------------------------------------------------------------------------------------------




--------------------------------------- Iteration      2(   5)  ---------------------------------------


    POTLOK:  cpu time    0.0168: real time    0.0169
    SETDIJ:  cpu time    0.0022: real time    0.0022
     EDDAV:  cpu time    0.3783: real time    0.3795
       DOS:  cpu time    0.0005: real time    0.0005
    CHARGE:  cpu time    0.0245: real time    0.0245
    MIXING:  cpu time    0.0008: real time    0.0008
    --------------------------------------------
      LOOP:  cpu time    0.4231: real time    0.4245

 eigenvalue-minimisations  :  1582
 total energy-change (2. order) : 0.2540049E-04  (-0.2492295E-04)
 number of electron      17.9999989 magnetization 
 augmentation part       -3.6072140 magnetization 

 Broyden mixing:
  rms(total) = 0.14306E-01    rms(broyden)= 0.14306E-01
  rms(prec ) = 0.14331E-01
  weight for this iteration     100.00

 eigenvalues of (default mixing * dielectric matrix)
  average eigenvalue GAMMA=   1.7011
  2.6423  2.1016  1.1768  0.8836

 Free energy of the ion-electron system (eV)
  ---------------------------------------------------
  alpha Z        PSCENC =         2.22428415
  Ewald energy   TEWEN  =      -667.24275739
  -Hartree energ DENC   =       -45.68768340
  -exchange      EXHF   =         0.00000000
  -V(xc)+E(xc)   XCENC  =       -84.13517519
  PAW double counting   =      1482.02414513    -1366.65533710
  entropy T*S    EENTRO =        -0.00007254
  eigenvalues    EBANDS =         0.23485158
  atomic energy  EATOM  =       669.81430600
  Solvation  Ediel_sol  =         0.00000000
  ---------------------------------------------------
  free energy    TOTEN  =        -9.42343877 eV

  energy without entropy =       -9.42336623  energy(sigma->0) =       -9.42340250


--------------------------------------------------------------------------------------------------------




--------------------------------------- Iteration      2(   6)  ---------------------------------------


    POTLOK:  cpu time    0.0170: real time    0.0170
    SETDIJ:  cpu time    0.0022: real time    0.0022
     EDDAV:  cpu time    0.2670: real time    0.2680
       DOS:  cpu time    0.0005: real time    0.0005
    --------------------------------------------
      LOOP:  cpu time    0.2867: real time    0.2877

 eigenvalue-minimisations  :   934
 total energy-change (2. order) :-0.3949052E-05  (-0.7562754E-06)
 number of electron      17.9999989 magnetization 
 augmentation part       -3.6072140 magnetization 

 Free energy of the ion-electron system (eV)
  ---------------------------------------------------
  alpha Z        PSCENC =         2.22428415
  Ewald energy   TEWEN  =      -667.24275739
  -Hartree energ DENC   =       -45.68140431
  -exchange      EXHF   =         0.00000000
  -V(xc)+E(xc)   XCENC  =       -84.13444536
  PAW double counting   =      1479.06276812    -1363.69080602
  entropy T*S    EENTRO =        -0.00007245
  eigenvalues    EBANDS =         0.22468455
  atomic energy  EATOM  =       669.81430600
  Solvation  Ediel_sol  =         0.00000000
  ---------------------------------------------------
  free energy    TOTEN  =        -9.42344272 eV

  energy without entropy =       -9.42337027  energy(sigma->0) =       -9.42340650


--------------------------------------------------------------------------------------------------------




 average (electrostatic) potential at core
  the test charge radii are     1.1897
  (the norm of the test charge is              1.0000)
       1 -89.3703       2 -89.3703       3 -89.3703
 
 
 
 E-fermi :   5.5979     XC(G=0):  -8.9299     alpha+bet :-10.2328


 k-point     1 :       0.0000    0.0000    0.0000
  band No.  band energies     occupation 
      1      -7.8553      2.00000
      2      -4.6952      2.00000
      3      -4.6952      2.00000
      4       2.6094      2.00000
      5       2.8335      2.00000
      6       2.8335      2.00000
      7       3.9757      2.00000
      8       3.9757      2.00000
      9       4.8201      2.00000
     10       6.5276      0.00000
     11       6.5276      0.00000
     12       7.1721      0.00000
     13      10.5563      0.00000
     14      10.5563      0.00000

 k-point     2 :       0.1111    0.0000    0.0000
  band No.  band energies     occupation 
      1      -7.7766      2.00000
      2      -4.7198      2.00000
      3      -4.6745      2.00000
      4       2.0010      2.00000
      5       2.4476      2.00000
      6       2.7195      2.00000
      7       4.1960      2.00000
      8       4.4935      2.00000
      9       4.9401      2.00000
     10       6.2894      0.00000
     11       6.4791      0.00000
     12       7.0716      0.00000
     13      10.3470      0.00000
     14      10.5272      0.00000

 k-point     3 :       0.2222    0.0000    0.0000
  band No.  band energies     occupation 
      1      -7.5520      2.00000
      2      -4.8267      2.00000
      3      -4.6181      2.00000
      4       1.2563      2.00000
      5       1.9100      2.00000
      6       2.3970      2.00000
      7       4.2724      2.00000
      8       4.5766      2.00000
      9       4.7683      2.00000
     10       6.4130      0.00000
     11       6.5870      0.00000
     12       7.2199      0.00000
     13       9.6530      0.00000
     14      10.7679      0.00000

 k-point     4 :       0.3333   -0.0000    0.0000
  band No.  band energies     occupation 
      1      -7.2280      2.00000
      2      -5.0576      2.00000
      3      -4.5474      2.00000
      4       0.8899      2.00000
      5       1.4883      2.00000
      6       2.1192      2.00000
      7       3.2801      2.00000
      8       4.5901      2.00000
      9       4.7709      2.00000
     10       6.4156      0.00000
     11       6.5892      0.00000
     12       8.2137      0.00000
     13       9.0361      0.00000
     14      11.5288      0.00000

 k-point     5 :       0.4444    0.0000    0.0000
  band No.  band energies     occupation 
      1      -6.9362      2.00000
      2      -5.3150      2.00000
      3      -4.4974      2.00000
      4       0.8516      2.00000
      5       1.2974      2.00000
      6       2.0481      2.00000
      7       2.4259      2.00000
      8       4.5379      2.00000
      9       4.7542      2.00000
     10       6.4191      0.00000
     11       6.5227      0.00000
     12       8.7038      0.00000
     13       8.9965      0.00000
     14      12.5832      0.00000

 k-point     6 :       0.1111    0.1111    0.0000
  band No.  band energies     occupation 
      1      -7.6246      2.00000
      2      -4.7718      2.00000
      3      -4.6509      2.00000
      4       1.4992      2.00000
      5       1.8194      2.00000
      6       2.7587      2.00000
      7       4.0475      2.00000
      8       4.7619      2.00000
      9       4.8182      2.00000
     10       6.3136      0.00000
     11       6.6224      0.00000
     12       7.1325      0.00000
     13      10.1370      0.00000
     14      10.2299      0.00000

 k-point     7 :       0.2222    0.1111    0.0000
  band No.  band energies     occupation 
      1      -7.3473      2.00000
      2      -4.9183      2.00000
      3      -4.6202      2.00000
      4       1.0432      2.00000
      5       1.4063      2.00000
      6       2.4919      2.00000
      7       3.7867      2.00000
      8       4.1217      2.00000
      9       4.5244      2.00000
     10       6.7447      0.00000
     11       7.0494      0.00000
     12       7.6094      0.00000
     13       9.5794      0.00000
     14      10.5171      0.00000

 k-point     8 :       0.3333    0.1111    0.0000
  band No.  band energies     occupation 
      1      -7.0234      2.00000
      2      -5.1665      2.00000
      3      -4.5877      2.00000
      4       0.8982      2.00000
      5       1.2573      2.00000
      6       2.1780      2.00000
      7       2.8603      2.00000
      8       4.0706      2.00000
      9       4.2886      2.00000
     10       6.8687      0.00000
     11       7.1199      0.00000
     12       8.5815      0.00000
     13       9.1657      0.00000
     14      11.4106      0.00000

 k-point     9 :       0.4444    0.1111    0.0000
  band No.  band energies     occupation 
      1      -6.8534      2.00000
      2      -5.3178      2.00000
      3      -4.5734      2.00000
      4       0.9194      2.00000
      5       1.2570      2.00000
      6       2.2016      2.00000
      7       2.2523      2.00000
      8       4.0790      2.00000
      9       4.1887      2.00000
     10       6.8812      0.00000
     11       7.1329      0.00000
     12       9.0191      0.00000
     13       9.0271      0.00000
     14      12.3368      0.00000

 k-point    10 :       0.2222    0.2222    0.0000
  band No.  band energies     occupation 
      1      -7.0598      2.00000
      2      -5.0335      2.00000
      3      -4.7017      2.00000
      4       1.0112      2.00000
      5       1.1151      2.00000
      6       2.4559      2.00000
      7       3.3128      2.00000
      8       3.6186      2.00000
      9       3.6908      2.00000
     10       7.4798      0.00000
     11       7.7488      0.00000
     12       7.9570      0.00000
     13       9.9317      0.00000
     14      10.3170      0.00000

 k-point    11 :       0.3333    0.2222    0.0000
  band No.  band energies     occupation 
      1      -6.8145      2.00000
      2      -5.1681      2.00000
      3      -4.7768      2.00000
      4       1.0573      2.00000
      5       1.1874      2.00000
      6       2.3187      2.00000
      7       2.6376      2.00000
      8       3.3227      2.00000
      9       3.4227      2.00000
     10       7.7059      0.00000
     11       8.0055      0.00000
     12       8.6662      0.00000
     13       9.8732      0.00000
     14      11.1763      0.00000

 k-point    12 :       0.3333    0.3333    0.0000
  band No.  band energies     occupation 
      1      -6.7225      2.00000
      2      -5.0192      2.00000
      3      -5.0192      2.00000
      4       1.1967      2.00000
      5       1.1967      2.00000
      6       2.5984      2.00000
      7       2.5984      2.00000
      8       2.7416      2.00000
      9       3.0135      2.00000
     10       8.3106      0.00000
     11       8.3106      0.00000
     12       8.6178      0.00000
     13      10.4739      0.00000
     14      11.4509      0.00000

 k-point    13 :       0.0000    0.0000    0.2500
  band No.  band energies     occupation 
      1      -7.6386      2.00000
      2      -5.9853      2.00000
      3      -3.3851      2.00000
      4       2.1260      2.00000
      5       2.7320      2.00000
      6       3.1298      2.00000
      7       4.1458      2.00000
      8       4.1575      2.00000
      9       4.7758      2.00000
     10       6.2404      0.00000
     11       6.2816      0.00000
     12       6.6794      0.00000
     13      10.0189      0.00000
     14      11.1077      0.00000

 k-point    14 :       0.1111    0.0000    0.2500
  band No.  band energies     occupation 
      1      -7.5633      2.00000
      2      -5.9379      2.00000
      3      -3.4820      2.00000
      4       1.8850      2.00000
      5       2.5615      2.00000
      6       2.9889      2.00000
      7       3.8876      2.00000
      8       4.2683      2.00000
      9       4.4383      2.00000
     10       6.5062      0.00000
     11       6.6051      0.00000
     12       7.0190      0.00000
     13      10.1083      0.00000
     14      11.0741      0.00000

 k-point    15 :       0.2222    0.0000    0.2500
  band No.  band energies     occupation 
      1      -7.3524      2.00000
      2      -5.8026      2.00000
      3      -3.7840      2.00000
      4       1.5519      2.00000
      5       2.1633      2.00000
      6       2.7362      2.00000
      7       3.2561      2.00000
      8       3.8354      2.00000
      9       4.3506      2.00000
     10       6.8257      0.00000
     11       7.3736      0.00000
     12       7.7626      0.00000
     13      10.3743      0.00000
     14      10.7993      0.00000

 k-point    16 :       0.3333   -0.0000    0.2500
  band No.  band energies     occupation 
      1      -7.0555      2.00000
      2      -5.6358      2.00000
      3      -4.1981      2.00000
      4       1.2415      2.00000
      5       1.6201      2.00000
      6       2.4300      2.00000
      7       2.8207      2.00000
      8       3.8183      2.00000
      9       4.2515      2.00000
     10       6.8813      0.00000
     11       7.5285      0.00000
     12       8.5526      0.00000
     13       9.9565      0.00000
     14      11.2281      0.00000

 k-point    17 :       0.4444    0.0000    0.2500
  band No.  band energies     occupation 
      1      -6.7874      2.00000
      2      -5.6000      2.00000
      3      -4.4318      2.00000
      4       0.7152      2.00000
      5       1.3128      2.00000
      6       2.1603      2.00000
      7       3.2215      2.00000
      8       3.8456      2.00000
      9       4.1774      2.00000
     10       6.7950      0.00000
     11       7.4852      0.00000
     12       8.4056      0.00000
     13       9.5271      0.00000
     14      11.6118      0.00000

 k-point    18 :      -0.4444   -0.0000    0.2500
  band No.  band energies     occupation 
      1      -6.7606      2.00000
      2      -5.7135      2.00000
      3      -4.2857      2.00000
      4       0.4154      2.00000
      5       1.2229      2.00000
      6       2.1264      2.00000
      7       3.8741      2.00000
      8       3.9642      2.00000
      9       4.2917      2.00000
     10       6.6764      0.00000
     11       7.3017      0.00000
     12       7.7018      0.00000
     13       9.2509      0.00000
     14      12.1064      0.00000

 k-point    19 :      -0.3333    0.0000    0.2500
  band No.  band energies     occupation 
      1      -7.0266      2.00000
      2      -5.7749      2.00000
      3      -3.9743      2.00000
      4       0.6066      2.00000
      5       1.3161      2.00000
      6       2.2715      2.00000
      7       4.1566      2.00000
      8       4.1912      2.00000
      9       5.0036      2.00000
     10       6.3643      0.00000
     11       6.9480      0.00000
     12       7.1115      0.00000
     13       9.1700      0.00000
     14      12.1464      0.00000

 k-point    20 :      -0.2222   -0.0000    0.2500
  band No.  band energies     occupation 
      1      -7.3423      2.00000
      2      -5.8538      2.00000
      3      -3.6744      2.00000
      4       1.2694      2.00000
      5       1.6004      2.00000
      6       2.5515      2.00000
      7       4.3536      2.00000
      8       4.4834      2.00000
      9       5.0898      2.00000
     10       6.1702      0.00000
     11       6.6148      0.00000
     12       6.8893      0.00000
     13       9.3743      0.00000
     14      11.6404      0.00000

 k-point    21 :      -0.1111   -0.0000    0.2500
  band No.  band energies     occupation 
      1      -7.5620      2.00000
      2      -5.9446      2.00000
      3      -3.4645      2.00000
      4       1.9000      2.00000
      5       2.2745      2.00000
      6       2.8992      2.00000
      7       4.3119      2.00000
      8       4.4210      2.00000
      9       4.7239      2.00000
     10       6.2154      0.00000
     11       6.2400      0.00000
     12       7.0107      0.00000
     13       9.8352      0.00000
     14      11.1149      0.00000

 k-point    22 :       0.1111    0.1111    0.2500
  band No.  band energies     occupation 
      1      -7.4167      2.00000
      2      -5.8625      2.00000
      3      -3.6462      2.00000
      4       1.5793      2.00000
      5       1.9074      2.00000
      6       2.7615      2.00000
      7       3.7607      2.00000
      8       4.3184      2.00000
      9       4.7024      2.00000
     10       6.4414      0.00000
     11       6.9760      0.00000
     12       7.1853      0.00000
     13       9.8654      0.00000
     14      11.0954      0.00000

 k-point    23 :       0.2222    0.1111    0.2500
  band No.  band energies     occupation 
      1      -7.1586      2.00000
      2      -5.7130      2.00000
      3      -4.0106      2.00000
      4       1.2471      2.00000
      5       1.6378      2.00000
      6       2.5894      2.00000
      7       2.8723      2.00000
      8       3.9212      2.00000
      9       4.8173      2.00000
     10       6.5971      0.00000
     11       7.3250      0.00000
     12       8.1940      0.00000
     13      10.1927      0.00000
     14      10.6654      0.00000

 k-point    24 :       0.3333    0.1111    0.2500
  band No.  band energies     occupation 
      1      -6.8641      2.00000
      2      -5.5905      2.00000
      3      -4.3762      2.00000
      4       0.9597      2.00000
      5       1.2167      2.00000
      6       2.2706      2.00000
      7       2.8961      2.00000
      8       3.6016      2.00000
      9       4.8433      2.00000
     10       6.5312      0.00000
     11       7.6389      0.00000
     12       8.5504      0.00000
     13       9.8357      0.00000
     14      11.3166      0.00000

 k-point    25 :       0.4444    0.1111    0.2500
  band No.  band energies     occupation 
      1      -6.6970      2.00000
      2      -5.6383      2.00000
      3      -4.4366      2.00000
      4       0.5519      2.00000
      5       1.1012      2.00000
      6       2.1667      2.00000
      7       3.1190      2.00000
      8       3.7488      2.00000
      9       4.8546      2.00000
     10       6.4563      0.00000
     11       7.7000      0.00000
     12       8.0749      0.00000
     13       9.5854      0.00000
     14      11.9627      0.00000

 k-point    26 :      -0.4444    0.1111    0.2500
  band No.  band energies     occupation 
      1      -6.8368      2.00000
      2      -5.7140      2.00000
      3      -4.2071      2.00000
      4       0.4811      2.00000
      5       1.2281      2.00000
      6       2.2012      2.00000
      7       3.1722      2.00000
      8       4.4593      2.00000
      9       4.9259      2.00000
     10       6.3457      0.00000
     11       7.1962      0.00000
     12       7.7319      0.00000
     13       9.4826      0.00000
     14      11.9229      0.00000

 k-point    27 :      -0.3333    0.1111    0.2500
  band No.  band energies     occupation 
      1      -7.1468      2.00000
      2      -5.7714      2.00000
      3      -3.9065      2.00000
      4       0.9080      2.00000
      5       1.4688      2.00000
      6       2.4172      2.00000
      7       3.3815      2.00000
      8       4.6379      2.00000
      9       5.2379      2.00000
     10       6.1194      0.00000
     11       6.8361      0.00000
     12       7.5405      0.00000
     13       9.5431      0.00000
     14      11.3102      0.00000

 k-point    28 :       0.2222    0.2222    0.2500
  band No.  band energies     occupation 
      1      -6.8822      2.00000
      2      -5.6496      2.00000
      3      -4.2620      2.00000
      4       0.7212      2.00000
      5       1.3228      2.00000
      6       2.1921      2.00000
      7       2.7325      2.00000
      8       4.2378      2.00000
      9       5.1059      2.00000
     10       6.4246      0.00000
     11       7.2483      0.00000
     12       8.3063      0.00000
     13      10.1496      0.00000
     14      10.7247      0.00000

 k-point    29 :       0.3333    0.2222    0.2500
  band No.  band energies     occupation 
      1      -6.6592      2.00000
      2      -5.5849      2.00000
      3      -4.5168      2.00000
      4       0.6935      2.00000
      5       0.9817      2.00000
      6       1.8665      2.00000
      7       2.9466      2.00000
      8       3.8702      2.00000
      9       4.9097      2.00000
     10       6.6697      0.00000
     11       7.7658      0.00000
     12       8.2943      0.00000
     13      10.1989      0.00000
     14      11.2661      0.00000

 k-point    30 :       0.4444    0.2222    0.2500
  band No.  band energies     occupation 
      1      -6.6513      2.00000
      2      -5.6190      2.00000
      3      -4.4769      2.00000
      4       0.5540      2.00000
      5       1.0521      2.00000
      6       1.8816      2.00000
      7       2.9019      2.00000
      8       4.1553      2.00000
      9       4.7815      2.00000
     10       6.7885      0.00000
     11       7.5380      0.00000
     12       8.1859      0.00000
     13      10.1184      0.00000
     14      11.4925      0.00000

 k-point    31 :       0.3333    0.3333    0.2500
  band No.  band energies     occupation 
      1      -6.5680      2.00000
      2      -5.5770      2.00000
      3      -4.5919      2.00000
      4       0.6450      2.00000
      5       0.9567      2.00000
      6       1.5502      2.00000
      7       3.1024      2.00000
      8       4.0668      2.00000
      9       4.5065      2.00000
     10       7.2261      0.00000
     11       7.8546      0.00000
     12       7.9419      0.00000
     13      10.9231      0.00000
     14      11.2041      0.00000

 k-point    32 :       0.0000    0.0000    0.5000
  band No.  band energies     occupation 
      1      -7.0007      2.00000
      2      -7.0007      2.00000
      3      -2.7240      2.00000
      4       1.6628      2.00000
      5       2.9952      2.00000
      6       2.9952      2.00000
      7       4.2909      2.00000
      8       4.5700      2.00000
      9       4.5700      2.00000
     10       6.0754      0.00000
     11       6.1101      0.00000
     12       6.1101      0.00000
     13       9.6570      0.00000
     14      10.9195      0.00000

 k-point    33 :       0.1111    0.0000    0.5000
  band No.  band energies     occupation 
      1      -6.9425      2.00000
      2      -6.9266      2.00000
      3      -2.8854      2.00000
      4       1.6240      2.00000
      5       2.8110      2.00000
      6       2.8954      2.00000
      7       3.8427      2.00000
      8       4.1878      2.00000
      9       4.4239      2.00000
     10       6.3014      0.00000
     11       6.5005      0.00000
     12       6.8948      0.00000
     13       9.8820      0.00000
     14      10.6170      0.00000

 k-point    34 :       0.2222    0.0000    0.5000
  band No.  band energies     occupation 
      1      -6.7861      2.00000
      2      -6.7144      2.00000
      3      -3.3067      2.00000
      4       1.3272      2.00000
      5       2.2383      2.00000
      6       2.6081      2.00000
      7       3.6454      2.00000
      8       3.8053      2.00000
      9       4.2476      2.00000
     10       6.7167      0.00000
     11       7.1968      0.00000
     12       7.6401      0.00000
     13      10.1008      0.00000
     14      10.7735      0.00000

 k-point    35 :       0.3333   -0.0000    0.5000
  band No.  band energies     occupation 
      1      -6.5894      2.00000
      2      -6.4053      2.00000
      3      -3.8362      2.00000
      4       0.6483      2.00000
      5       1.9843      2.00000
      6       2.3001      2.00000
      7       3.4189      2.00000
      8       3.6756      2.00000
      9       4.5359      2.00000
     10       6.9307      0.00000
     11       7.4859      0.00000
     12       7.7654      0.00000
     13      10.1016      0.00000
     14      11.0735      0.00000

 k-point    36 :       0.4444    0.0000    0.5000
  band No.  band energies     occupation 
      1      -6.4472      2.00000
      2      -6.1242      2.00000
      3      -4.2530      2.00000
      4       0.1641      2.00000
      5       1.9563      2.00000
      6       2.0751      2.00000
      7       3.2609      2.00000
      8       3.5813      2.00000
      9       5.1519      2.00000
     10       6.4520      0.00000
     11       7.4102      0.00000
     12       8.0167      0.00000
     13      10.1321      0.00000
     14      10.8934      0.00000

 k-point    37 :       0.1111    0.1111    0.5000
  band No.  band energies     occupation 
      1      -6.8315      2.00000
      2      -6.7867      2.00000
      3      -3.1745      2.00000
      4       1.4769      2.00000
      5       2.4578      2.00000
      6       2.5226      2.00000
      7       3.6149      2.00000
      8       3.7926      2.00000
      9       4.6508      2.00000
     10       6.2232      0.00000
     11       7.2997      0.00000
     12       7.4598      0.00000
     13      10.2867      0.00000
     14      10.3586      0.00000

 k-point    38 :       0.2222    0.1111    0.5000
  band No.  band energies     occupation 
      1      -6.6440      2.00000
      2      -6.5330      2.00000
      3      -3.6411      2.00000
      4       1.0091      2.00000
      5       1.8777      2.00000
      6       2.0783      2.00000
      7       3.6137      2.00000
      8       3.9550      2.00000
      9       4.6438      2.00000
     10       6.5261      0.00000
     11       7.5782      0.00000
     12       7.7372      0.00000
     13      10.1757      0.00000
     14      10.9683      0.00000

 k-point    39 :       0.3333    0.1111    0.5000
  band No.  band energies     occupation 
      1      -6.4605      2.00000
      2      -6.2344      2.00000
      3      -4.1125      2.00000
      4       0.4108      2.00000
      5       1.6169      2.00000
      6       1.7645      2.00000
      7       3.6968      2.00000
      8       4.0483      2.00000
      9       4.9066      2.00000
     10       6.6759      0.00000
     11       7.2553      0.00000
     12       7.8063      0.00000
     13      10.2032      0.00000
     14      11.1480      0.00000

 k-point    40 :       0.4444    0.1111    0.5000
  band No.  band energies     occupation 
      1      -6.3821      2.00000
      2      -6.0768      2.00000
      3      -4.3352      2.00000
      4       0.1632      2.00000
      5       1.5726      2.00000
      6       1.6234      2.00000
      7       3.8201      2.00000
      8       3.9034      2.00000
      9       5.3622      2.00000
     10       6.2700      0.00000
     11       7.2556      0.00000
     12       7.8201      0.00000
     13      10.2788      0.00000
     14      10.9427      0.00000

 k-point    41 :       0.2222    0.2222    0.5000
  band No.  band energies     occupation 
      1      -6.4441      2.00000
      2      -6.3033      2.00000
      3      -4.0412      2.00000
      4       0.7009      2.00000
      5       1.2311      2.00000
      6       1.5309      2.00000
      7       4.0119      2.00000
      8       4.3467      2.00000
      9       5.0484      2.00000
     10       6.3668      0.00000
     11       7.4487      0.00000
     12       7.5019      0.00000
     13      10.4412      0.00000
     14      11.2851      0.00000

 k-point    42 :       0.3333    0.2222    0.5000
  band No.  band energies     occupation 
      1      -6.2893      2.00000
      2      -6.1201      2.00000
      3      -4.3362      2.00000
      4       0.4031      2.00000
      5       0.9953      2.00000
      6       1.1563      2.00000
      7       4.3257      2.00000
      8       4.7312      2.00000
      9       5.3275      2.00000
     10       6.2444      0.00000
     11       6.9959      0.00000
     12       7.3165      0.00000
     13      10.7742      0.00000
     14      11.4682      0.00000

 k-point    43 :       0.3333    0.3333    0.5000
  band No.  band energies     occupation 
      1      -6.1459      2.00000
      2      -6.1459      2.00000
      3      -4.4184      2.00000
      4       0.5630      2.00000
      5       0.7575      2.00000
      6       0.7575      2.00000
      7       4.5745      2.00000
      8       5.5236      1.96442
      9       5.5236      1.96442
     10       5.6617      0.07116
     11       6.9111      0.00000
     12       6.9111      0.00000
     13      11.4666      0.00000
     14      12.0715      0.00000


--------------------------------------------------------------------------------------------------------


 soft charge-density along one line, spin component           1
         0         1         2         3         4         5         6         7         8         9
 total charge-density along one line
 
 pseudopotential strength for first ion, spin component:           1
 51.791  56.350  -0.000  -0.000  -0.051  -0.000  -0.000  -0.074
 56.350  61.313  -0.000  -0.000  -0.056  -0.000  -0.000  -0.081
 -0.000  -0.000  12.744   0.010   0.000  18.370   0.014   0.000
 -0.000  -0.000   0.010  12.761   0.000   0.014  18.395   0.000
 -0.051  -0.056   0.000   0.000  12.761   0.000   0.000  18.394
 -0.000  -0.000  18.370   0.014   0.000  26.490   0.020   0.000
 -0.000  -0.000   0.014  18.395   0.000   0.020  26.525   0.000
 -0.074  -0.081   0.000   0.000  18.394   0.000   0.000  26.524
  0.000   0.000  -0.010   0.000  -0.000  -0.015   0.000  -0.000
  0.015   0.017   0.000  -0.000   0.000   0.000  -0.000   0.000
  0.008   0.008   0.000  -0.000   0.006   0.000  -0.000   0.009
  0.000   0.000   0.000  -0.009  -0.000   0.000  -0.013  -0.000
  0.013   0.014   0.000  -0.000  -0.010   0.000  -0.000  -0.014
 total augmentation occupancy for first ion, spin component:           1
 12.853  -9.334   0.000  -0.000   2.237   0.000  -0.000  -0.589   0.000  -0.165  -0.102   0.000  -0.115
 -9.334   8.029   0.000   0.000  -1.877   0.000   0.000   0.503   0.000   0.150   0.092   0.000   0.104
  0.000  -0.000   2.498   0.234   0.000  -0.463  -0.201   0.000  -0.056   0.000   0.000  -0.050   0.000
  0.000   0.000   0.234   2.880   0.000  -0.201  -0.797   0.000  -0.049   0.000   0.000  -0.126   0.000
  2.237  -1.877   0.000   0.000   2.744   0.000   0.000  -0.718   0.000  -0.056  -0.018   0.000  -0.055
  0.000   0.000  -0.463  -0.201   0.000   0.165   0.076   0.000   0.013   0.000   0.000   0.018   0.000
  0.000   0.000  -0.201  -0.797   0.000   0.076   0.287   0.000   0.019   0.000  -0.000   0.038   0.000
 -0.589   0.503   0.000   0.000  -0.718  -0.000   0.000   0.249   0.000   0.016   0.004   0.000   0.014
  0.000   0.000  -0.056  -0.049   0.000   0.013   0.019   0.000   0.009   0.000   0.000   0.010   0.000
 -0.165   0.150   0.000   0.000  -0.056   0.000   0.000   0.016   0.000   0.013   0.004   0.000   0.003
 -0.102   0.092   0.000   0.000  -0.018  -0.000   0.000   0.004   0.000   0.004   0.008  -0.000  -0.001
  0.000   0.000  -0.050  -0.126   0.000   0.018   0.038  -0.000   0.010   0.000   0.000   0.025   0.000
 -0.115   0.104   0.000  -0.000  -0.055   0.000   0.000   0.014   0.000   0.003  -0.001   0.000   0.009


------------------------ aborting loop because EDIFF is reached ----------------------------------------


    CHARGE:  cpu time    0.0245: real time    0.0246
    FORLOC:  cpu time    0.0009: real time    0.0009
    FORNL :  cpu time    0.0952: real time    0.0955
    STRESS:  cpu time    0.2122: real time    0.2128
    FORCOR:  cpu time    0.0190: real time    0.0190
    FORHAR:  cpu time    0.0039: real time    0.0039
    MIXING:  cpu time    0.0008: real time    0.0008
    OFIELD:  cpu time    0.0000: real time    0.0000

  Hirshfeld charges:
            ion         q(e)     
   ------------------------------
      1     Te         -0.000
      2     Te          0.000
      3     Te          0.000

  Tkatchenko/Scheffler method for vdW energy calculation
  ---------------------------------------------------------------------------------------------

  Parameters of vdW forcefield:
            C6ts              R0ts           ALPHAts        RELVOL
            (au)              (au)            (au)                
   ---------------------------------------------------------------
   Te        395.880          4.214         37.644          1.000
   Te        395.880          4.214         37.644          1.000
   Te        395.880          4.214         37.644          1.000

  Number of pair interactions contributing to vdW energy:   29844
  Edisp (eV):   -0.67332
    FORVDW:  cpu time    0.1398: real time    0.1403

  FORCE on cell =-STRESS in cart. coord.  units (eV):
  Direction    XX          YY          ZZ          XY          YZ          ZX
  --------------------------------------------------------------------------------------
  Alpha Z     2.22428     2.22428     2.22428
  Ewald    -236.43896  -236.43896  -194.36536    -0.00000    -0.00001     0.00000
  Hartree    11.58094    11.58094    22.52008     0.00000     0.00000    -0.00000
  E(xc)     -70.26813   -70.26813   -69.76966    -0.00000     0.00000    -0.00000
  Local    -113.39053  -113.39058  -156.73497    -0.00004     0.00000    -0.00000
  n-local   331.76630   332.55111   327.80285    -1.22575    -0.73446    -1.26810
  augment   -81.08977   -81.08972   -78.73350     0.00004    -0.00000     0.00000
  Kinetic   152.24696   158.56481   147.04724    -7.11344     0.11088     1.39248
  Fock        0.00000     0.00000     0.00000     0.00000     0.00000     0.00000
  vdW        -0.75386    -0.75386    -0.83770     0.00000    -0.00000    -0.00000
  -------------------------------------------------------------------------------------
  Total      -0.57144    -0.57144    -0.84673     0.00000     0.00000     0.00000
  in kB      -8.71191    -8.71191   -12.90896     0.00000     0.00000     0.00000
  external pressure =      -10.11 kB  Pullay stress =        0.00 kB


 VOLUME and BASIS-vectors are now :
 -----------------------------------------------------------------------------
  energy-cutoff  :      520.00
  volume of cell :      105.09
      direct lattice vectors                 reciprocal lattice vectors
     4.494721131  0.000000000  0.000000000     0.222483213  0.128450743  0.000000000
    -2.247360565  3.892542682  0.000000000     0.000000000  0.256901486  0.000000000
     0.000000000 -0.000000000  6.006619244     0.000000000  0.000000000  0.166483001

  length of vectors
     4.494721131  4.494721131  6.006619244     0.256901486  0.256901486  0.166483001


 FORCES acting on ions
    electron-ion (+dipol)            ewald-force                    non-local-force                 convergence-correction
 -----------------------------------------------------------------------------------------------
   -.123E+02 0.120E-04 -.116E-05   0.176E+02 0.148E-05 0.172E-05   -.521E+01 0.278E-16 -.278E-16   0.132E-02 -.117E-07 0.334E-09
   0.616E+01 -.107E+02 -.185E-04   -.881E+01 0.153E+02 -.844E-05   0.261E+01 -.451E+01 0.000E+00   -.659E-03 0.114E-02 -.191E-08
   0.616E+01 0.107E+02 0.193E-04   -.881E+01 -.153E+02 0.672E-05   0.261E+01 0.451E+01 0.000E+00   -.659E-03 -.114E-02 0.159E-08
 -----------------------------------------------------------------------------------------------
   0.260E-04 -.738E-05 -.324E-06   -.178E-14 0.000E+00 0.000E+00   -.888E-15 0.888E-15 -.278E-16   0.235E-09 0.336E-09 0.130E-10
 
 
 POSITION                                       TOTAL-FORCE (eV/Angst)
 -----------------------------------------------------------------------------------
      1.19439     -0.00000      2.00221         0.056519      0.000000     -0.000000
     -0.59719      1.03437      4.00441        -0.028260      0.048947      0.000000
      1.65017      2.85817     -0.00000        -0.028260     -0.048947      0.000000
 -----------------------------------------------------------------------------------
    total drift:                                0.000026     -0.000007     -0.000000


--------------------------------------------------------------------------------------------------------



  FREE ENERGIE OF THE ION-ELECTRON SYSTEM (eV)
  ---------------------------------------------------
  free  energy   TOTEN  =       -10.09676077 eV

  energy  without entropy=      -10.09668832  energy(sigma->0) =      -10.09672454
 
 d Force = 0.1025280E-01[ 0.287E-02, 0.176E-01]  d Energy = 0.1044636E-01-0.194E-03
 d Force = 0.9383558E+00[ 0.894E+00, 0.983E+00]  d Ewald  =-0.5381419E+01 0.632E+01


--------------------------------------------------------------------------------------------------------


    POTLOK:  cpu time    0.0192: real time    0.0193


--------------------------------------------------------------------------------------------------------


 Steepest descent step on ions:
 trial-energy change:   -0.010446  1 .order   -0.009397   -0.036228    0.017434
  (g-gl).g = 0.362E-01      g.g   = 0.362E-01  gl.gl    = 0.000E+00
 g(Force)  = 0.175E-01   g(Stress)= 0.187E-01 ortho     = 0.000E+00
 gamma     =   0.00000
 trial     =   1.00000
 opt step  =   0.69976  (harmonic =   0.67511) maximal distance =0.01173870
 next E    =   -10.099350   (d E  =  -0.01304)


--------------------------------------------------------------------------------------------------------


    WAVPRE:  cpu time    0.0035: real time    0.0062
    FEWALD:  cpu time    0.0002: real time    0.0002
    GENKIN:  cpu time    0.0059: real time    0.0060
    ORTHCH:  cpu time    0.0184: real time    0.0185
     LOOP+:  cpu time    2.8438: real time    2.8612


--------------------------------------- Iteration      3(   1)  ---------------------------------------


    POTLOK:  cpu time    0.0172: real time    0.0184
    SETDIJ:  cpu time    0.0024: real time    0.0024
     EDDAV:  cpu time    0.3131: real time    0.3141
       DOS:  cpu time    0.0005: real time    0.0005
    CHARGE:  cpu time    0.0251: real time    0.0251
    MIXING:  cpu time    0.0005: real time    0.0005
    --------------------------------------------
      LOOP:  cpu time    0.3588: real time    0.3611

 eigenvalue-minimisations  :  1210
 total energy-change (2. order) : 0.1939821E-02  (-0.1012395E-01)
 number of electron      17.9999991 magnetization 
 augmentation part       -3.6003164 magnetization 

 Broyden mixing:
  rms(total) = 0.37577E-01    rms(broyden)= 0.37577E-01
  rms(prec ) = 0.51041E-01
  weight for this iteration     100.00

 Free energy of the ion-electron system (eV)
  ---------------------------------------------------
  alpha Z        PSCENC =         2.24364170
  Ewald energy   TEWEN  =      -668.85837577
  -Hartree energ DENC   =       -46.01088510
  -exchange      EXHF   =         0.00000000
  -V(xc)+E(xc)   XCENC  =       -84.08952373
  PAW double counting   =      1478.51959826    -1363.14809193
  entropy T*S    EENTRO =        -0.00006733
  eigenvalues    EBANDS =         2.10789897
  atomic energy  EATOM  =       669.81430600
  Solvation  Ediel_sol  =         0.00000000
  ---------------------------------------------------
  free energy    TOTEN  =        -9.42149895 eV

  energy without entropy =       -9.42143162  energy(sigma->0) =       -9.42146528


--------------------------------------------------------------------------------------------------------




--------------------------------------- Iteration      3(   2)  ---------------------------------------


    POTLOK:  cpu time    0.0177: real time    0.0177
    SETDIJ:  cpu time    0.0024: real time    0.0024
     EDDAV:  cpu time    0.3323: real time    0.3334
       DOS:  cpu time    0.0005: real time    0.0005
    CHARGE:  cpu time    0.0240: real time    0.0241
    MIXING:  cpu time    0.0006: real time    0.0006
    --------------------------------------------
      LOOP:  cpu time    0.3775: real time    0.3787

 eigenvalue-minimisations  :  1300
 total energy-change (2. order) : 0.1436896E-02  (-0.4298333E-03)
 number of electron      17.9999991 magnetization 
 augmentation part       -3.6005686 magnetization 

 Broyden mixing:
  rms(total) = 0.18796E-01    rms(broyden)= 0.18796E-01
  rms(prec ) = 0.27550E-01
  weight for this iteration     100.00

 eigenvalues of (default mixing * dielectric matrix)
  average eigenvalue GAMMA=   0.8973
  0.8973

 Free energy of the ion-electron system (eV)
  ---------------------------------------------------
  alpha Z        PSCENC =         2.24364170
  Ewald energy   TEWEN  =      -668.85837577
  -Hartree energ DENC   =       -45.74982783
  -exchange      EXHF   =         0.00000000
  -V(xc)+E(xc)   XCENC  =       -84.08213790
  PAW double counting   =      1494.16389268    -1378.79207352
  entropy T*S    EENTRO =        -0.00006758
  eigenvalues    EBANDS =         1.84058018
  atomic energy  EATOM  =       669.81430600
  Solvation  Ediel_sol  =         0.00000000
  ---------------------------------------------------
  free energy    TOTEN  =        -9.42006205 eV

  energy without entropy =       -9.41999448  energy(sigma->0) =       -9.42002826


--------------------------------------------------------------------------------------------------------




--------------------------------------- Iteration      3(   3)  ---------------------------------------


    POTLOK:  cpu time    0.0169: real time    0.0173
    SETDIJ:  cpu time    0.0023: real time    0.0023
     EDDAV:  cpu time    0.3404: real time    0.3414
       DOS:  cpu time    0.0005: real time    0.0005
    CHARGE:  cpu time    0.0239: real time    0.0240
    MIXING:  cpu time    0.0006: real time    0.0006
    --------------------------------------------
      LOOP:  cpu time    0.3846: real time    0.3862

 eigenvalue-minimisations  :  1360
 total energy-change (2. order) : 0.6546311E-03  (-0.6140941E-04)
 number of electron      17.9999991 magnetization 
 augmentation part       -3.6039654 magnetization 

 Broyden mixing:
  rms(total) = 0.68118E-02    rms(broyden)= 0.68118E-02
  rms(prec ) = 0.12096E-01
  weight for this iteration     100.00

 eigenvalues of (default mixing * dielectric matrix)
  average eigenvalue GAMMA=   1.3134
  0.8098  1.8170

 Free energy of the ion-electron system (eV)
  ---------------------------------------------------
  alpha Z        PSCENC =         2.24364170
  Ewald energy   TEWEN  =      -668.85837577
  -Hartree energ DENC   =       -45.58887977
  -exchange      EXHF   =         0.00000000
  -V(xc)+E(xc)   XCENC  =       -84.07425688
  PAW double counting   =      1498.13828737    -1382.76869944
  entropy T*S    EENTRO =        -0.00006590
  eigenvalues    EBANDS =         1.67463529
  atomic energy  EATOM  =       669.81430600
  Solvation  Ediel_sol  =         0.00000000
  ---------------------------------------------------
  free energy    TOTEN  =        -9.41940742 eV

  energy without entropy =       -9.41934152  energy(sigma->0) =       -9.41937447


--------------------------------------------------------------------------------------------------------




--------------------------------------- Iteration      3(   4)  ---------------------------------------


    POTLOK:  cpu time    0.0168: real time    0.0171
    SETDIJ:  cpu time    0.0023: real time    0.0023
     EDDAV:  cpu time    0.3215: real time    0.3227
       DOS:  cpu time    0.0006: real time    0.0006
    CHARGE:  cpu time    0.0245: real time    0.0246
    MIXING:  cpu time    0.0007: real time    0.0007
    --------------------------------------------
      LOOP:  cpu time    0.3664: real time    0.3680

 eigenvalue-minimisations  :  1240
 total energy-change (2. order) : 0.2169166E-03  (-0.4280141E-04)
 number of electron      17.9999991 magnetization 
 augmentation part       -3.6071997 magnetization 

 Broyden mixing:
  rms(total) = 0.11542E-01    rms(broyden)= 0.11542E-01
  rms(prec ) = 0.11596E-01
  weight for this iteration     100.00

 eigenvalues of (default mixing * dielectric matrix)
  average eigenvalue GAMMA=   1.8001
  1.2005  2.4701  1.7298

 Free energy of the ion-electron system (eV)
  ---------------------------------------------------
  alpha Z        PSCENC =         2.24364170
  Ewald energy   TEWEN  =      -668.85837577
  -Hartree energ DENC   =       -45.44773789
  -exchange      EXHF   =         0.00000000
  -V(xc)+E(xc)   XCENC  =       -84.06638397
  PAW double counting   =      1501.90427944    -1386.53928928
  entropy T*S    EENTRO =        -0.00006423
  eigenvalues    EBANDS =         1.53043351
  atomic energy  EATOM  =       669.81430600
  Solvation  Ediel_sol  =         0.00000000
  ---------------------------------------------------
  free energy    TOTEN  =        -9.41919050 eV

  energy without entropy =       -9.41912627  energy(sigma->0) =       -9.41915839


--------------------------------------------------------------------------------------------------------




--------------------------------------- Iteration      3(   5)  ---------------------------------------


    POTLOK:  cpu time    0.0170: real time    0.0170
    SETDIJ:  cpu time    0.0023: real time    0.0023
     EDDAV:  cpu time    0.3078: real time    0.3088
       DOS:  cpu time    0.0006: real time    0.0006
    --------------------------------------------
      LOOP:  cpu time    0.3276: real time    0.3287

 eigenvalue-minimisations  :  1160
 total energy-change (2. order) : 0.1882518E-05  (-0.2292138E-05)
 number of electron      17.9999991 magnetization 
 augmentation part       -3.6071997 magnetization 

 Free energy of the ion-electron system (eV)
  ---------------------------------------------------
  alpha Z        PSCENC =         2.24364170
  Ewald energy   TEWEN  =      -668.85837577
  -Hartree energ DENC   =       -45.42955903
  -exchange      EXHF   =         0.00000000
  -V(xc)+E(xc)   XCENC  =       -84.06454590
  PAW double counting   =      1504.70064680    -1389.34088581
  entropy T*S    EENTRO =        -0.00006393
  eigenvalues    EBANDS =         1.51564732
  atomic energy  EATOM  =       669.81430600
  Solvation  Ediel_sol  =         0.00000000
  ---------------------------------------------------
  free energy    TOTEN  =        -9.41918862 eV

  energy without entropy =       -9.41912470  energy(sigma->0) =       -9.41915666


--------------------------------------------------------------------------------------------------------




 average (electrostatic) potential at core
  the test charge radii are     1.1897
  (the norm of the test charge is              1.0000)
       1 -89.2761       2 -89.2761       3 -89.2761
 
 
 
 E-fermi :   5.7111     XC(G=0):  -8.9644     alpha+bet :-10.3218


 k-point     1 :       0.0000    0.0000    0.0000
  band No.  band energies     occupation 
      1      -7.8262      2.00000
      2      -4.6123      2.00000
      3      -4.6123      2.00000
      4       2.6694      2.00000
      5       2.9114      2.00000
      6       2.9114      2.00000
      7       4.0596      2.00000
      8       4.0596      2.00000
      9       4.9279      2.00000
     10       6.6491      0.00000
     11       6.6491      0.00000
     12       7.2936      0.00000
     13      10.6406      0.00000
     14      10.6406      0.00000

 k-point     2 :       0.1111    0.0000    0.0000
  band No.  band energies     occupation 
      1      -7.7470      2.00000
      2      -4.6368      2.00000
      3      -4.5906      2.00000
      4       2.0609      2.00000
      5       2.5215      2.00000
      6       2.7915      2.00000
      7       4.2811      2.00000
      8       4.5817      2.00000
      9       5.0373      2.00000
     10       6.4170      0.00000
     11       6.6018      0.00000
     12       7.1973      0.00000
     13      10.4360      0.00000
     14      10.6113      0.00000

 k-point     3 :       0.2222    0.0000    0.0000
  band No.  band energies     occupation 
      1      -7.5212      2.00000
      2      -4.7440      2.00000
      3      -4.5314      2.00000
      4       1.3085      2.00000
      5       1.9782      2.00000
      6       2.4660      2.00000
      7       4.3539      2.00000
      8       4.6623      2.00000
      9       4.8611      2.00000
     10       6.5388      0.00000
     11       6.7171      0.00000
     12       7.3605      0.00000
     13       9.7437      0.00000
     14      10.8504      0.00000

 k-point     4 :       0.3333   -0.0000    0.0000
  band No.  band energies     occupation 
      1      -7.1960      2.00000
      2      -4.9760      2.00000
      3      -4.4573      2.00000
      4       0.9362      2.00000
      5       1.5511      2.00000
      6       2.1870      2.00000
      7       3.3599      2.00000
      8       4.6675      2.00000
      9       4.8608      2.00000
     10       6.5459      0.00000
     11       6.7203      0.00000
     12       8.3686      0.00000
     13       9.1257      0.00000
     14      11.6158      0.00000

 k-point     5 :       0.4444    0.0000    0.0000
  band No.  band energies     occupation 
      1      -6.9045      2.00000
      2      -5.2340      2.00000
      3      -4.4050      2.00000
      4       0.8949      2.00000
      5       1.3549      2.00000
      6       2.1191      2.00000
      7       2.5025      2.00000
      8       4.6101      2.00000
      9       4.8429      2.00000
     10       6.5486      0.00000
     11       6.6569      0.00000
     12       8.7925      0.00000
     13       9.1624      0.00000
     14      12.6807      0.00000

 k-point     6 :       0.1111    0.1111    0.0000
  band No.  band energies     occupation 
      1      -7.5942      2.00000
      2      -4.6888      2.00000
      3      -4.5651      2.00000
      4       1.5533      2.00000
      5       1.8858      2.00000
      6       2.8318      2.00000
      7       4.1368      2.00000
      8       4.8458      2.00000
      9       4.9031      2.00000
     10       6.4494      0.00000
     11       6.7540      0.00000
     12       7.2611      0.00000
     13      10.2204      0.00000
     14      10.3220      0.00000

 k-point     7 :       0.2222    0.1111    0.0000
  band No.  band energies     occupation 
      1      -7.3156      2.00000
      2      -4.8359      2.00000
      3      -4.5317      2.00000
      4       1.0921      2.00000
      5       1.4658      2.00000
      6       2.5642      2.00000
      7       3.8681      2.00000
      8       4.2117      2.00000
      9       4.6079      2.00000
     10       6.8800      0.00000
     11       7.1751      0.00000
     12       7.7549      0.00000
     13       9.6701      0.00000
     14      10.6048      0.00000

 k-point     8 :       0.3333    0.1111    0.0000
  band No.  band energies     occupation 
      1      -6.9912      2.00000
      2      -5.0850      2.00000
      3      -4.4969      2.00000
      4       0.9429      2.00000
      5       1.3130      2.00000
      6       2.2501      2.00000
      7       2.9385      2.00000
      8       4.1562      2.00000
      9       4.3738      2.00000
     10       6.9945      0.00000
     11       7.2527      0.00000
     12       8.7390      0.00000
     13       9.2598      0.00000
     14      11.5017      0.00000

 k-point     9 :       0.4444    0.1111    0.0000
  band No.  band energies     occupation 
      1      -6.8219      2.00000
      2      -5.2360      2.00000
      3      -4.4817      2.00000
      4       0.9624      2.00000
      5       1.3098      2.00000
      6       2.2765      2.00000
      7       2.3284      2.00000
      8       4.1589      2.00000
      9       4.2781      2.00000
     10       7.0017      0.00000
     11       7.2695      0.00000
     12       9.1137      0.00000
     13       9.1921      0.00000
     14      12.4306      0.00000

 k-point    10 :       0.2222    0.2222    0.0000
  band No.  band energies     occupation 
      1      -7.0275      2.00000
      2      -4.9512      2.00000
      3      -4.6121      2.00000
      4       1.0577      2.00000
      5       1.1674      2.00000
      6       2.5301      2.00000
      7       3.3898      2.00000
      8       3.7077      2.00000
      9       3.7772      2.00000
     10       7.6046      0.00000
     11       7.8908      0.00000
     12       8.1048      0.00000
     13      10.0181      0.00000
     14      10.4193      0.00000

 k-point    11 :       0.3333    0.2222    0.0000
  band No.  band energies     occupation 
      1      -6.7828      2.00000
      2      -5.0848      2.00000
      3      -4.6876      2.00000
      4       1.1009      2.00000
      5       1.2354      2.00000
      6       2.3960      2.00000
      7       2.7150      2.00000
      8       3.4078      2.00000
      9       3.5091      2.00000
     10       7.8313      0.00000
     11       8.1504      0.00000
     12       8.8215      0.00000
     13       9.9694      0.00000
     14      11.2731      0.00000

 k-point    12 :       0.3333    0.3333    0.0000
  band No.  band energies     occupation 
      1      -6.6912      2.00000
      2      -4.9330      2.00000
      3      -4.9330      2.00000
      4       1.2400      2.00000
      5       1.2400      2.00000
      6       2.6753      2.00000
      7       2.6753      2.00000
      8       2.8311      2.00000
      9       3.0990      2.00000
     10       8.4515      0.00000
     11       8.4515      0.00000
     12       8.7752      0.00000
     13      10.5509      0.00000
     14      11.5607      0.00000

 k-point    13 :       0.0000    0.0000    0.2500
  band No.  band energies     occupation 
      1      -7.6064      2.00000
      2      -5.9268      2.00000
      3      -3.2698      2.00000
      4       2.1927      2.00000
      5       2.7957      2.00000
      6       3.2083      2.00000
      7       4.2278      2.00000
      8       4.2385      2.00000
      9       4.8748      2.00000
     10       6.3616      0.00000
     11       6.3959      0.00000
     12       6.8009      0.00000
     13      10.1091      0.00000
     14      11.1953      0.00000

 k-point    14 :       0.1111    0.0000    0.2500
  band No.  band energies     occupation 
      1      -7.5305      2.00000
      2      -5.8787      2.00000
      3      -3.3680      2.00000
      4       1.9448      2.00000
      5       2.6239      2.00000
      6       3.0656      2.00000
      7       3.9763      2.00000
      8       4.3465      2.00000
      9       4.5394      2.00000
     10       6.6263      0.00000
     11       6.7304      0.00000
     12       7.1384      0.00000
     13      10.1974      0.00000
     14      11.1599      0.00000

 k-point    15 :       0.2222    0.0000    0.2500
  band No.  band energies     occupation 
      1      -7.3181      2.00000
      2      -5.7417      2.00000
      3      -3.6745      2.00000
      4       1.6022      2.00000
      5       2.2225      2.00000
      6       2.8120      2.00000
      7       3.3358      2.00000
      8       3.9271      2.00000
      9       4.4541      2.00000
     10       6.9411      0.00000
     11       7.4976      0.00000
     12       7.9022      0.00000
     13      10.4647      0.00000
     14      10.8890      0.00000

 k-point    16 :       0.3333   -0.0000    0.2500
  band No.  band energies     occupation 
      1      -7.0194      2.00000
      2      -5.5734      2.00000
      3      -4.0937      2.00000
      4       1.2881      2.00000
      5       1.6751      2.00000
      6       2.5020      2.00000
      7       2.9028      2.00000
      8       3.9087      2.00000
      9       4.3524      2.00000
     10       6.9941      0.00000
     11       7.6578      0.00000
     12       8.7039      0.00000
     13      10.0592      0.00000
     14      11.3211      0.00000

 k-point    17 :       0.4444    0.0000    0.2500
  band No.  band energies     occupation 
      1      -6.7509      2.00000
      2      -5.5358      2.00000
      3      -4.3296      2.00000
      4       0.7641      2.00000
      5       1.3634      2.00000
      6       2.2286      2.00000
      7       3.3040      2.00000
      8       3.9336      2.00000
      9       4.2743      2.00000
     10       6.9040      0.00000
     11       7.6179      0.00000
     12       8.5584      0.00000
     13       9.6365      0.00000
     14      11.7050      0.00000

 k-point    18 :      -0.4444   -0.0000    0.2500
  band No.  band energies     occupation 
      1      -6.7251      2.00000
      2      -5.6466      2.00000
      3      -4.1831      2.00000
      4       0.4646      2.00000
      5       1.2727      2.00000
      6       2.1938      2.00000
      7       3.9518      2.00000
      8       4.0488      2.00000
      9       4.3919      2.00000
     10       6.7869      0.00000
     11       7.4352      0.00000
     12       7.8510      0.00000
     13       9.3585      0.00000
     14      12.1988      0.00000

 k-point    19 :      -0.3333    0.0000    0.2500
  band No.  band energies     occupation 
      1      -6.9914      2.00000
      2      -5.7100      2.00000
      3      -3.8675      2.00000
      4       0.6581      2.00000
      5       1.3673      2.00000
      6       2.3405      2.00000
      7       4.2347      2.00000
      8       4.2730      2.00000
      9       5.1036      2.00000
     10       6.4844      0.00000
     11       7.0803      0.00000
     12       7.2534      0.00000
     13       9.2676      0.00000
     14      12.2322      0.00000

 k-point    20 :      -0.2222   -0.0000    0.2500
  band No.  band energies     occupation 
      1      -7.3083      2.00000
      2      -5.7922      2.00000
      3      -3.5629      2.00000
      4       1.3253      2.00000
      5       1.6562      2.00000
      6       2.6240      2.00000
      7       4.4281      2.00000
      8       4.5674      2.00000
      9       5.1933      2.00000
     10       6.2918      0.00000
     11       6.7481      0.00000
     12       7.0203      0.00000
     13       9.4609      0.00000
     14      11.7289      0.00000

 k-point    21 :      -0.1111   -0.0000    0.2500
  band No.  band energies     occupation 
      1      -7.5292      2.00000
      2      -5.8853      2.00000
      3      -3.3502      2.00000
      4       1.9617      2.00000
      5       2.3357      2.00000
      6       2.9759      2.00000
      7       4.4075      2.00000
      8       4.4970      2.00000
      9       4.8117      2.00000
     10       6.3427      0.00000
     11       6.3640      0.00000
     12       7.1315      0.00000
     13       9.9219      0.00000
     14      11.2028      0.00000

 k-point    22 :       0.1111    0.1111    0.2500
  band No.  band energies     occupation 
      1      -7.3830      2.00000
      2      -5.8018      2.00000
      3      -3.5345      2.00000
      4       1.6334      2.00000
      5       1.9679      2.00000
      6       2.8365      2.00000
      7       3.8385      2.00000
      8       4.4081      2.00000
      9       4.8052      2.00000
     10       6.5594      0.00000
     11       7.1023      0.00000
     12       7.3156      0.00000
     13       9.9522      0.00000
     14      11.1835      0.00000

 k-point    23 :       0.2222    0.1111    0.2500
  band No.  band energies     occupation 
      1      -7.1232      2.00000
      2      -5.6506      2.00000
      3      -3.9040      2.00000
      4       1.2964      2.00000
      5       1.6926      2.00000
      6       2.6619      2.00000
      7       2.9515      2.00000
      8       4.0143      2.00000
      9       4.9194      2.00000
     10       6.7164      0.00000
     11       7.4516      0.00000
     12       8.3368      0.00000
     13      10.2810      0.00000
     14      10.7610      0.00000

 k-point    24 :       0.3333    0.1111    0.2500
  band No.  band energies     occupation 
      1      -6.8275      2.00000
      2      -5.5268      2.00000
      3      -4.2732      2.00000
      4       1.0069      2.00000
      5       1.2690      2.00000
      6       2.3383      2.00000
      7       2.9751      2.00000
      8       3.6961      2.00000
      9       4.9400      2.00000
     10       6.6538      0.00000
     11       7.7664      0.00000
     12       8.7018      0.00000
     13       9.9344      0.00000
     14      11.4109      0.00000

 k-point    25 :       0.4444    0.1111    0.2500
  band No.  band energies     occupation 
      1      -6.6610      2.00000
      2      -5.5721      2.00000
      3      -4.3347      2.00000
      4       0.6004      2.00000
      5       1.1502      2.00000
      6       2.2327      2.00000
      7       3.1975      2.00000
      8       3.8424      2.00000
      9       4.9470      2.00000
     10       6.5820      0.00000
     11       7.8252      0.00000
     12       8.2229      0.00000
     13       9.6940      0.00000
     14      12.0577      0.00000

 k-point    26 :      -0.4444    0.1111    0.2500
  band No.  band energies     occupation 
      1      -6.8012      2.00000
      2      -5.6477      2.00000
      3      -4.1033      2.00000
      4       0.5302      2.00000
      5       1.2773      2.00000
      6       2.2692      2.00000
      7       3.2511      2.00000
      8       4.5463      2.00000
      9       5.0216      2.00000
     10       6.4723      0.00000
     11       7.3381      0.00000
     12       7.8585      0.00000
     13       9.5902      0.00000
     14      12.0104      0.00000

 k-point    27 :      -0.3333    0.1111    0.2500
  band No.  band energies     occupation 
      1      -7.1117      2.00000
      2      -5.7080      2.00000
      3      -3.7985      2.00000
      4       0.9603      2.00000
      5       1.5211      2.00000
      6       2.4887      2.00000
      7       3.4593      2.00000
      8       4.7233      2.00000
      9       5.3383      2.00000
     10       6.2441      0.00000
     11       6.9712      0.00000
     12       7.6713      0.00000
     13       9.6381      0.00000
     14      11.3989      0.00000

 k-point    28 :       0.2222    0.2222    0.2500
  band No.  band energies     occupation 
      1      -6.8461      2.00000
      2      -5.5848      2.00000
      3      -4.1581      2.00000
      4       0.7695      2.00000
      5       1.3713      2.00000
      6       2.2630      2.00000
      7       2.8085      2.00000
      8       4.3308      2.00000
      9       5.2039      2.00000
     10       6.5546      0.00000
     11       7.3815      0.00000
     12       8.4450      0.00000
     13      10.2436      0.00000
     14      10.8171      0.00000

 k-point    29 :       0.3333    0.2222    0.2500
  band No.  band energies     occupation 
      1      -6.6231      2.00000
      2      -5.5191      2.00000
      3      -4.4145      2.00000
      4       0.7387      2.00000
      5       1.0310      2.00000
      6       1.9344      2.00000
      7       3.0182      2.00000
      8       3.9677      2.00000
      9       5.0081      2.00000
     10       6.8017      0.00000
     11       7.9003      0.00000
     12       8.4427      0.00000
     13      10.2878      0.00000
     14      11.3608      0.00000

 k-point    30 :       0.4444    0.2222    0.2500
  band No.  band energies     occupation 
      1      -6.6155      2.00000
      2      -5.5522      2.00000
      3      -4.3747      2.00000
      4       0.6003      2.00000
      5       1.0996      2.00000
      6       1.9496      2.00000
      7       2.9755      2.00000
      8       4.2481      2.00000
      9       4.8834      2.00000
     10       6.9173      0.00000
     11       7.6811      0.00000
     12       8.3228      0.00000
     13      10.2158      0.00000
     14      11.5814      0.00000

 k-point    31 :       0.3333    0.3333    0.2500
  band No.  band energies     occupation 
      1      -6.5324      2.00000
      2      -5.5102      2.00000
      3      -4.4897      2.00000
      4       0.6879      2.00000
      5       1.0046      2.00000
      6       1.6192      2.00000
      7       3.1698      2.00000
      8       4.1638      2.00000
      9       4.6124      2.00000
     10       7.3567      0.00000
     11       8.0005      0.00000
     12       8.0849      0.00000
     13      11.0071      0.00000
     14      11.2926      0.00000

 k-point    32 :       0.0000    0.0000    0.5000
  band No.  band energies     occupation 
      1      -6.9588      2.00000
      2      -6.9588      2.00000
      3      -2.5852      2.00000
      4       1.7134      2.00000
      5       3.0680      2.00000
      6       3.0680      2.00000
      7       4.3716      2.00000
      8       4.6511      2.00000
      9       4.6511      2.00000
     10       6.1895      0.00000
     11       6.2346      0.00000
     12       6.2346      0.00000
     13       9.7379      0.00000
     14      11.0110      0.00000

 k-point    33 :       0.1111    0.0000    0.5000
  band No.  band energies     occupation 
      1      -6.9000      2.00000
      2      -6.8840      2.00000
      3      -2.7512      2.00000
      4       1.6720      2.00000
      5       2.8803      2.00000
      6       2.9665      2.00000
      7       3.9311      2.00000
      8       4.2718      2.00000
      9       4.5129      2.00000
     10       6.4192      0.00000
     11       6.6211      0.00000
     12       7.0153      0.00000
     13       9.9641      0.00000
     14      10.7044      0.00000

 k-point    34 :       0.2222    0.0000    0.5000
  band No.  band energies     occupation 
      1      -6.7419      2.00000
      2      -6.6700      2.00000
      3      -3.1829      2.00000
      4       1.3708      2.00000
      5       2.3053      2.00000
      6       2.6750      2.00000
      7       3.7350      2.00000
      8       3.8896      2.00000
      9       4.3488      2.00000
     10       6.8311      0.00000
     11       7.3227      0.00000
     12       7.7699      0.00000
     13      10.1942      0.00000
     14      10.8561      0.00000

 k-point    35 :       0.3333   -0.0000    0.5000
  band No.  band energies     occupation 
      1      -6.5429      2.00000
      2      -6.3592      2.00000
      3      -3.7225      2.00000
      4       0.6919      2.00000
      5       2.0457      2.00000
      6       2.3637      2.00000
      7       3.5051      2.00000
      8       3.7632      2.00000
      9       4.6444      2.00000
     10       7.0418      0.00000
     11       7.6212      0.00000
     12       7.8957      0.00000
     13      10.2036      0.00000
     14      11.1668      0.00000

 k-point    36 :       0.4444    0.0000    0.5000
  band No.  band energies     occupation 
      1      -6.3988      2.00000
      2      -6.0779      2.00000
      3      -4.1442      2.00000
      4       0.2061      2.00000
      5       2.0148      2.00000
      6       2.1378      2.00000
      7       3.3464      2.00000
      8       3.6714      2.00000
      9       5.2611      2.00000
     10       6.5722      0.00000
     11       7.5352      0.00000
     12       8.1471      0.00000
     13      10.2306      0.00000
     14      11.0090      0.00000

 k-point    37 :       0.1111    0.1111    0.5000
  band No.  band energies     occupation 
      1      -6.7878      2.00000
      2      -6.7429      2.00000
      3      -3.0476      2.00000
      4       1.5210      2.00000
      5       2.5243      2.00000
      6       2.5903      2.00000
      7       3.7042      2.00000
      8       3.8884      2.00000
      9       4.7363      2.00000
     10       6.3471      0.00000
     11       7.4169      0.00000
     12       7.5889      0.00000
     13      10.3725      0.00000
     14      10.4464      0.00000

 k-point    38 :       0.2222    0.1111    0.5000
  band No.  band energies     occupation 
      1      -6.5984      2.00000
      2      -6.4872      2.00000
      3      -3.5239      2.00000
      4       1.0518      2.00000
      5       1.9410      2.00000
      6       2.1415      2.00000
      7       3.7034      2.00000
      8       4.0497      2.00000
      9       4.7397      2.00000
     10       6.6484      0.00000
     11       7.7043      0.00000
     12       7.8699      0.00000
     13      10.2661      0.00000
     14      11.0558      0.00000

 k-point    39 :       0.3333    0.1111    0.5000
  band No.  band energies     occupation 
      1      -6.4127      2.00000
      2      -6.1875      2.00000
      3      -4.0021      2.00000
      4       0.4538      2.00000
      5       1.6761      2.00000
      6       1.8239      2.00000
      7       3.7873      2.00000
      8       4.1354      2.00000
      9       5.0169      2.00000
     10       6.7924      0.00000
     11       7.3897      0.00000
     12       7.9381      0.00000
     13      10.2952      0.00000
     14      11.2505      0.00000

 k-point    40 :       0.4444    0.1111    0.5000
  band No.  band energies     occupation 
      1      -6.3333      2.00000
      2      -6.0304      2.00000
      3      -4.2265      2.00000
      4       0.2054      2.00000
      5       1.6328      2.00000
      6       1.6793      2.00000
      7       3.9118      2.00000
      8       3.9903      2.00000
      9       5.4729      2.00000
     10       6.3909      0.00000
     11       7.3842      0.00000
     12       7.9539      0.00000
     13      10.3681      0.00000
     14      11.0550      0.00000

 k-point    41 :       0.2222    0.2222    0.5000
  band No.  band energies     occupation 
      1      -6.3969      2.00000
      2      -6.2559      2.00000
      3      -3.9296      2.00000
      4       0.7420      2.00000
      5       1.2913      2.00000
      6       1.5883      2.00000
      7       4.0968      2.00000
      8       4.4523      2.00000
      9       5.1446      2.00000
     10       6.4941      0.00000
     11       7.5784      0.00000
     12       7.6376      0.00000
     13      10.5247      0.00000
     14      11.3731      0.00000

 k-point    42 :       0.3333    0.2222    0.5000
  band No.  band energies     occupation 
      1      -6.2408      2.00000
      2      -6.0725      2.00000
      3      -4.2269      2.00000
      4       0.4460      2.00000
      5       1.0501      2.00000
      6       1.2101      2.00000
      7       4.4080      2.00000
      8       4.8334      2.00000
      9       5.4392      2.00000
     10       6.3626      0.00000
     11       7.1336      0.00000
     12       7.4527      0.00000
     13      10.8593      0.00000
     14      11.5675      0.00000

 k-point    43 :       0.3333    0.3333    0.5000
  band No.  band energies     occupation 
      1      -6.0977      2.00000
      2      -6.0976      2.00000
      3      -4.3090      2.00000
      4       0.6039      2.00000
      5       0.8105      2.00000
      6       0.8105      2.00000
      7       4.6521      2.00000
      8       5.6346      1.96934
      9       5.6346      1.96934
     10       5.7772      0.06132
     11       7.0511      0.00000
     12       7.0511      0.00000
     13      11.5516      0.00000
     14      12.1742      0.00000


--------------------------------------------------------------------------------------------------------


 soft charge-density along one line, spin component           1
         0         1         2         3         4         5         6         7         8         9
 total charge-density along one line
 
 pseudopotential strength for first ion, spin component:           1
 51.755  56.311  -0.000  -0.000  -0.053  -0.000  -0.000  -0.077
 56.311  61.271  -0.000  -0.000  -0.058  -0.000  -0.000  -0.084
 -0.000  -0.000  12.737   0.010   0.000  18.360   0.014   0.000
 -0.000  -0.000   0.010  12.754   0.000   0.014  18.384   0.000
 -0.053  -0.058   0.000   0.000  12.754   0.000   0.000  18.383
 -0.000  -0.000  18.360   0.014   0.000  26.474   0.021   0.000
 -0.000  -0.000   0.014  18.384   0.000   0.021  26.510   0.000
 -0.077  -0.084   0.000   0.000  18.383   0.000   0.000  26.508
  0.000   0.000  -0.010   0.000  -0.000  -0.015   0.000  -0.000
  0.015   0.017   0.000  -0.000   0.000   0.000  -0.000   0.000
  0.008   0.009   0.000  -0.000   0.006   0.000  -0.000   0.009
  0.000   0.000   0.000  -0.010  -0.000   0.000  -0.014  -0.000
  0.013   0.014   0.000  -0.000  -0.010   0.000  -0.000  -0.015
 total augmentation occupancy for first ion, spin component:           1
 12.984  -9.480   0.000   0.000   2.309   0.000   0.000  -0.617   0.000  -0.170  -0.106   0.000  -0.119
 -9.480   8.186   0.000  -0.000  -1.940   0.000   0.000   0.529   0.000   0.155   0.096   0.000   0.107
  0.000   0.000   2.531   0.249   0.000  -0.477  -0.210   0.000  -0.058   0.000   0.000  -0.052   0.000
  0.000  -0.000   0.249   2.936   0.000  -0.210  -0.825   0.000  -0.050   0.000   0.000  -0.131   0.000
  2.309  -1.940   0.000   0.000   2.795   0.000   0.000  -0.742   0.000  -0.058  -0.018   0.000  -0.058
  0.000   0.000  -0.477  -0.210   0.000   0.171   0.080   0.000   0.014   0.000   0.000   0.019   0.000
  0.000   0.000  -0.210  -0.825   0.000   0.080   0.299   0.000   0.019   0.000   0.000   0.040   0.000
 -0.617   0.529   0.000   0.000  -0.742   0.000   0.000   0.259   0.000   0.017   0.004   0.000   0.015
  0.000   0.000  -0.058  -0.050   0.000   0.014   0.019   0.000   0.009   0.000   0.000   0.010   0.000
 -0.170   0.155   0.000   0.000  -0.058   0.000   0.000   0.017   0.000   0.014   0.004   0.000   0.003
 -0.106   0.096   0.000   0.000  -0.018   0.000   0.000   0.004   0.000   0.004   0.008   0.000  -0.001
  0.000   0.000  -0.052  -0.131   0.000   0.019   0.040   0.000   0.010   0.000  -0.000   0.026   0.000
 -0.119   0.107   0.000   0.000  -0.058   0.000   0.000   0.015   0.000   0.003  -0.001   0.000   0.010


------------------------ aborting loop because EDIFF is reached ----------------------------------------


    CHARGE:  cpu time    0.0244: real time    0.0244
    FORLOC:  cpu time    0.0009: real time    0.0009
    FORNL :  cpu time    0.0950: real time    0.0953
    STRESS:  cpu time    0.2121: real time    0.2128
    FORCOR:  cpu time    0.0172: real time    0.0172
    FORHAR:  cpu time    0.0038: real time    0.0038
    MIXING:  cpu time    0.0007: real time    0.0007
    OFIELD:  cpu time    0.0000: real time    0.0000

  Hirshfeld charges:
            ion         q(e)     
   ------------------------------
      1     Te         -0.000
      2     Te          0.000
      3     Te          0.000

  Tkatchenko/Scheffler method for vdW energy calculation
  ---------------------------------------------------------------------------------------------

  Parameters of vdW forcefield:
            C6ts              R0ts           ALPHAts        RELVOL
            (au)              (au)            (au)                
   ---------------------------------------------------------------
   Te        395.321          4.213         37.618          0.999
   Te        395.321          4.213         37.618          0.999
   Te        395.321          4.213         37.618          0.999

  Number of pair interactions contributing to vdW energy:   30153
  Edisp (eV):   -0.67995
    FORVDW:  cpu time    0.1401: real time    0.1405

  FORCE on cell =-STRESS in cart. coord.  units (eV):
  Direction    XX          YY          ZZ          XY          YZ          ZX
  --------------------------------------------------------------------------------------
  Alpha Z     2.24364     2.24364     2.24364
  Ewald    -237.31308  -237.31307  -194.23289    -0.00000    -0.00001     0.00000
  Hartree    11.44742    11.44742    22.53987     0.00000     0.00000    -0.00000
  E(xc)     -70.35989   -70.35989   -69.86485    -0.00000     0.00000    -0.00000
  Local    -112.70889  -112.70894  -157.01135    -0.00004     0.00000    -0.00000
  n-local   332.17214   332.95965   328.25350    -1.23507    -0.73389    -1.26223
  augment   -81.10798   -81.10794   -78.72108     0.00004    -0.00000     0.00000
  Kinetic   152.53106   158.92065   147.26651    -7.21504     0.13825     1.42556
  Fock        0.00000     0.00000     0.00000     0.00000     0.00000     0.00000
  vdW        -0.74859    -0.74859    -0.83543     0.00000    -0.00000    -0.00000
  -------------------------------------------------------------------------------------
  Total      -0.25562    -0.25562    -0.36208     0.00000     0.00000    -0.00000
  in kB      -3.93097    -3.93097    -5.56821     0.00000     0.00000    -0.00000
  external pressure =       -4.48 kB  Pullay stress =        0.00 kB


 VOLUME and BASIS-vectors are now :
 -----------------------------------------------------------------------------
  energy-cutoff  :      520.00
  volume of cell :      104.18
      direct lattice vectors                 reciprocal lattice vectors
     4.484086385  0.000000000  0.000000000     0.223010869  0.128755385  0.000000000
    -2.242043193  3.883332723  0.000000000     0.000000000  0.257510770  0.000000000
     0.000000000 -0.000000000  5.983074763     0.000000000  0.000000000  0.167138142

  length of vectors
     4.484086385  4.484086385  5.983074763     0.257510770  0.257510770  0.167138142


 FORCES acting on ions
    electron-ion (+dipol)            ewald-force                    non-local-force                 convergence-correction
 -----------------------------------------------------------------------------------------------
   -.127E+02 0.120E-04 -.120E-05   0.181E+02 0.149E-05 0.176E-05   -.525E+01 -.555E-16 0.555E-16   0.180E-03 0.291E-08 -.676E-10
   0.636E+01 -.110E+02 -.183E-04   -.907E+01 0.157E+02 -.853E-05   0.262E+01 -.455E+01 -.555E-16   -.900E-04 0.156E-03 0.920E-09
   0.636E+01 0.110E+02 0.192E-04   -.907E+01 -.157E+02 0.676E-05   0.262E+01 0.455E+01 0.000E+00   -.900E-04 -.156E-03 -.861E-09
 -----------------------------------------------------------------------------------------------
   0.257E-04 -.740E-05 -.328E-06   -.178E-14 0.000E+00 0.000E+00   -.444E-15 -.888E-15 0.000E+00   -.421E-09 -.551E-09 -.871E-11
 
 
 POSITION                                       TOTAL-FORCE (eV/Angst)
 -----------------------------------------------------------------------------------
      1.18654     -0.00000      1.99436         0.137100     -0.000000      0.000000
     -0.59327      1.02757      3.98872        -0.068550      0.118732     -0.000000
      1.64878      2.85576     -0.00000        -0.068550     -0.118732     -0.000000
 -----------------------------------------------------------------------------------
    total drift:                                0.000026     -0.000007     -0.000000


--------------------------------------------------------------------------------------------------------



  FREE ENERGIE OF THE ION-ELECTRON SYSTEM (eV)
  ---------------------------------------------------
  free  energy   TOTEN  =       -10.09914337 eV

  energy  without entropy=      -10.09907944  energy(sigma->0) =      -10.09911141
 
 d Force =-0.1459305E-02[-0.207E-02,-0.852E-03]  d Energy = 0.2382604E-02-0.384E-02
 d Force =-0.2694334E+00[-0.273E+00,-0.266E+00]  d Ewald  = 0.1615618E+01-0.189E+01


--------------------------------------------------------------------------------------------------------


    POTLOK:  cpu time    0.0189: real time    0.0190


--------------------------------------------------------------------------------------------------------




--------------------------------------------------------------------------------------------------------


    WAVPRE:  cpu time    0.0036: real time    0.0066
    FEWALD:  cpu time    0.0002: real time    0.0002
    GENKIN:  cpu time    0.0059: real time    0.0059
    ORTHCH:  cpu time    0.0185: real time    0.0186
     LOOP+:  cpu time    2.3649: real time    2.3812


--------------------------------------- Iteration      4(   1)  ---------------------------------------


    POTLOK:  cpu time    0.0172: real time    0.0183
    SETDIJ:  cpu time    0.0022: real time    0.0022
     EDDAV:  cpu time    0.3111: real time    0.3121
       DOS:  cpu time    0.0005: real time    0.0005
    CHARGE:  cpu time    0.0241: real time    0.0242
    MIXING:  cpu time    0.0005: real time    0.0005
    --------------------------------------------
      LOOP:  cpu time    0.3556: real time    0.3578

 eigenvalue-minimisations  :  1210
 total energy-change (2. order) : 0.7792966E-03  (-0.1504182E-03)
 number of electron      17.9999991 magnetization 
 augmentation part       -3.6068869 magnetization 

 Broyden mixing:
  rms(total) = 0.50354E-02    rms(broyden)= 0.50353E-02
  rms(prec ) = 0.65914E-02
  weight for this iteration     100.00

 Free energy of the ion-electron system (eV)
  ---------------------------------------------------
  alpha Z        PSCENC =         2.24596225
  Ewald energy   TEWEN  =      -669.05084941
  -Hartree energ DENC   =       -45.47406155
  -exchange      EXHF   =         0.00000000
  -V(xc)+E(xc)   XCENC  =       -84.05991117
  PAW double counting   =      1505.31997795    -1389.96089487
  entropy T*S    EENTRO =        -0.00006344
  eigenvalues    EBANDS =         1.74712302
  atomic energy  EATOM  =       669.81430600
  Solvation  Ediel_sol  =         0.00000000
  ---------------------------------------------------
  free energy    TOTEN  =        -9.41841121 eV

  energy without entropy =       -9.41834776  energy(sigma->0) =       -9.41837949


--------------------------------------------------------------------------------------------------------




--------------------------------------- Iteration      4(   2)  ---------------------------------------


    POTLOK:  cpu time    0.0167: real time    0.0168
    SETDIJ:  cpu time    0.0022: real time    0.0022
     EDDAV:  cpu time    0.3317: real time    0.3327
       DOS:  cpu time    0.0005: real time    0.0005
    CHARGE:  cpu time    0.0244: real time    0.0245
    MIXING:  cpu time    0.0007: real time    0.0007
    --------------------------------------------
      LOOP:  cpu time    0.3763: real time    0.3775

 eigenvalue-minimisations  :  1312
 total energy-change (2. order) : 0.2172032E-04  (-0.6198467E-05)
 number of electron      17.9999991 magnetization 
 augmentation part       -3.6069231 magnetization 

 Broyden mixing:
  rms(total) = 0.20498E-02    rms(broyden)= 0.20498E-02
  rms(prec ) = 0.32164E-02
  weight for this iteration     100.00

 eigenvalues of (default mixing * dielectric matrix)
  average eigenvalue GAMMA=   0.9782
  0.9782

 Free energy of the ion-electron system (eV)
  ---------------------------------------------------
  alpha Z        PSCENC =         2.24596225
  Ewald energy   TEWEN  =      -669.05084941
  -Hartree energ DENC   =       -45.44197752
  -exchange      EXHF   =         0.00000000
  -V(xc)+E(xc)   XCENC  =       -84.05903745
  PAW double counting   =      1507.38190196    -1392.02268513
  entropy T*S    EENTRO =        -0.00006348
  eigenvalues    EBANDS =         1.71405328
  atomic energy  EATOM  =       669.81430600
  Solvation  Ediel_sol  =         0.00000000
  ---------------------------------------------------
  free energy    TOTEN  =        -9.41838949 eV

  energy without entropy =       -9.41832601  energy(sigma->0) =       -9.41835775


--------------------------------------------------------------------------------------------------------




--------------------------------------- Iteration      4(   3)  ---------------------------------------


    POTLOK:  cpu time    0.0167: real time    0.0168
    SETDIJ:  cpu time    0.0023: real time    0.0023
     EDDAV:  cpu time    0.2116: real time    0.2124
       DOS:  cpu time    0.0006: real time    0.0006
    --------------------------------------------
      LOOP:  cpu time    0.2312: real time    0.2321

 eigenvalue-minimisations  :   602
 total energy-change (2. order) : 0.9281641E-05  (-0.9319642E-06)
 number of electron      17.9999991 magnetization 
 augmentation part       -3.6069231 magnetization 

 Free energy of the ion-electron system (eV)
  ---------------------------------------------------
  alpha Z        PSCENC =         2.24596225
  Ewald energy   TEWEN  =      -669.05084941
  -Hartree energ DENC   =       -45.42113820
  -exchange      EXHF   =         0.00000000
  -V(xc)+E(xc)   XCENC  =       -84.05806295
  PAW double counting   =      1507.99981772    -1392.64082074
  entropy T*S    EENTRO =        -0.00006328
  eigenvalues    EBANDS =         1.69246839
  atomic energy  EATOM  =       669.81430600
  Solvation  Ediel_sol  =         0.00000000
  ---------------------------------------------------
  free energy    TOTEN  =        -9.41838021 eV

  energy without entropy =       -9.41831692  energy(sigma->0) =       -9.41834857


--------------------------------------------------------------------------------------------------------




 average (electrostatic) potential at core
  the test charge radii are     1.1897
  (the norm of the test charge is              1.0000)
       1 -89.2600       2 -89.2600       3 -89.2600
 
 
 
 E-fermi :   5.7258     XC(G=0):  -8.9681     alpha+bet :-10.3325


 k-point     1 :       0.0000    0.0000    0.0000
  band No.  band energies     occupation 
      1      -7.8213      2.00000
      2      -4.6006      2.00000
      3      -4.6006      2.00000
      4       2.6777      2.00000
      5       2.9221      2.00000
      6       2.9221      2.00000
      7       4.0705      2.00000
      8       4.0705      2.00000
      9       4.9419      2.00000
     10       6.6650      0.00000
     11       6.6650      0.00000
     12       7.3094      0.00000
     13      10.6509      0.00000
     14      10.6509      0.00000

 k-point     2 :       0.1111    0.0000    0.0000
  band No.  band energies     occupation 
      1      -7.7420      2.00000
      2      -4.6251      2.00000
      3      -4.5787      2.00000
      4       2.0690      2.00000
      5       2.5316      2.00000
      6       2.8013      2.00000
      7       4.2924      2.00000
      8       4.5933      2.00000
      9       5.0501      2.00000
     10       6.4335      0.00000
     11       6.6178      0.00000
     12       7.2135      0.00000
     13      10.4468      0.00000
     14      10.6215      0.00000

 k-point     3 :       0.2222    0.0000    0.0000
  band No.  band energies     occupation 
      1      -7.5161      2.00000
      2      -4.7323      2.00000
      3      -4.5192      2.00000
      4       1.3156      2.00000
      5       1.9875      2.00000
      6       2.4753      2.00000
      7       4.3647      2.00000
      8       4.6736      2.00000
      9       4.8733      2.00000
     10       6.5551      0.00000
     11       6.7338      0.00000
     12       7.3787      0.00000
     13       9.7546      0.00000
     14      10.8603      0.00000

 k-point     4 :       0.3333   -0.0000    0.0000
  band No.  band energies     occupation 
      1      -7.1907      2.00000
      2      -4.9645      2.00000
      3      -4.4446      2.00000
      4       0.9425      2.00000
      5       1.5596      2.00000
      6       2.1961      2.00000
      7       3.3703      2.00000
      8       4.6778      2.00000
      9       4.8728      2.00000
     10       6.5626      0.00000
     11       6.7371      0.00000
     12       8.3886      0.00000
     13       9.1364      0.00000
     14      11.6264      0.00000

 k-point     5 :       0.4444    0.0000    0.0000
  band No.  band energies     occupation 
      1      -6.8991      2.00000
      2      -5.2226      2.00000
      3      -4.3920      2.00000
      4       0.9009      2.00000
      5       1.3628      2.00000
      6       2.1285      2.00000
      7       2.5125      2.00000
      8       4.6197      2.00000
      9       4.8546      2.00000
     10       6.5652      0.00000
     11       6.6741      0.00000
     12       8.8031      0.00000
     13       9.1839      0.00000
     14      12.6926      0.00000

 k-point     6 :       0.1111    0.1111    0.0000
  band No.  band energies     occupation 
      1      -7.5891      2.00000
      2      -4.6771      2.00000
      3      -4.5530      2.00000
      4       1.5606      2.00000
      5       1.8948      2.00000
      6       2.8418      2.00000
      7       4.1485      2.00000
      8       4.8570      2.00000
      9       4.9143      2.00000
     10       6.4669      0.00000
     11       6.7710      0.00000
     12       7.2777      0.00000
     13      10.2304      0.00000
     14      10.3332      0.00000

 k-point     7 :       0.2222    0.1111    0.0000
  band No.  band energies     occupation 
      1      -7.3103      2.00000
      2      -4.8243      2.00000
      3      -4.5193      2.00000
      4       1.0988      2.00000
      5       1.4739      2.00000
      6       2.5739      2.00000
      7       3.8788      2.00000
      8       4.2235      2.00000
      9       4.6189      2.00000
     10       6.8974      0.00000
     11       7.1914      0.00000
     12       7.7736      0.00000
     13       9.6810      0.00000
     14      10.6154      0.00000

 k-point     8 :       0.3333    0.1111    0.0000
  band No.  band energies     occupation 
      1      -6.9858      2.00000
      2      -5.0735      2.00000
      3      -4.4841      2.00000
      4       0.9491      2.00000
      5       1.3206      2.00000
      6       2.2597      2.00000
      7       2.9487      2.00000
      8       4.1674      2.00000
      9       4.3851      2.00000
     10       7.0106      0.00000
     11       7.2698      0.00000
     12       8.7593      0.00000
     13       9.2712      0.00000
     14      11.5128      0.00000

 k-point     9 :       0.4444    0.1111    0.0000
  band No.  band energies     occupation 
      1      -6.8165      2.00000
      2      -5.2245      2.00000
      3      -4.4689      2.00000
      4       0.9684      2.00000
      5       1.3171      2.00000
      6       2.2864      2.00000
      7       2.3384      2.00000
      8       4.1694      2.00000
      9       4.2898      2.00000
     10       7.0172      0.00000
     11       7.2871      0.00000
     12       9.1251      0.00000
     13       9.2134      0.00000
     14      12.4421      0.00000

 k-point    10 :       0.2222    0.2222    0.0000
  band No.  band energies     occupation 
      1      -7.0221      2.00000
      2      -4.9396      2.00000
      3      -4.5996      2.00000
      4       1.0641      2.00000
      5       1.1746      2.00000
      6       2.5401      2.00000
      7       3.3999      2.00000
      8       3.7194      2.00000
      9       3.7885      2.00000
     10       7.6207      0.00000
     11       7.9091      0.00000
     12       8.1239      0.00000
     13      10.0286      0.00000
     14      10.4317      0.00000

 k-point    11 :       0.3333    0.2222    0.0000
  band No.  band energies     occupation 
      1      -6.7774      2.00000
      2      -5.0731      2.00000
      3      -4.6751      2.00000
      4       1.1070      2.00000
      5       1.2420      2.00000
      6       2.4062      2.00000
      7       2.7251      2.00000
      8       3.4190      2.00000
      9       3.5204      2.00000
     10       7.8475      0.00000
     11       8.1692      0.00000
     12       8.8415      0.00000
     13       9.9812      0.00000
     14      11.2849      0.00000

 k-point    12 :       0.3333    0.3333    0.0000
  band No.  band energies     occupation 
      1      -6.6858      2.00000
      2      -4.9209      2.00000
      3      -4.9209      2.00000
      4       1.2461      2.00000
      5       1.2461      2.00000
      6       2.6854      2.00000
      7       2.6854      2.00000
      8       2.8428      2.00000
      9       3.1100      2.00000
     10       8.4697      0.00000
     11       8.4697      0.00000
     12       8.7956      0.00000
     13      10.5602      0.00000
     14      11.5741      0.00000

 k-point    13 :       0.0000    0.0000    0.2500
  band No.  band energies     occupation 
      1      -7.6011      2.00000
      2      -5.9181      2.00000
      3      -3.2539      2.00000
      4       2.2021      2.00000
      5       2.8045      2.00000
      6       3.2189      2.00000
      7       4.2386      2.00000
      8       4.2492      2.00000
      9       4.8877      2.00000
     10       6.3772      0.00000
     11       6.4107      0.00000
     12       6.8165      0.00000
     13      10.1200      0.00000
     14      11.2060      0.00000

 k-point    14 :       0.1111    0.0000    0.2500
  band No.  band energies     occupation 
      1      -7.5251      2.00000
      2      -5.8700      2.00000
      3      -3.3523      2.00000
      4       1.9531      2.00000
      5       2.6324      2.00000
      6       3.0761      2.00000
      7       3.9879      2.00000
      8       4.3569      2.00000
      9       4.5525      2.00000
     10       6.6417      0.00000
     11       6.7467      0.00000
     12       7.1539      0.00000
     13      10.2082      0.00000
     14      11.1705      0.00000

 k-point    15 :       0.2222    0.0000    0.2500
  band No.  band energies     occupation 
      1      -7.3125      2.00000
      2      -5.7328      2.00000
      3      -3.6595      2.00000
      4       1.6093      2.00000
      5       2.2306      2.00000
      6       2.8222      2.00000
      7       3.3462      2.00000
      8       3.9391      2.00000
      9       4.4676      2.00000
     10       6.9561      0.00000
     11       7.5137      0.00000
     12       7.9203      0.00000
     13      10.4757      0.00000
     14      10.8998      0.00000

 k-point    16 :       0.3333   -0.0000    0.2500
  band No.  band energies     occupation 
      1      -7.0136      2.00000
      2      -5.5642      2.00000
      3      -4.0794      2.00000
      4       1.2946      2.00000
      5       1.6826      2.00000
      6       2.5116      2.00000
      7       2.9135      2.00000
      8       3.9206      2.00000
      9       4.3656      2.00000
     10       7.0087      0.00000
     11       7.6746      0.00000
     12       8.7234      0.00000
     13      10.0717      0.00000
     14      11.3324      0.00000

 k-point    17 :       0.4444    0.0000    0.2500
  band No.  band energies     occupation 
      1      -6.7449      2.00000
      2      -5.5263      2.00000
      3      -4.3156      2.00000
      4       0.7708      2.00000
      5       1.3704      2.00000
      6       2.2378      2.00000
      7       3.3148      2.00000
      8       3.9451      2.00000
      9       4.2870      2.00000
     10       6.9180      0.00000
     11       7.6350      0.00000
     12       8.5781      0.00000
     13       9.6498      0.00000
     14      11.7164      0.00000

 k-point    18 :      -0.4444   -0.0000    0.2500
  band No.  band energies     occupation 
      1      -6.7193      2.00000
      2      -5.6369      2.00000
      3      -4.1690      2.00000
      4       0.4713      2.00000
      5       1.2796      2.00000
      6       2.2029      2.00000
      7       3.9620      2.00000
      8       4.0600      2.00000
      9       4.4050      2.00000
     10       6.8011      0.00000
     11       7.4524      0.00000
     12       7.8703      0.00000
     13       9.3716      0.00000
     14      12.2101      0.00000

 k-point    19 :      -0.3333    0.0000    0.2500
  band No.  band energies     occupation 
      1      -6.9857      2.00000
      2      -5.7006      2.00000
      3      -3.8528      2.00000
      4       0.6651      2.00000
      5       1.3744      2.00000
      6       2.3498      2.00000
      7       4.2450      2.00000
      8       4.2839      2.00000
      9       5.1167      2.00000
     10       6.5000      0.00000
     11       7.0972      0.00000
     12       7.2716      0.00000
     13       9.2794      0.00000
     14      12.2427      0.00000

 k-point    20 :      -0.2222   -0.0000    0.2500
  band No.  band energies     occupation 
      1      -7.3027      2.00000
      2      -5.7832      2.00000
      3      -3.5476      2.00000
      4       1.3329      2.00000
      5       1.6639      2.00000
      6       2.6338      2.00000
      7       4.4380      2.00000
      8       4.5785      2.00000
      9       5.2070      2.00000
     10       6.3075      0.00000
     11       6.7652      0.00000
     12       7.0372      0.00000
     13       9.4713      0.00000
     14      11.7398      0.00000

 k-point    21 :      -0.1111   -0.0000    0.2500
  band No.  band energies     occupation 
      1      -7.5238      2.00000
      2      -5.8765      2.00000
      3      -3.3344      2.00000
      4       1.9703      2.00000
      5       2.3440      2.00000
      6       2.9863      2.00000
      7       4.4200      2.00000
      8       4.5072      2.00000
      9       4.8233      2.00000
     10       6.3590      0.00000
     11       6.3800      0.00000
     12       7.1471      0.00000
     13       9.9324      0.00000
     14      11.2135      0.00000

 k-point    22 :       0.1111    0.1111    0.2500
  band No.  band energies     occupation 
      1      -7.3775      2.00000
      2      -5.7929      2.00000
      3      -3.5191      2.00000
      4       1.6409      2.00000
      5       1.9761      2.00000
      6       2.8466      2.00000
      7       3.8487      2.00000
      8       4.4199      2.00000
      9       4.8186      2.00000
     10       6.5747      0.00000
     11       7.1187      0.00000
     12       7.3324      0.00000
     13       9.9627      0.00000
     14      11.1942      0.00000

 k-point    23 :       0.2222    0.1111    0.2500
  band No.  band energies     occupation 
      1      -7.1174      2.00000
      2      -5.6414      2.00000
      3      -3.8894      2.00000
      4       1.3033      2.00000
      5       1.7002      2.00000
      6       2.6716      2.00000
      7       2.9618      2.00000
      8       4.0265      2.00000
      9       4.9328      2.00000
     10       6.7318      0.00000
     11       7.4680      0.00000
     12       8.3553      0.00000
     13      10.2916      0.00000
     14      10.7725      0.00000

 k-point    24 :       0.3333    0.1111    0.2500
  band No.  band energies     occupation 
      1      -6.8215      2.00000
      2      -5.5175      2.00000
      3      -4.2590      2.00000
      4       1.0134      2.00000
      5       1.2762      2.00000
      6       2.3474      2.00000
      7       2.9855      2.00000
      8       3.7084      2.00000
      9       4.9528      2.00000
     10       6.6696      0.00000
     11       7.7828      0.00000
     12       8.7214      0.00000
     13       9.9465      0.00000
     14      11.4224      0.00000

 k-point    25 :       0.4444    0.1111    0.2500
  band No.  band energies     occupation 
      1      -6.6551      2.00000
      2      -5.5624      2.00000
      3      -4.3207      2.00000
      4       0.6070      2.00000
      5       1.1570      2.00000
      6       2.2416      2.00000
      7       3.2077      2.00000
      8       3.8546      2.00000
      9       4.9592      2.00000
     10       6.5981      0.00000
     11       7.8413      0.00000
     12       8.2420      0.00000
     13       9.7074      0.00000
     14      12.0694      0.00000

 k-point    26 :      -0.4444    0.1111    0.2500
  band No.  band energies     occupation 
      1      -6.7954      2.00000
      2      -5.6381      2.00000
      3      -4.0889      2.00000
      4       0.5369      2.00000
      5       1.2841      2.00000
      6       2.2783      2.00000
      7       3.2613      2.00000
      8       4.5577      2.00000
      9       5.0342      2.00000
     10       6.4886      0.00000
     11       7.3563      0.00000
     12       7.8747      0.00000
     13       9.6034      0.00000
     14      12.0210      0.00000

 k-point    27 :      -0.3333    0.1111    0.2500
  band No.  band energies     occupation 
      1      -7.1060      2.00000
      2      -5.6988      2.00000
      3      -3.7836      2.00000
      4       0.9674      2.00000
      5       1.5284      2.00000
      6       2.4983      2.00000
      7       3.4694      2.00000
      8       4.7346      2.00000
      9       5.3515      2.00000
     10       6.2601      0.00000
     11       6.9885      0.00000
     12       7.6881      0.00000
     13       9.6496      0.00000
     14      11.4096      0.00000

 k-point    28 :       0.2222    0.2222    0.2500
  band No.  band energies     occupation 
      1      -6.8402      2.00000
      2      -5.5753      2.00000
      3      -4.1438      2.00000
      4       0.7761      2.00000
      5       1.3781      2.00000
      6       2.2725      2.00000
      7       2.8184      2.00000
      8       4.3431      2.00000
      9       5.2168      2.00000
     10       6.5714      0.00000
     11       7.3986      0.00000
     12       8.4629      0.00000
     13      10.2550      0.00000
     14      10.8283      0.00000

 k-point    29 :       0.3333    0.2222    0.2500
  band No.  band energies     occupation 
      1      -6.6171      2.00000
      2      -5.5094      2.00000
      3      -4.4004      2.00000
      4       0.7449      2.00000
      5       1.0378      2.00000
      6       1.9435      2.00000
      7       3.0277      2.00000
      8       3.9805      2.00000
      9       5.0211      2.00000
     10       6.8188      0.00000
     11       7.9177      0.00000
     12       8.4619      0.00000
     13      10.2985      0.00000
     14      11.3723      0.00000

 k-point    30 :       0.4444    0.2222    0.2500
  band No.  band energies     occupation 
      1      -6.6095      2.00000
      2      -5.5424      2.00000
      3      -4.3607      2.00000
      4       0.6066      2.00000
      5       1.1062      2.00000
      6       1.9587      2.00000
      7       2.9852      2.00000
      8       4.2603      2.00000
      9       4.8967      2.00000
     10       6.9340      0.00000
     11       7.6996      0.00000
     12       8.3404      0.00000
     13      10.2277      0.00000
     14      11.5921      0.00000

 k-point    31 :       0.3333    0.3333    0.2500
  band No.  band energies     occupation 
      1      -6.5265      2.00000
      2      -5.5004      2.00000
      3      -4.4757      2.00000
      4       0.6938      2.00000
      5       1.0113      2.00000
      6       1.6283      2.00000
      7       3.1787      2.00000
      8       4.1766      2.00000
      9       4.6262      2.00000
     10       7.3736      0.00000
     11       8.0194      0.00000
     12       8.1034      0.00000
     13      11.0173      0.00000
     14      11.3034      0.00000

 k-point    32 :       0.0000    0.0000    0.5000
  band No.  band energies     occupation 
      1      -6.9523      2.00000
      2      -6.9523      2.00000
      3      -2.5663      2.00000
      4       1.7206      2.00000
      5       3.0779      2.00000
      6       3.0779      2.00000
      7       4.3823      2.00000
      8       4.6619      2.00000
      9       4.6619      2.00000
     10       6.2042      0.00000
     11       6.2505      0.00000
     12       6.2505      0.00000
     13       9.7478      0.00000
     14      11.0222      0.00000

 k-point    33 :       0.1111    0.0000    0.5000
  band No.  band energies     occupation 
      1      -6.8934      2.00000
      2      -6.8774      2.00000
      3      -2.7329      2.00000
      4       1.6789      2.00000
      5       2.8897      2.00000
      6       2.9762      2.00000
      7       3.9427      2.00000
      8       4.2828      2.00000
      9       4.5245      2.00000
     10       6.4344      0.00000
     11       6.6366      0.00000
     12       7.0309      0.00000
     13       9.9741      0.00000
     14      10.7149      0.00000

 k-point    34 :       0.2222    0.0000    0.5000
  band No.  band energies     occupation 
      1      -6.7351      2.00000
      2      -6.6632      2.00000
      3      -3.1660      2.00000
      4       1.3771      2.00000
      5       2.3144      2.00000
      6       2.6841      2.00000
      7       3.7467      2.00000
      8       3.9006      2.00000
      9       4.3620      2.00000
     10       6.8460      0.00000
     11       7.3389      0.00000
     12       7.7868      0.00000
     13      10.2055      0.00000
     14      10.8662      0.00000

 k-point    35 :       0.3333   -0.0000    0.5000
  band No.  band energies     occupation 
      1      -6.5357      2.00000
      2      -6.3521      2.00000
      3      -3.7069      2.00000
      4       0.6980      2.00000
      5       2.0541      2.00000
      6       2.3724      2.00000
      7       3.5164      2.00000
      8       3.7746      2.00000
      9       4.6585      2.00000
     10       7.0563      0.00000
     11       7.6387      0.00000
     12       7.9126      0.00000
     13      10.2160      0.00000
     14      11.1783      0.00000

 k-point    36 :       0.4444    0.0000    0.5000
  band No.  band energies     occupation 
      1      -6.3914      2.00000
      2      -6.0707      2.00000
      3      -4.1294      2.00000
      4       0.2119      2.00000
      5       2.0228      2.00000
      6       2.1464      2.00000
      7       3.3575      2.00000
      8       3.6831      2.00000
      9       5.2754      2.00000
     10       6.5877      0.00000
     11       7.5514      0.00000
     12       8.1639      0.00000
     13      10.2427      0.00000
     14      11.0231      0.00000

 k-point    37 :       0.1111    0.1111    0.5000
  band No.  band energies     occupation 
      1      -6.7811      2.00000
      2      -6.7361      2.00000
      3      -3.0303      2.00000
      4       1.5274      2.00000
      5       2.5333      2.00000
      6       2.5994      2.00000
      7       3.7158      2.00000
      8       3.9009      2.00000
      9       4.7477      2.00000
     10       6.3631      0.00000
     11       7.4321      0.00000
     12       7.6056      0.00000
     13      10.3829      0.00000
     14      10.4570      0.00000

 k-point    38 :       0.2222    0.1111    0.5000
  band No.  band energies     occupation 
      1      -6.5914      2.00000
      2      -6.4801      2.00000
      3      -3.5079      2.00000
      4       1.0578      2.00000
      5       1.9495      2.00000
      6       2.1500      2.00000
      7       3.7151      2.00000
      8       4.0621      2.00000
      9       4.7524      2.00000
     10       6.6642      0.00000
     11       7.7206      0.00000
     12       7.8871      0.00000
     13      10.2770      0.00000
     14      11.0665      0.00000

 k-point    39 :       0.3333    0.1111    0.5000
  band No.  band energies     occupation 
      1      -6.4054      2.00000
      2      -6.1803      2.00000
      3      -3.9871      2.00000
      4       0.4597      2.00000
      5       1.6842      2.00000
      6       1.8319      2.00000
      7       3.7992      2.00000
      8       4.1468      2.00000
      9       5.0313      2.00000
     10       6.8075      0.00000
     11       7.4070      0.00000
     12       7.9552      0.00000
     13      10.3063      0.00000
     14      11.2631      0.00000

 k-point    40 :       0.4444    0.1111    0.5000
  band No.  band energies     occupation 
      1      -6.3259      2.00000
      2      -6.0232      2.00000
      3      -4.2117      2.00000
      4       0.2112      2.00000
      5       1.6410      2.00000
      6       1.6870      2.00000
      7       3.9239      2.00000
      8       4.0017      2.00000
      9       5.4874      2.00000
     10       6.4064      0.00000
     11       7.4008      0.00000
     12       7.9712      0.00000
     13      10.3789      0.00000
     14      11.0687      0.00000

 k-point    41 :       0.2222    0.2222    0.5000
  band No.  band energies     occupation 
      1      -6.3897      2.00000
      2      -6.2486      2.00000
      3      -3.9144      2.00000
      4       0.7477      2.00000
      5       1.2993      2.00000
      6       1.5961      2.00000
      7       4.1080      2.00000
      8       4.4661      2.00000
      9       5.1573      2.00000
     10       6.5105      0.00000
     11       7.5952      0.00000
     12       7.6551      0.00000
     13      10.5347      0.00000
     14      11.3839      0.00000

 k-point    42 :       0.3333    0.2222    0.5000
  band No.  band energies     occupation 
      1      -6.2333      2.00000
      2      -6.0652      2.00000
      3      -4.2119      2.00000
      4       0.4519      2.00000
      5       1.0575      2.00000
      6       1.2174      2.00000
      7       4.4189      2.00000
      8       4.8468      2.00000
      9       5.4539      2.00000
     10       6.3780      0.00000
     11       7.1513      0.00000
     12       7.4703      0.00000
     13      10.8696      0.00000
     14      11.5795      0.00000

 k-point    43 :       0.3333    0.3333    0.5000
  band No.  band energies     occupation 
      1      -6.0902      2.00000
      2      -6.0902      2.00000
      3      -4.2940      2.00000
      4       0.6096      2.00000
      5       0.8176      2.00000
      6       0.8176      2.00000
      7       4.6625      2.00000
      8       5.6492      1.96970
      9       5.6492      1.96970
     10       5.7922      0.06059
     11       7.0690      0.00000
     12       7.0690      0.00000
     13      11.5619      0.00000
     14      12.1866      0.00000


--------------------------------------------------------------------------------------------------------


 soft charge-density along one line, spin component           1
         0         1         2         3         4         5         6         7         8         9
 total charge-density along one line
 
 pseudopotential strength for first ion, spin component:           1
 51.748  56.303  -0.000  -0.000  -0.053  -0.000  -0.000  -0.077
 56.303  61.263  -0.000  -0.000  -0.058  -0.000  -0.000  -0.084
 -0.000  -0.000  12.736   0.010   0.000  18.358   0.014   0.000
 -0.000  -0.000   0.010  12.753   0.000   0.014  18.382   0.000
 -0.053  -0.058   0.000   0.000  12.752   0.000   0.000  18.381
 -0.000  -0.000  18.358   0.014   0.000  26.471   0.021   0.000
 -0.000  -0.000   0.014  18.382   0.000   0.021  26.507   0.000
 -0.077  -0.084   0.000   0.000  18.381   0.000   0.000  26.506
  0.000   0.000  -0.010   0.000  -0.000  -0.015   0.000  -0.000
  0.016   0.017   0.000  -0.000   0.000   0.000  -0.000   0.000
  0.008   0.009   0.000  -0.000   0.006   0.000  -0.000   0.009
  0.000   0.000   0.000  -0.010  -0.000   0.000  -0.014  -0.000
  0.013   0.014   0.000  -0.000  -0.010   0.000  -0.000  -0.015
 total augmentation occupancy for first ion, spin component:           1
 13.021  -9.510   0.000  -0.000   2.319   0.000  -0.000  -0.621   0.000  -0.171  -0.106   0.000  -0.119
 -9.510   8.210   0.000  -0.000  -1.949   0.000  -0.000   0.532   0.000   0.155   0.096   0.000   0.108
  0.000   0.000   2.537   0.251   0.000  -0.480  -0.211   0.000  -0.059   0.000   0.000  -0.052   0.000
 -0.000  -0.000   0.251   2.944   0.000  -0.211  -0.829  -0.000  -0.050   0.000   0.000  -0.132   0.000
  2.319  -1.949   0.000   0.000   2.802   0.000   0.000  -0.745   0.000  -0.058  -0.018   0.000  -0.058
  0.000   0.000  -0.480  -0.211   0.000   0.172   0.081   0.000   0.014   0.000   0.000   0.019   0.000
 -0.000   0.000  -0.211  -0.829  -0.000   0.081   0.301   0.000   0.020   0.000   0.000   0.041   0.000
 -0.621   0.532   0.000   0.000  -0.745   0.000   0.000   0.260   0.000   0.017   0.004  -0.000   0.015
  0.000   0.000  -0.059  -0.050   0.000   0.014   0.020   0.000   0.009   0.000   0.000   0.010   0.000
 -0.171   0.155   0.000   0.000  -0.058   0.000   0.000   0.017   0.000   0.014   0.004   0.000   0.003
 -0.106   0.096   0.000   0.000  -0.018   0.000   0.000   0.004  -0.000   0.004   0.008   0.000  -0.001
  0.000   0.000  -0.052  -0.132   0.000   0.019   0.041   0.000   0.010   0.000  -0.000   0.026   0.000
 -0.119   0.108   0.000  -0.000  -0.058   0.000   0.000   0.015   0.000   0.003  -0.001   0.000   0.010


------------------------ aborting loop because EDIFF is reached ----------------------------------------


    CHARGE:  cpu time    0.0242: real time    0.0243
    FORLOC:  cpu time    0.0000: real time    0.0009
    FORNL :  cpu time    0.0948: real time    0.0951
    STRESS:  cpu time    0.2128: real time    0.2134
    FORCOR:  cpu time    0.0178: real time    0.0178
    FORHAR:  cpu time    0.0041: real time    0.0041
    MIXING:  cpu time    0.0006: real time    0.0006
    OFIELD:  cpu time    0.0000: real time    0.0000

  Hirshfeld charges:
            ion         q(e)     
   ------------------------------
      1     Te         -0.000
      2     Te         -0.000
      3     Te          0.000

  Tkatchenko/Scheffler method for vdW energy calculation
  ---------------------------------------------------------------------------------------------

  Parameters of vdW forcefield:
            C6ts              R0ts           ALPHAts        RELVOL
            (au)              (au)            (au)                
   ---------------------------------------------------------------
   Te        395.319          4.213         37.618          0.999
   Te        395.319          4.213         37.618          0.999
   Te        395.319          4.213         37.618          0.999

  Number of pair interactions contributing to vdW energy:   30171
  Edisp (eV):   -0.68081
    FORVDW:  cpu time    0.1399: real time    0.1403

  FORCE on cell =-STRESS in cart. coord.  units (eV):
  Direction    XX          YY          ZZ          XY          YZ          ZX
  --------------------------------------------------------------------------------------
  Alpha Z     2.24596     2.24596     2.24596
  Ewald    -237.41797  -237.41796  -194.21558    -0.00000    -0.00001     0.00000
  Hartree    11.42855    11.42855    22.53762     0.00000     0.00000    -0.00000
  E(xc)     -70.37626   -70.37626   -69.88180    -0.00000     0.00000    -0.00000
  Local    -112.61525  -112.61530  -157.03060    -0.00004     0.00000    -0.00000
  n-local   332.17824   332.96627   328.26615    -1.23661    -0.73377    -1.26139
  augment   -81.09130   -81.09125   -78.70119     0.00004    -0.00000     0.00000
  Kinetic   152.54515   158.94453   147.27620    -7.22862     0.14188     1.43011
  Fock        0.00000     0.00000     0.00000     0.00000     0.00000     0.00000
  vdW        -0.74785    -0.74785    -0.83511     0.00000    -0.00000    -0.00000
  -------------------------------------------------------------------------------------
  Total      -0.25702    -0.25702    -0.33836     0.00000     0.00000     0.00000
  in kB      -3.95656    -3.95656    -5.20871     0.00000     0.00000     0.00000
  external pressure =       -4.37 kB  Pullay stress =        0.00 kB


 VOLUME and BASIS-vectors are now :
 -----------------------------------------------------------------------------
  energy-cutoff  :      520.00
  volume of cell :      104.08
      direct lattice vectors                 reciprocal lattice vectors
     4.482819852  0.000000000  0.000000000     0.223073876  0.128791762  0.000000000
    -2.241409926  3.882235872  0.000000000     0.000000000  0.257583525  0.000000000
     0.000000000 -0.000000000  5.980270758     0.000000000  0.000000000  0.167216509

  length of vectors
     4.482819852  4.482819852  5.980270758     0.257583525  0.257583525  0.167216509


 FORCES acting on ions
    electron-ion (+dipol)            ewald-force                    non-local-force                 convergence-correction
 -----------------------------------------------------------------------------------------------
   -.128E+02 0.120E-04 -.120E-05   0.182E+02 0.149E-05 0.177E-05   -.525E+01 0.490E-19 0.555E-16   -.954E-03 -.140E-07 0.235E-09
   0.639E+01 -.111E+02 -.183E-04   -.910E+01 0.158E+02 -.854E-05   0.263E+01 -.455E+01 0.000E+00   0.477E-03 -.826E-03 -.562E-09
   0.639E+01 0.111E+02 0.191E-04   -.910E+01 -.158E+02 0.677E-05   0.263E+01 0.455E+01 0.000E+00   0.477E-03 0.826E-03 0.327E-09
 -----------------------------------------------------------------------------------------------
   0.257E-04 -.740E-05 -.329E-06   0.000E+00 0.000E+00 0.000E+00   0.888E-15 0.000E+00 0.555E-16   -.362E-08 -.819E-08 0.101E-11
 
 
 POSITION                                       TOTAL-FORCE (eV/Angst)
 -----------------------------------------------------------------------------------
      1.18560     -0.00000      1.99342         0.147275      0.000000     -0.000000
     -0.59280      1.02676      3.98685        -0.073638      0.127544      0.000000
      1.64861      2.85548     -0.00000        -0.073638     -0.127544      0.000000
 -----------------------------------------------------------------------------------
    total drift:                                0.000026     -0.000007     -0.000000


--------------------------------------------------------------------------------------------------------



  FREE ENERGIE OF THE ION-ELECTRON SYSTEM (eV)
  ---------------------------------------------------
  free  energy   TOTEN  =       -10.09918679 eV

  energy  without entropy=      -10.09912351  energy(sigma->0) =      -10.09915515
 
 d Force =-0.2557905E-03[-0.265E-03,-0.247E-03]  d Energy = 0.4342302E-04-0.299E-03
 d Force =-0.3267434E-01[-0.327E-01,-0.326E-01]  d Ewald  = 0.1924736E+00-0.225E+00


--------------------------------------------------------------------------------------------------------


    POTLOK:  cpu time    0.0189: real time    0.0190


--------------------------------------------------------------------------------------------------------




--------------------------------------------------------------------------------------------------------


    WAVPRE:  cpu time    0.0038: real time    0.0087
    FEWALD:  cpu time    0.0001: real time    0.0001
    GENKIN:  cpu time    0.0060: real time    0.0060
    ORTHCH:  cpu time    0.0188: real time    0.0188
     LOOP+:  cpu time    1.5149: real time    1.5296


--------------------------------------- Iteration      5(   1)  ---------------------------------------


    POTLOK:  cpu time    0.0172: real time    0.0210
    SETDIJ:  cpu time    0.0022: real time    0.0022
     EDDAV:  cpu time    0.3149: real time    0.3159
       DOS:  cpu time    0.0005: real time    0.0005
    CHARGE:  cpu time    0.0242: real time    0.0243
    MIXING:  cpu time    0.0005: real time    0.0005
    --------------------------------------------
      LOOP:  cpu time    0.3596: real time    0.3645

 eigenvalue-minimisations  :  1204
 total energy-change (2. order) :-0.2389086E-02  (-0.1857721E-01)
 number of electron      17.9999989 magnetization 
 augmentation part       -3.6032514 magnetization 

 Broyden mixing:
  rms(total) = 0.22496E-01    rms(broyden)= 0.22495E-01
  rms(prec ) = 0.36861E-01
  weight for this iteration     100.00

 Free energy of the ion-electron system (eV)
  ---------------------------------------------------
  alpha Z        PSCENC =         2.26085144
  Ewald energy   TEWEN  =      -671.06997549
  -Hartree energ DENC   =       -45.12285612
  -exchange      EXHF   =         0.00000000
  -V(xc)+E(xc)   XCENC  =       -84.05449854
  PAW double counting   =      1508.68731943    -1393.32882133
  entropy T*S    EENTRO =        -0.00006138
  eigenvalues    EBANDS =         3.39295741
  atomic energy  EATOM  =       669.81430600
  Solvation  Ediel_sol  =         0.00000000
  ---------------------------------------------------
  free energy    TOTEN  =        -9.42077857 eV

  energy without entropy =       -9.42071720  energy(sigma->0) =       -9.42074789


--------------------------------------------------------------------------------------------------------




--------------------------------------- Iteration      5(   2)  ---------------------------------------


    POTLOK:  cpu time    0.0167: real time    0.0168
    SETDIJ:  cpu time    0.0022: real time    0.0022
     EDDAV:  cpu time    0.3487: real time    0.3499
       DOS:  cpu time    0.0006: real time    0.0005
    CHARGE:  cpu time    0.0254: real time    0.0255
    MIXING:  cpu time    0.0010: real time    0.0007
    --------------------------------------------
      LOOP:  cpu time    0.3945: real time    0.3956

 eigenvalue-minimisations  :  1396
 total energy-change (2. order) : 0.5600659E-03  (-0.7588758E-03)
 number of electron      17.9999989 magnetization 
 augmentation part       -3.6019279 magnetization 

 Broyden mixing:
  rms(total) = 0.13289E-01    rms(broyden)= 0.13289E-01
  rms(prec ) = 0.22489E-01
  weight for this iteration     100.00

 eigenvalues of (default mixing * dielectric matrix)
  average eigenvalue GAMMA=   0.8674
  0.8674

 Free energy of the ion-electron system (eV)
  ---------------------------------------------------
  alpha Z        PSCENC =         2.26085144
  Ewald energy   TEWEN  =      -671.06997549
  -Hartree energ DENC   =       -44.90522568
  -exchange      EXHF   =         0.00000000
  -V(xc)+E(xc)   XCENC  =       -84.04966289
  PAW double counting   =      1506.11274140    -1390.75092958
  entropy T*S    EENTRO =        -0.00005752
  eigenvalues    EBANDS =         3.16773382
  atomic energy  EATOM  =       669.81430600
  Solvation  Ediel_sol  =         0.00000000
  ---------------------------------------------------
  free energy    TOTEN  =        -9.42021851 eV

  energy without entropy =       -9.42016099  energy(sigma->0) =       -9.42018975


--------------------------------------------------------------------------------------------------------




--------------------------------------- Iteration      5(   3)  ---------------------------------------


    POTLOK:  cpu time    0.0170: real time    0.0174
    SETDIJ:  cpu time    0.0022: real time    0.0022
     EDDAV:  cpu time    0.3416: real time    0.3427
       DOS:  cpu time    0.0006: real time    0.0005
    CHARGE:  cpu time    0.0248: real time    0.0249
    MIXING:  cpu time    0.0007: real time    0.0007
    --------------------------------------------
      LOOP:  cpu time    0.3869: real time    0.3884

 eigenvalue-minimisations  :  1360
 total energy-change (2. order) : 0.5625699E-03  (-0.6942141E-04)
 number of electron      17.9999989 magnetization 
 augmentation part       -3.6055627 magnetization 

 Broyden mixing:
  rms(total) = 0.66540E-02    rms(broyden)= 0.66540E-02
  rms(prec ) = 0.10168E-01
  weight for this iteration     100.00

 eigenvalues of (default mixing * dielectric matrix)
  average eigenvalue GAMMA=   1.1696
  0.7686  1.5707

 Free energy of the ion-electron system (eV)
  ---------------------------------------------------
  alpha Z        PSCENC =         2.26085144
  Ewald energy   TEWEN  =      -671.06997549
  -Hartree energ DENC   =       -44.74351748
  -exchange      EXHF   =         0.00000000
  -V(xc)+E(xc)   XCENC  =       -84.04203744
  PAW double counting   =      1508.63144529    -1393.26766534
  entropy T*S    EENTRO =        -0.00005759
  eigenvalues    EBANDS =         2.99699469
  atomic energy  EATOM  =       669.81430600
  Solvation  Ediel_sol  =         0.00000000
  ---------------------------------------------------
  free energy    TOTEN  =        -9.41965594 eV

  energy without entropy =       -9.41959835  energy(sigma->0) =       -9.41962714


--------------------------------------------------------------------------------------------------------




--------------------------------------- Iteration      5(   4)  ---------------------------------------


    POTLOK:  cpu time    0.0168: real time    0.0169
    SETDIJ:  cpu time    0.0024: real time    0.0024
     EDDAV:  cpu time    0.3269: real time    0.3281
       DOS:  cpu time    0.0005: real time    0.0005
    CHARGE:  cpu time    0.0243: real time    0.0244
    MIXING:  cpu time    0.0007: real time    0.0007
    --------------------------------------------
      LOOP:  cpu time    0.3716: real time    0.3730

 eigenvalue-minimisations  :  1300
 total energy-change (2. order) : 0.1236447E-03  (-0.2683293E-04)
 number of electron      17.9999989 magnetization 
 augmentation part       -3.6082020 magnetization 

 Broyden mixing:
  rms(total) = 0.11309E-01    rms(broyden)= 0.11309E-01
  rms(prec ) = 0.11356E-01
  weight for this iteration     100.00

 eigenvalues of (default mixing * dielectric matrix)
  average eigenvalue GAMMA=   1.4379
  1.1492  1.5823  1.5823

 Free energy of the ion-electron system (eV)
  ---------------------------------------------------
  alpha Z        PSCENC =         2.26085144
  Ewald energy   TEWEN  =      -671.06997549
  -Hartree energ DENC   =       -44.63889697
  -exchange      EXHF   =         0.00000000
  -V(xc)+E(xc)   XCENC  =       -84.03630348
  PAW double counting   =      1510.92945646    -1395.56630380
  entropy T*S    EENTRO =        -0.00005733
  eigenvalues    EBANDS =         2.88739088
  atomic energy  EATOM  =       669.81430600
  Solvation  Ediel_sol  =         0.00000000
  ---------------------------------------------------
  free energy    TOTEN  =        -9.41953229 eV

  energy without entropy =       -9.41947496  energy(sigma->0) =       -9.41950363


--------------------------------------------------------------------------------------------------------




--------------------------------------- Iteration      5(   5)  ---------------------------------------


    POTLOK:  cpu time    0.0168: real time    0.0168
    SETDIJ:  cpu time    0.0022: real time    0.0022
     EDDAV:  cpu time    0.2294: real time    0.2302
       DOS:  cpu time    0.0005: real time    0.0005
    --------------------------------------------
      LOOP:  cpu time    0.2489: real time    0.2497

 eigenvalue-minimisations  :   712
 total energy-change (2. order) : 0.1941160E-05  (-0.7436546E-06)
 number of electron      17.9999989 magnetization 
 augmentation part       -3.6082020 magnetization 

 Free energy of the ion-electron system (eV)
  ---------------------------------------------------
  alpha Z        PSCENC =         2.26085144
  Ewald energy   TEWEN  =      -671.06997549
  -Hartree energ DENC   =       -44.63611110
  -exchange      EXHF   =         0.00000000
  -V(xc)+E(xc)   XCENC  =       -84.03586816
  PAW double counting   =      1512.30008199    -1396.93926569
  entropy T*S    EENTRO =        -0.00005713
  eigenvalues    EBANDS =         2.88650779
  atomic energy  EATOM  =       669.81430600
  Solvation  Ediel_sol  =         0.00000000
  ---------------------------------------------------
  free energy    TOTEN  =        -9.41953035 eV

  energy without entropy =       -9.41947322  energy(sigma->0) =       -9.41950179


--------------------------------------------------------------------------------------------------------




 average (electrostatic) potential at core
  the test charge radii are     1.1897
  (the norm of the test charge is              1.0000)
       1 -89.1923       2 -89.1923       3 -89.1923
 
 
 
 E-fermi :   5.8193     XC(G=0):  -9.0007     alpha+bet :-10.4010


 k-point     1 :       0.0000    0.0000    0.0000
  band No.  band energies     occupation 
      1      -7.7638      2.00000
      2      -4.5285      2.00000
      3      -4.5285      2.00000
      4       2.7503      2.00000
      5       3.0169      2.00000
      6       3.0169      2.00000
      7       4.1320      2.00000
      8       4.1320      2.00000
      9       4.9787      2.00000
     10       6.7462      0.00000
     11       6.7462      0.00000
     12       7.3738      0.00000
     13      10.7337      0.00000
     14      10.7337      0.00000

 k-point     2 :       0.1111    0.0000    0.0000
  band No.  band energies     occupation 
      1      -7.6828      2.00000
      2      -4.5530      2.00000
      3      -4.5064      2.00000
      4       2.1351      2.00000
      5       2.6119      2.00000
      6       2.8714      2.00000
      7       4.3729      2.00000
      8       4.6699      2.00000
      9       5.1204      2.00000
     10       6.4968      0.00000
     11       6.6920      0.00000
     12       7.2663      0.00000
     13      10.5106      0.00000
     14      10.7027      0.00000

 k-point     3 :       0.2222    0.0000    0.0000
  band No.  band energies     occupation 
      1      -7.4514      2.00000
      2      -4.6626      2.00000
      3      -4.4462      2.00000
      4       1.3710      2.00000
      5       2.0560      2.00000
      6       2.5292      2.00000
      7       4.4571      2.00000
      8       4.7666      2.00000
      9       4.9486      2.00000
     10       6.6159      0.00000
     11       6.7996      0.00000
     12       7.4271      0.00000
     13       9.7951      0.00000
     14      10.9400      0.00000

 k-point     4 :       0.3333   -0.0000    0.0000
  band No.  band energies     occupation 
      1      -7.1160      2.00000
      2      -4.9039      2.00000
      3      -4.3704      2.00000
      4       0.9996      2.00000
      5       1.6203      2.00000
      6       2.2406      2.00000
      7       3.4335      2.00000
      8       4.7870      2.00000
      9       4.9587      2.00000
     10       6.6150      0.00000
     11       6.7834      0.00000
     12       8.4715      0.00000
     13       9.1670      0.00000
     14      11.7119      0.00000

 k-point     5 :       0.4444    0.0000    0.0000
  band No.  band energies     occupation 
      1      -6.8112      2.00000
      2      -5.1761      2.00000
      3      -4.3168      2.00000
      4       0.9676      2.00000
      5       1.4232      2.00000
      6       2.1658      2.00000
      7       2.5561      2.00000
      8       4.7299      2.00000
      9       4.9472      2.00000
     10       6.6187      0.00000
     11       6.7107      0.00000
     12       8.8295      0.00000
     13       9.2825      0.00000
     14      12.7976      0.00000

 k-point     6 :       0.1111    0.1111    0.0000
  band No.  band energies     occupation 
      1      -7.5263      2.00000
      2      -4.6056      2.00000
      3      -4.4810      2.00000
      4       1.6204      2.00000
      5       1.9531      2.00000
      6       2.9189      2.00000
      7       4.2103      2.00000
      8       4.9608      2.00000
      9       5.0027      2.00000
     10       6.5203      0.00000
     11       6.8341      0.00000
     12       7.3320      0.00000
     13      10.2910      0.00000
     14      10.3857      0.00000

 k-point     7 :       0.2222    0.1111    0.0000
  band No.  band energies     occupation 
      1      -7.2398      2.00000
      2      -4.7575      2.00000
      3      -4.4478      2.00000
      4       1.1544      2.00000
      5       1.5284      2.00000
      6       2.6381      2.00000
      7       3.9525      2.00000
      8       4.2901      2.00000
      9       4.7085      2.00000
     10       6.9590      0.00000
     11       7.2686      0.00000
     12       7.8385      0.00000
     13       9.7218      0.00000
     14      10.6748      0.00000

 k-point     8 :       0.3333    0.1111    0.0000
  band No.  band energies     occupation 
      1      -6.9029      2.00000
      2      -5.0191      2.00000
      3      -4.4126      2.00000
      4       1.0119      2.00000
      5       1.3785      2.00000
      6       2.3069      2.00000
      7       3.0026      2.00000
      8       4.2442      2.00000
      9       4.4650      2.00000
     10       7.0814      0.00000
     11       7.3318      0.00000
     12       8.8502      0.00000
     13       9.3054      0.00000
     14      11.5848      0.00000

 k-point     9 :       0.4444    0.1111    0.0000
  band No.  band energies     occupation 
      1      -6.7242      2.00000
      2      -5.1801      2.00000
      3      -4.3972      2.00000
      4       1.0386      2.00000
      5       1.3816      2.00000
      6       2.3242      2.00000
      7       2.3792      2.00000
      8       4.2573      2.00000
      9       4.3594      2.00000
     10       7.0907      0.00000
     11       7.3451      0.00000
     12       9.1572      0.00000
     13       9.3133      0.00000
     14      12.5381      0.00000

 k-point    10 :       0.2222    0.2222    0.0000
  band No.  band energies     occupation 
      1      -6.9411      2.00000
      2      -4.8784      2.00000
      3      -4.5336      2.00000
      4       1.1260      2.00000
      5       1.2297      2.00000
      6       2.6045      2.00000
      7       3.4622      2.00000
      8       3.7877      2.00000
      9       3.8388      2.00000
     10       7.7133      0.00000
     11       7.9935      0.00000
     12       8.1921      0.00000
     13      10.0850      0.00000
     14      10.4717      0.00000

 k-point    11 :       0.3333    0.2222    0.0000
  band No.  band energies     occupation 
      1      -6.6840      2.00000
      2      -5.0229      2.00000
      3      -4.6124      2.00000
      4       1.1792      2.00000
      5       1.3103      2.00000
      6       2.4535      2.00000
      7       2.7740      2.00000
      8       3.4798      2.00000
      9       3.5681      2.00000
     10       7.9404      0.00000
     11       8.2491      0.00000
     12       8.9343      0.00000
     13      10.0310      0.00000
     14      11.3450      0.00000

 k-point    12 :       0.3333    0.3333    0.0000
  band No.  band energies     occupation 
      1      -6.5871      2.00000
      2      -4.8679      2.00000
      3      -4.8679      2.00000
      4       1.3245      2.00000
      5       1.3245      2.00000
      6       2.7374      2.00000
      7       2.7375      2.00000
      8       2.8888      2.00000
      9       3.1389      2.00000
     10       8.5705      0.00000
     11       8.5705      0.00000
     12       8.8772      0.00000
     13      10.6362      0.00000
     14      11.6220      0.00000

 k-point    13 :       0.0000    0.0000    0.2500
  band No.  band energies     occupation 
      1      -7.5426      2.00000
      2      -5.8521      2.00000
      3      -3.1754      2.00000
      4       2.3018      2.00000
      5       2.8755      2.00000
      6       3.2920      2.00000
      7       4.3065      2.00000
      8       4.3320      2.00000
      9       4.9411      2.00000
     10       6.4373      0.00000
     11       6.4813      0.00000
     12       6.8707      0.00000
     13      10.1755      0.00000
     14      11.2614      0.00000

 k-point    14 :       0.1111    0.0000    0.2500
  band No.  band energies     occupation 
      1      -7.4650      2.00000
      2      -5.8027      2.00000
      3      -3.2765      2.00000
      4       2.0396      2.00000
      5       2.7106      2.00000
      6       3.1529      2.00000
      7       4.0417      2.00000
      8       4.4444      2.00000
      9       4.5957      2.00000
     10       6.7083      0.00000
     11       6.8192      0.00000
     12       7.2237      0.00000
     13      10.2636      0.00000
     14      11.2393      0.00000

 k-point    15 :       0.2222    0.0000    0.2500
  band No.  band energies     occupation 
      1      -7.2474      2.00000
      2      -5.6614      2.00000
      3      -3.5935      2.00000
      4       1.6924      2.00000
      5       2.3100      2.00000
      6       2.8856      2.00000
      7       3.4011      2.00000
      8       3.9969      2.00000
      9       4.5112      2.00000
     10       7.0553      0.00000
     11       7.5943      0.00000
     12       7.9981      0.00000
     13      10.5405      0.00000
     14      10.9676      0.00000

 k-point    16 :       0.3333   -0.0000    0.2500
  band No.  band energies     occupation 
      1      -6.9398      2.00000
      2      -5.4863      2.00000
      3      -4.0292      2.00000
      4       1.3729      2.00000
      5       1.7564      2.00000
      6       2.5618      2.00000
      7       2.9613      2.00000
      8       3.9857      2.00000
      9       4.4131      2.00000
     10       7.1064      0.00000
     11       7.7547      0.00000
     12       8.8206      0.00000
     13      10.1193      0.00000
     14      11.4130      0.00000

 k-point    17 :       0.4444    0.0000    0.2500
  band No.  band energies     occupation 
      1      -6.6599      2.00000
      2      -5.4505      2.00000
      3      -4.2727      2.00000
      4       0.8230      2.00000
      5       1.4470      2.00000
      6       2.2850      2.00000
      7       3.3751      2.00000
      8       4.0152      2.00000
      9       4.3406      2.00000
     10       7.0068      0.00000
     11       7.7134      0.00000
     12       8.6721      0.00000
     13       9.6836      0.00000
     14      11.8204      0.00000

 k-point    18 :      -0.4444   -0.0000    0.2500
  band No.  band energies     occupation 
      1      -6.6315      2.00000
      2      -5.5717      2.00000
      3      -4.1147      2.00000
      4       0.5109      2.00000
      5       1.3532      2.00000
      6       2.2496      2.00000
      7       4.0439      2.00000
      8       4.1353      2.00000
      9       4.4626      2.00000
     10       6.8815      0.00000
     11       7.5278      0.00000
     12       7.9458      0.00000
     13       9.3993      0.00000
     14      12.3343      0.00000

 k-point    19 :      -0.3333    0.0000    0.2500
  band No.  band energies     occupation 
      1      -6.9098      2.00000
      2      -5.6330      2.00000
      3      -3.7877      2.00000
      4       0.7053      2.00000
      5       1.4465      2.00000
      6       2.3974      2.00000
      7       4.3271      2.00000
      8       4.3691      2.00000
      9       5.2027      2.00000
     10       6.5777      0.00000
     11       7.1494      0.00000
     12       7.3322      0.00000
     13       9.3070      0.00000
     14      12.3619      0.00000

 k-point    20 :      -0.2222   -0.0000    0.2500
  band No.  band energies     occupation 
      1      -7.2371      2.00000
      2      -5.7148      2.00000
      3      -3.4752      2.00000
      4       1.3881      2.00000
      5       1.7361      2.00000
      6       2.6852      2.00000
      7       4.5327      2.00000
      8       4.6654      2.00000
      9       5.2939      2.00000
     10       6.3745      0.00000
     11       6.8189      0.00000
     12       7.0830      0.00000
     13       9.5063      0.00000
     14      11.8384      0.00000

 k-point    21 :      -0.1111   -0.0000    0.2500
  band No.  band energies     occupation 
      1      -7.4637      2.00000
      2      -5.8096      2.00000
      3      -3.2576      2.00000
      4       2.0598      2.00000
      5       2.4097      2.00000
      6       3.0488      2.00000
      7       4.4822      2.00000
      8       4.6050      2.00000
      9       4.9025      2.00000
     10       6.4045      0.00000
     11       6.4320      0.00000
     12       7.2222      0.00000
     13       9.9794      0.00000
     14      11.2841      0.00000

 k-point    22 :       0.1111    0.1111    0.2500
  band No.  band energies     occupation 
      1      -7.3139      2.00000
      2      -5.7239      2.00000
      3      -3.4476      2.00000
      4       1.7179      2.00000
      5       2.0417      2.00000
      6       2.9088      2.00000
      7       3.9211      2.00000
      8       4.4892      2.00000
      9       4.8863      2.00000
     10       6.6543      0.00000
     11       7.1917      0.00000
     12       7.3930      0.00000
     13      10.0093      0.00000
     14      11.2789      0.00000

 k-point    23 :       0.2222    0.1111    0.2500
  band No.  band energies     occupation 
      1      -7.0469      2.00000
      2      -5.5675      2.00000
      3      -3.8307      2.00000
      4       1.3721      2.00000
      5       1.7740      2.00000
      6       2.7310      2.00000
      7       3.0132      2.00000
      8       4.0783      2.00000
      9       5.0090      2.00000
     10       6.8181      0.00000
     11       7.5406      0.00000
     12       8.4446      0.00000
     13      10.3544      0.00000
     14      10.8272      0.00000

 k-point    24 :       0.3333    0.1111    0.2500
  band No.  band energies     occupation 
      1      -6.7405      2.00000
      2      -5.4390      2.00000
      3      -4.2153      2.00000
      4       1.0764      2.00000
      5       1.3387      2.00000
      6       2.4078      2.00000
      7       3.0429      2.00000
      8       3.7507      2.00000
      9       5.0380      2.00000
     10       6.7408      0.00000
     11       7.8692      0.00000
     12       8.8184      0.00000
     13       9.9938      0.00000
     14      11.4997      0.00000

 k-point    25 :       0.4444    0.1111    0.2500
  band No.  band energies     occupation 
      1      -6.5649      2.00000
      2      -5.4923      2.00000
      3      -4.2752      2.00000
      4       0.6525      2.00000
      5       1.2216      2.00000
      6       2.3027      2.00000
      7       3.2639      2.00000
      8       3.9120      2.00000
      9       5.0501      2.00000
     10       6.6589      0.00000
     11       7.9308      0.00000
     12       8.3261      0.00000
     13       9.7467      0.00000
     14      12.1765      0.00000

 k-point    26 :      -0.4444    0.1111    0.2500
  band No.  band energies     occupation 
      1      -6.7119      2.00000
      2      -5.5706      2.00000
      3      -4.0324      2.00000
      4       0.5766      2.00000
      5       1.3549      2.00000
      6       2.3325      2.00000
      7       3.3164      2.00000
      8       4.6477      2.00000
      9       5.1207      2.00000
     10       6.5499      0.00000
     11       7.4203      0.00000
     12       7.9558      0.00000
     13       9.6398      0.00000
     14      12.1122      0.00000

 k-point    27 :      -0.3333    0.1111    0.2500
  band No.  band energies     occupation 
      1      -7.0347      2.00000
      2      -5.6287      2.00000
      3      -3.7184      2.00000
      4       1.0152      2.00000
      5       1.6033      2.00000
      6       2.5500      2.00000
      7       3.5318      2.00000
      8       4.8271      2.00000
      9       5.4470      2.00000
     10       6.3270      0.00000
     11       7.0306      0.00000
     12       7.7648      0.00000
     13       9.6875      0.00000
     14      11.4884      0.00000

 k-point    28 :       0.2222    0.2222    0.2500
  band No.  band energies     occupation 
      1      -6.7596      2.00000
      2      -5.5015      2.00000
      3      -4.0927      2.00000
      4       0.8232      2.00000
      5       1.4545      2.00000
      6       2.3240      2.00000
      7       2.8682      2.00000
      8       4.4138      2.00000
      9       5.3082      2.00000
     10       6.6436      0.00000
     11       7.4597      0.00000
     12       8.5558      0.00000
     13      10.3126      0.00000
     14      10.8860      0.00000

 k-point    29 :       0.3333    0.2222    0.2500
  band No.  band energies     occupation 
      1      -6.5259      2.00000
      2      -5.4343      2.00000
      3      -4.3612      2.00000
      4       0.7959      2.00000
      5       1.0982      2.00000
      6       1.9906      2.00000
      7       3.0982      2.00000
      8       4.0353      2.00000
      9       5.1042      2.00000
     10       6.8905      0.00000
     11       8.0030      0.00000
     12       8.5507      0.00000
     13      10.3558      0.00000
     14      11.4400      0.00000

 k-point    30 :       0.4444    0.2222    0.2500
  band No.  band energies     occupation 
      1      -6.5174      2.00000
      2      -5.4712      2.00000
      3      -4.3178      2.00000
      4       0.6518      2.00000
      5       1.1710      2.00000
      6       2.0064      2.00000
      7       3.0480      2.00000
      8       4.3347      2.00000
      9       4.9683      2.00000
     10       7.0164      0.00000
     11       7.7689      0.00000
     12       8.4304      0.00000
     13      10.2805      0.00000
     14      11.6660      0.00000

 k-point    31 :       0.3333    0.3333    0.2500
  band No.  band energies     occupation 
      1      -6.4298      2.00000
      2      -5.4265      2.00000
      3      -4.4401      2.00000
      4       0.7449      2.00000
      5       1.0756      2.00000
      6       1.6600      2.00000
      7       3.2634      2.00000
      8       4.2444      2.00000
      9       4.6799      2.00000
     10       7.4808      0.00000
     11       8.0923      0.00000
     12       8.1783      0.00000
     13      11.0905      0.00000
     14      11.3780      0.00000

 k-point    32 :       0.0000    0.0000    0.5000
  band No.  band energies     occupation 
      1      -6.8909      2.00000
      2      -6.8909      2.00000
      3      -2.4844      2.00000
      4       1.8200      2.00000
      5       3.1448      2.00000
      6       3.1448      2.00000
      7       4.4601      2.00000
      8       4.7496      2.00000
      9       4.7496      2.00000
     10       6.2595      0.00000
     11       6.2893      0.00000
     12       6.2893      0.00000
     13       9.8086      0.00000
     14      11.0639      0.00000

 k-point    33 :       0.1111    0.0000    0.5000
  band No.  band energies     occupation 
      1      -6.8306      2.00000
      2      -6.8145      2.00000
      3      -2.6554      2.00000
      4       1.7792      2.00000
      5       2.9590      2.00000
      6       3.0494      2.00000
      7       3.9953      2.00000
      8       4.3522      2.00000
      9       4.5932      2.00000
     10       6.4947      0.00000
     11       6.6957      0.00000
     12       7.1051      0.00000
     13      10.0365      0.00000
     14      10.7623      0.00000

 k-point    34 :       0.2222    0.0000    0.5000
  band No.  band energies     occupation 
      1      -6.6681      2.00000
      2      -6.5954      2.00000
      3      -3.0999      2.00000
      4       1.4645      2.00000
      5       2.3813      2.00000
      6       2.7605      2.00000
      7       3.7962      2.00000
      8       3.9569      2.00000
      9       4.4131      2.00000
     10       6.9326      0.00000
     11       7.4139      0.00000
     12       7.8769      0.00000
     13      10.2503      0.00000
     14      10.9466      0.00000

 k-point    35 :       0.3333   -0.0000    0.5000
  band No.  band energies     occupation 
      1      -6.4630      2.00000
      2      -6.2750      2.00000
      3      -3.6563      2.00000
      4       0.7550      2.00000
      5       2.1317      2.00000
      6       2.4503      2.00000
      7       3.5601      2.00000
      8       3.8212      2.00000
      9       4.7207      2.00000
     10       7.1675      0.00000
     11       7.7151      0.00000
     12       7.9983      0.00000
     13      10.2665      0.00000
     14      11.2612      0.00000

 k-point    36 :       0.4444    0.0000    0.5000
  band No.  band energies     occupation 
      1      -6.3141      2.00000
      2      -5.9807      2.00000
      3      -4.0950      2.00000
      4       0.2543      2.00000
      5       2.1048      2.00000
      6       2.2233      2.00000
      7       3.3973      2.00000
      8       3.7232      2.00000
      9       5.3596      2.00000
     10       6.6712      0.00000
     11       7.6469      0.00000
     12       8.2539      0.00000
     13      10.3102      0.00000
     14      11.0712      0.00000

 k-point    37 :       0.1111    0.1111    0.5000
  band No.  band energies     occupation 
      1      -6.7153      2.00000
      2      -6.6702      2.00000
      3      -2.9606      2.00000
      4       1.6238      2.00000
      5       2.5989      2.00000
      6       2.6710      2.00000
      7       3.7621      2.00000
      8       3.9474      2.00000
      9       4.8325      2.00000
     10       6.4121      0.00000
     11       7.5282      0.00000
     12       7.6862      0.00000
     13      10.4475      0.00000
     14      10.5084      0.00000

 k-point    38 :       0.2222    0.1111    0.5000
  band No.  band energies     occupation 
      1      -6.5202      2.00000
      2      -6.4074      2.00000
      3      -3.4510      2.00000
      4       1.1310      2.00000
      5       2.0110      2.00000
      6       2.2138      2.00000
      7       3.7644      2.00000
      8       4.1265      2.00000
      9       4.8244      2.00000
     10       6.7364      0.00000
     11       7.8145      0.00000
     12       7.9740      0.00000
     13      10.3330      0.00000
     14      11.1417      0.00000

 k-point    39 :       0.3333    0.1111    0.5000
  band No.  band energies     occupation 
      1      -6.3285      2.00000
      2      -6.0962      2.00000
      3      -3.9459      2.00000
      4       0.5090      2.00000
      5       1.7453      2.00000
      6       1.8952      2.00000
      7       3.8534      2.00000
      8       4.2183      2.00000
      9       5.1020      2.00000
     10       6.9104      0.00000
     11       7.4760      0.00000
     12       8.0409      0.00000
     13      10.3700      0.00000
     14      11.3315      0.00000

 k-point    40 :       0.4444    0.1111    0.5000
  band No.  band energies     occupation 
      1      -6.2463      2.00000
      2      -5.9304      2.00000
      3      -4.1808      2.00000
      4       0.2529      2.00000
      5       1.6962      2.00000
      6       1.7549      2.00000
      7       3.9830      2.00000
      8       4.0656      2.00000
      9       5.5785      2.00000
     10       6.4832      0.00000
     11       7.4899      0.00000
     12       8.0499      0.00000
     13      10.4535      0.00000
     14      11.1164      0.00000

 k-point    41 :       0.2222    0.2222    0.5000
  band No.  band energies     occupation 
      1      -6.3120      2.00000
      2      -6.1680      2.00000
      3      -3.8699      2.00000
      4       0.8113      2.00000
      5       1.3410      2.00000
      6       1.6507      2.00000
      7       4.1823      2.00000
      8       4.5368      2.00000
      9       5.2450      2.00000
     10       6.5818      0.00000
     11       7.6754      0.00000
     12       7.7325      0.00000
     13      10.6046      0.00000
     14      11.4566      0.00000

 k-point    42 :       0.3333    0.2222    0.5000
  band No.  band energies     occupation 
      1      -6.1502      2.00000
      2      -5.9752      2.00000
      3      -4.1796      2.00000
      4       0.5000      2.00000
      5       1.1001      2.00000
      6       1.2667      2.00000
      7       4.5105      2.00000
      8       4.9284      2.00000
      9       5.5365      2.00000
     10       6.4754      0.00000
     11       7.2059      0.00000
     12       7.5308      0.00000
     13      10.9478      0.00000
     14      11.6458      0.00000

 k-point    43 :       0.3333    0.3333    0.5000
  band No.  band energies     occupation 
      1      -6.0009      2.00000
      2      -6.0009      2.00000
      3      -4.2653      2.00000
      4       0.6687      2.00000
      5       0.8525      2.00000
      6       0.8525      2.00000
      7       4.7728      2.00000
      8       5.7410      1.97315
      9       5.7410      1.97315
     10       5.8875      0.05371
     11       7.1100      0.00000
     12       7.1100      0.00000
     13      11.6554      0.00000
     14      12.2541      0.00000


--------------------------------------------------------------------------------------------------------


 soft charge-density along one line, spin component           1
         0         1         2         3         4         5         6         7         8         9
 total charge-density along one line
 
 pseudopotential strength for first ion, spin component:           1
 51.719  56.272  -0.000  -0.000  -0.052  -0.000  -0.000  -0.075
 56.272  61.228  -0.000  -0.000  -0.057  -0.000  -0.000  -0.082
 -0.000  -0.000  12.730   0.010   0.000  18.349   0.014   0.000
 -0.000  -0.000   0.010  12.746   0.000   0.014  18.373   0.000
 -0.052  -0.057   0.000   0.000  12.746   0.000   0.000  18.372
 -0.000  -0.000  18.349   0.014   0.000  26.459   0.020   0.000
 -0.000  -0.000   0.014  18.373   0.000   0.020  26.493   0.000
 -0.075  -0.082   0.000   0.000  18.372   0.000   0.000  26.493
  0.000   0.000  -0.010   0.000  -0.000  -0.015   0.000  -0.000
  0.015   0.017   0.000  -0.000   0.000   0.000  -0.000   0.000
  0.008   0.008   0.000  -0.000   0.006   0.000  -0.000   0.009
  0.000   0.000   0.000  -0.010  -0.000   0.000  -0.014  -0.000
  0.013   0.014   0.000  -0.000  -0.010   0.000  -0.000  -0.015
 total augmentation occupancy for first ion, spin component:           1
 13.139  -9.608   0.000   0.000   2.256   0.000   0.000  -0.599   0.000  -0.169  -0.104   0.000  -0.120
 -9.608   8.291   0.000  -0.000  -1.895   0.000   0.000   0.513   0.000   0.154   0.093   0.000   0.108
  0.000   0.000   2.540   0.241   0.000  -0.484  -0.204   0.000  -0.057   0.000   0.000  -0.051   0.000
 -0.000  -0.000   0.241   2.930   0.000  -0.204  -0.820  -0.000  -0.050   0.000   0.000  -0.128   0.000
  2.256  -1.895   0.000   0.000   2.799   0.000  -0.000  -0.744   0.000  -0.057  -0.017   0.000  -0.056
  0.000   0.000  -0.484  -0.204   0.000   0.174   0.078   0.000   0.014   0.000   0.000   0.019   0.000
  0.000   0.000  -0.204  -0.820  -0.000   0.078   0.298   0.000   0.019   0.000   0.000   0.039   0.000
 -0.599   0.513   0.000  -0.000  -0.744   0.000   0.000   0.260   0.000   0.017   0.004   0.000   0.014
  0.000   0.000  -0.057  -0.050   0.000   0.014   0.019   0.000   0.009   0.000   0.000   0.010   0.000
 -0.169   0.154   0.000   0.000  -0.057   0.000   0.000   0.017   0.000   0.014   0.004   0.000   0.003
 -0.104   0.093   0.000   0.000  -0.017   0.000   0.000   0.004  -0.000   0.004   0.008   0.000  -0.001
  0.000   0.000  -0.051  -0.128   0.000   0.019   0.039   0.000   0.010  -0.000  -0.000   0.026   0.000
 -0.120   0.108   0.000   0.000  -0.056   0.000   0.000   0.014   0.000   0.003  -0.001   0.000   0.010


------------------------ aborting loop because EDIFF is reached ----------------------------------------


    CHARGE:  cpu time    0.0245: real time    0.0245
    FORLOC:  cpu time    0.0009: real time    0.0009
    FORNL :  cpu time    0.0956: real time    0.0958
    STRESS:  cpu time    0.2133: real time    0.2139
    FORCOR:  cpu time    0.0176: real time    0.0176
    FORHAR:  cpu time    0.0039: real time    0.0039
    MIXING:  cpu time    0.0007: real time    0.0007
    OFIELD:  cpu time    0.0000: real time    0.0000

  Hirshfeld charges:
            ion         q(e)     
   ------------------------------
      1     Te         -0.000
      2     Te         -0.000
      3     Te          0.000

  Tkatchenko/Scheffler method for vdW energy calculation
  ---------------------------------------------------------------------------------------------

  Parameters of vdW forcefield:
            C6ts              R0ts           ALPHAts        RELVOL
            (au)              (au)            (au)                
   ---------------------------------------------------------------
   Te        395.318          4.213         37.617          0.999
   Te        395.318          4.213         37.617          0.999
   Te        395.318          4.213         37.617          0.999

  Number of pair interactions contributing to vdW energy:   30276
  Edisp (eV):   -0.68531
    FORVDW:  cpu time    0.1408: real time    0.1412

  FORCE on cell =-STRESS in cart. coord.  units (eV):
  Direction    XX          YY          ZZ          XY          YZ          ZX
  --------------------------------------------------------------------------------------
  Alpha Z     2.26085     2.26085     2.26085
  Ewald    -237.40553  -237.40552  -196.25945    -0.00000    -0.00001     0.00000
  Hartree    11.36563    11.36563    21.89137     0.00000     0.00000    -0.00000
  E(xc)     -70.37611   -70.37611   -69.89288    -0.00000     0.00000     0.00000
  Local    -112.44665  -112.44670  -154.56395    -0.00004     0.00000    -0.00000
  n-local   332.15236   332.95659   328.31726    -1.23986    -0.72668    -1.25028
  augment   -81.08887   -81.08882   -78.77258     0.00004    -0.00000     0.00000
  Kinetic   152.39989   158.92404   147.59664    -7.32189     0.15291     1.48998
  Fock        0.00000     0.00000     0.00000     0.00000     0.00000     0.00000
  vdW        -0.74437    -0.74437    -0.84699     0.00000    -0.00000    -0.00000
  -------------------------------------------------------------------------------------
  Total      -0.21860    -0.21860    -0.26972     0.00000     0.00000     0.00000
  in kB      -3.38746    -3.38746    -4.17970     0.00000     0.00000     0.00000
  external pressure =       -3.65 kB  Pullay stress =        0.00 kB


 VOLUME and BASIS-vectors are now :
 -----------------------------------------------------------------------------
  energy-cutoff  :      520.00
  volume of cell :      103.39
      direct lattice vectors                 reciprocal lattice vectors
     4.473102674  0.000000000  0.000000000     0.223558472  0.129071544  0.000000000
    -2.236551337  3.873820549 -0.000000000    -0.000000000  0.258143088  0.000000000
     0.000000000 -0.000000000  5.966726270    -0.000000000  0.000000000  0.167596091

  length of vectors
     4.473102674  4.473102674  5.966726270     0.258143088  0.258143088  0.167596091


 FORCES acting on ions
    electron-ion (+dipol)            ewald-force                    non-local-force                 convergence-correction
 -----------------------------------------------------------------------------------------------
   -.123E+02 0.119E-04 -.116E-05   0.176E+02 0.151E-05 0.171E-05   -.514E+01 0.278E-16 0.000E+00   0.865E-03 0.308E-07 -.157E-08
   0.614E+01 -.106E+02 -.183E-04   -.878E+01 0.152E+02 -.845E-05   0.257E+01 -.446E+01 0.000E+00   -.432E-03 0.749E-03 0.238E-08
   0.614E+01 0.106E+02 0.191E-04   -.878E+01 -.152E+02 0.674E-05   0.257E+01 0.446E+01 0.000E+00   -.433E-03 -.749E-03 -.842E-09
 -----------------------------------------------------------------------------------------------
   0.257E-04 -.752E-05 -.328E-06   0.000E+00 0.000E+00 0.000E+00   -.133E-14 0.000E+00 0.000E+00   0.112E-07 0.238E-07 -.367E-10
 
 
 POSITION                                       TOTAL-FORCE (eV/Angst)
 -----------------------------------------------------------------------------------
      1.19320     -0.00000      1.98891         0.121157     -0.000000      0.000000
     -0.59660      1.03334      3.97782        -0.060579      0.104925     -0.000000
      1.63995      2.84048      0.00000        -0.060579     -0.104925     -0.000000
 -----------------------------------------------------------------------------------
    total drift:                                0.000026     -0.000007     -0.000000


--------------------------------------------------------------------------------------------------------



  FREE ENERGIE OF THE ION-ELECTRON SYSTEM (eV)
  ---------------------------------------------------
  free  energy   TOTEN  =       -10.10484447 eV

  energy  without entropy=      -10.10478733  energy(sigma->0) =      -10.10481590
 
 d Force = 0.4094775E-02[ 0.370E-02, 0.449E-02]  d Energy = 0.5657675E-02-0.156E-02
 d Force = 0.5454723E+00[ 0.536E+00, 0.555E+00]  d Ewald  = 0.2019126E+01-0.147E+01


--------------------------------------------------------------------------------------------------------


    POTLOK:  cpu time    0.0189: real time    0.0190


--------------------------------------------------------------------------------------------------------


 Conjugate gradient step on ions:
 trial-energy change:   -0.005658  1 .order   -0.005823   -0.006384   -0.005263
  (g-gl).g = 0.825E-02      g.g   = 0.710E-02  gl.gl    = 0.362E-01
 g(Force)  = 0.314E-02   g(Stress)= 0.397E-02 ortho     =-0.115E-02
 gamma     =   0.22777
 trial     =   0.93280
 opt step  =   3.73120  (harmonic =   5.31394) maximal distance =0.04076679
 next E    =   -10.117369   (d E  =  -0.01818)


--------------------------------------------------------------------------------------------------------


    WAVPRE:  cpu time    0.0035: real time    0.0065
    FEWALD:  cpu time    0.0002: real time    0.0002
    GENKIN:  cpu time    0.0059: real time    0.0059
    ORTHCH:  cpu time    0.0183: real time    0.0184
     LOOP+:  cpu time    2.3142: real time    2.3376


--------------------------------------- Iteration      6(   1)  ---------------------------------------


    POTLOK:  cpu time    0.0172: real time    0.0185
    SETDIJ:  cpu time    0.0022: real time    0.0022
     EDDAV:  cpu time    0.3168: real time    0.3178
       DOS:  cpu time    0.0005: real time    0.0005
    CHARGE:  cpu time    0.0251: real time    0.0252
    MIXING:  cpu time    0.0005: real time    0.0005
    --------------------------------------------
      LOOP:  cpu time    0.3624: real time    0.3648

 eigenvalue-minimisations  :  1204
 total energy-change (2. order) :-0.8394602E-02  (-0.1699838E+00)
 number of electron      17.9999999 magnetization 
 augmentation part       -3.5932383 magnetization 

 Broyden mixing:
  rms(total) = 0.66109E-01    rms(broyden)= 0.66107E-01
  rms(prec ) = 0.11135E+00
  weight for this iteration     100.00

 Free energy of the ion-electron system (eV)
  ---------------------------------------------------
  alpha Z        PSCENC =         2.30631633
  Ewald energy   TEWEN  =      -677.05518522
  -Hartree energ DENC   =       -43.88600786
  -exchange      EXHF   =         0.00000000
  -V(xc)+E(xc)   XCENC  =       -84.02392600
  PAW double counting   =      1513.79732484    -1398.43866686
  entropy T*S    EENTRO =        -0.00005347
  eigenvalues    EBANDS =         8.05796534
  atomic energy  EATOM  =       669.81430600
  Solvation  Ediel_sol  =         0.00000000
  ---------------------------------------------------
  free energy    TOTEN  =        -9.42792690 eV

  energy without entropy =       -9.42787343  energy(sigma->0) =       -9.42790016


--------------------------------------------------------------------------------------------------------




--------------------------------------- Iteration      6(   2)  ---------------------------------------


    POTLOK:  cpu time    0.0177: real time    0.0177
    SETDIJ:  cpu time    0.0022: real time    0.0022
     EDDAV:  cpu time    0.3516: real time    0.3527
       DOS:  cpu time    0.0006: real time    0.0006
    CHARGE:  cpu time    0.0249: real time    0.0249
    MIXING:  cpu time    0.0007: real time    0.0007
    --------------------------------------------
      LOOP:  cpu time    0.3976: real time    0.3988

 eigenvalue-minimisations  :  1396
 total energy-change (2. order) : 0.5391542E-02  (-0.6848127E-02)
 number of electron      17.9999999 magnetization 
 augmentation part       -3.5909355 magnetization 

 Broyden mixing:
  rms(total) = 0.40799E-01    rms(broyden)= 0.40799E-01
  rms(prec ) = 0.68449E-01
  weight for this iteration     100.00

 eigenvalues of (default mixing * dielectric matrix)
  average eigenvalue GAMMA=   0.9127
  0.9127

 Free energy of the ion-electron system (eV)
  ---------------------------------------------------
  alpha Z        PSCENC =         2.30631633
  Ewald energy   TEWEN  =      -677.05518522
  -Hartree energ DENC   =       -43.22817878
  -exchange      EXHF   =         0.00000000
  -V(xc)+E(xc)   XCENC  =       -84.00795692
  PAW double counting   =      1509.54928269    -1394.17996262
  entropy T*S    EENTRO =        -0.00004606
  eigenvalues    EBANDS =         7.37888923
  atomic energy  EATOM  =       669.81430600
  Solvation  Ediel_sol  =         0.00000000
  ---------------------------------------------------
  free energy    TOTEN  =        -9.42253535 eV

  energy without entropy =       -9.42248929  energy(sigma->0) =       -9.42251232


--------------------------------------------------------------------------------------------------------




--------------------------------------- Iteration      6(   3)  ---------------------------------------


    POTLOK:  cpu time    0.0173: real time    0.0173
    SETDIJ:  cpu time    0.0022: real time    0.0022
     EDDAV:  cpu time    0.3440: real time    0.3452
       DOS:  cpu time    0.0006: real time    0.0005
    CHARGE:  cpu time    0.0246: real time    0.0246
    MIXING:  cpu time    0.0007: real time    0.0007
    --------------------------------------------
      LOOP:  cpu time    0.3892: real time    0.3906

 eigenvalue-minimisations  :  1336
 total energy-change (2. order) : 0.5367207E-02  (-0.7228903E-03)
 number of electron      17.9999999 magnetization 
 augmentation part       -3.6027903 magnetization 

 Broyden mixing:
  rms(total) = 0.20468E-01    rms(broyden)= 0.20468E-01
  rms(prec ) = 0.29015E-01
  weight for this iteration     100.00

 eigenvalues of (default mixing * dielectric matrix)
  average eigenvalue GAMMA=   1.1865
  0.7481  1.6248

 Free energy of the ion-electron system (eV)
  ---------------------------------------------------
  alpha Z        PSCENC =         2.30631633
  Ewald energy   TEWEN  =      -677.05518522
  -Hartree energ DENC   =       -42.70777207
  -exchange      EXHF   =         0.00000000
  -V(xc)+E(xc)   XCENC  =       -83.98224689
  PAW double counting   =      1517.76359202    -1402.38799629
  entropy T*S    EENTRO =        -0.00004787
  eigenvalues    EBANDS =         6.83186584
  atomic energy  EATOM  =       669.81430600
  Solvation  Ediel_sol  =         0.00000000
  ---------------------------------------------------
  free energy    TOTEN  =        -9.41716815 eV

  energy without entropy =       -9.41712028  energy(sigma->0) =       -9.41714421


--------------------------------------------------------------------------------------------------------




--------------------------------------- Iteration      6(   4)  ---------------------------------------


    POTLOK:  cpu time    0.0174: real time    0.0175
    SETDIJ:  cpu time    0.0022: real time    0.0022
     EDDAV:  cpu time    0.3504: real time    0.3515
       DOS:  cpu time    0.0005: real time    0.0005
    CHARGE:  cpu time    0.0247: real time    0.0247
    MIXING:  cpu time    0.0007: real time    0.0007
    --------------------------------------------
      LOOP:  cpu time    0.3959: real time    0.3972

 eigenvalue-minimisations  :  1370
 total energy-change (2. order) : 0.8749548E-03  (-0.1941502E-03)
 number of electron      17.9999999 magnetization 
 augmentation part       -3.6099689 magnetization 

 Broyden mixing:
  rms(total) = 0.34658E-01    rms(broyden)= 0.34658E-01
  rms(prec ) = 0.34785E-01
  weight for this iteration     100.00

 eigenvalues of (default mixing * dielectric matrix)
  average eigenvalue GAMMA=   1.2657
  1.3207  1.2382  1.2382

 Free energy of the ion-electron system (eV)
  ---------------------------------------------------
  alpha Z        PSCENC =         2.30631633
  Ewald energy   TEWEN  =      -677.05518522
  -Hartree energ DENC   =       -42.43810577
  -exchange      EXHF   =         0.00000000
  -V(xc)+E(xc)   XCENC  =       -83.96639552
  PAW double counting   =      1523.70354444    -1408.33020830
  entropy T*S    EENTRO =        -0.00004788
  eigenvalues    EBANDS =         6.54948273
  atomic energy  EATOM  =       669.81430600
  Solvation  Ediel_sol  =         0.00000000
  ---------------------------------------------------
  free energy    TOTEN  =        -9.41629319 eV

  energy without entropy =       -9.41624531  energy(sigma->0) =       -9.41626925


--------------------------------------------------------------------------------------------------------




--------------------------------------- Iteration      6(   5)  ---------------------------------------


    POTLOK:  cpu time    0.0174: real time    0.0174
    SETDIJ:  cpu time    0.0022: real time    0.0022
     EDDAV:  cpu time    0.3650: real time    0.3662
       DOS:  cpu time    0.0006: real time    0.0005
    --------------------------------------------
      LOOP:  cpu time    0.3852: real time    0.3864

 eigenvalue-minimisations  :  1442
 total energy-change (2. order) : 0.5564259E-05  (-0.5912711E-05)
 number of electron      17.9999999 magnetization 
 augmentation part       -3.6099689 magnetization 

 Free energy of the ion-electron system (eV)
  ---------------------------------------------------
  alpha Z        PSCENC =         2.30631633
  Ewald energy   TEWEN  =      -677.05518522
  -Hartree energ DENC   =       -42.43363760
  -exchange      EXHF   =         0.00000000
  -V(xc)+E(xc)   XCENC  =       -83.96568820
  PAW double counting   =      1526.61417833    -1411.24568991
  entropy T*S    EENTRO =        -0.00004745
  eigenvalues    EBANDS =         6.54916009
  atomic energy  EATOM  =       669.81430600
  Solvation  Ediel_sol  =         0.00000000
  ---------------------------------------------------
  free energy    TOTEN  =        -9.41628763 eV

  energy without entropy =       -9.41624018  energy(sigma->0) =       -9.41626390


--------------------------------------------------------------------------------------------------------




 average (electrostatic) potential at core
  the test charge radii are     1.1897
  (the norm of the test charge is              1.0000)
       1 -88.9756       2 -88.9756       3 -88.9756
 
 
 
 E-fermi :   6.1080     XC(G=0):  -9.0969     alpha+bet :-10.6101


 k-point     1 :       0.0000    0.0000    0.0000
  band No.  band energies     occupation 
      1      -7.5914      2.00000
      2      -4.3061      2.00000
      3      -4.3061      2.00000
      4       2.9813      2.00000
      5       3.3075      2.00000
      6       3.3075      2.00000
      7       4.3170      2.00000
      8       4.3170      2.00000
      9       5.0840      2.00000
     10       7.0039      0.00000
     11       7.0039      0.00000
     12       7.5850      0.00000
     13      10.9880      0.00000
     14      10.9880      0.00000

 k-point     2 :       0.1111    0.0000    0.0000
  band No.  band energies     occupation 
      1      -7.5054      2.00000
      2      -4.3304      2.00000
      3      -4.2836      2.00000
      4       2.3380      2.00000
      5       2.8569      2.00000
      6       3.0863      2.00000
      7       4.6189      2.00000
      8       4.8898      2.00000
      9       5.3488      2.00000
     10       6.6959      0.00000
     11       6.9284      0.00000
     12       7.4427      0.00000
     13      10.7025      0.00000
     14      10.9477      0.00000

 k-point     3 :       0.2222    0.0000    0.0000
  band No.  band energies     occupation 
      1      -7.2577      2.00000
      2      -4.4466      2.00000
      3      -4.2211      2.00000
      4       1.5393      2.00000
      5       2.2644      2.00000
      6       2.6956      2.00000
      7       4.7377      2.00000
      8       5.0450      2.00000
      9       5.1885      2.00000
     10       6.8090      0.00000
     11       7.0089      0.00000
     12       7.5878      0.00000
     13       9.9193      0.00000
     14      11.1794      0.00000

 k-point     4 :       0.3333   -0.0000    0.0000
  band No.  band energies     occupation 
      1      -6.8917      2.00000
      2      -4.7153      2.00000
      3      -4.1413      2.00000
      4       1.1725      2.00000
      5       1.8041      2.00000
      6       2.3791      2.00000
      7       3.6275      2.00000
      8       5.1241      2.00000
      9       5.2246      2.00000
     10       6.7757      0.00000
     11       6.9359      0.00000
     12       8.7351      0.00000
     13       9.2617      0.00000
     14      11.9703      0.00000

 k-point     5 :       0.4444    0.0000    0.0000
  band No.  band energies     occupation 
      1      -6.5436      2.00000
      2      -5.0336      2.00000
      3      -4.0843      2.00000
      4       1.1713      2.00000
      5       1.6075      2.00000
      6       2.2815      2.00000
      7       2.6901      2.00000
      8       5.0696      2.00000
      9       5.2357      2.00000
     10       6.7798      0.00000
     11       6.8347      0.00000
     12       8.9115      0.00000
     13       9.5924      0.00000
     14      13.1163      0.00000

 k-point     6 :       0.1111    0.1111    0.0000
  band No.  band energies     occupation 
      1      -7.3382      2.00000
      2      -4.3837      2.00000
      3      -4.2594      2.00000
      4       1.8029      2.00000
      5       2.1287      2.00000
      6       3.1608      2.00000
      7       4.3880      2.00000
      8       5.2802      2.00000
      9       5.2858      2.00000
     10       6.6897      0.00000
     11       7.0189      0.00000
     12       7.5228      0.00000
     13      10.4730      0.00000
     14      10.5448      0.00000

 k-point     7 :       0.2222    0.1111    0.0000
  band No.  band energies     occupation 
      1      -7.0283      2.00000
      2      -4.5494      2.00000
      3      -4.2277      2.00000
      4       1.3227      2.00000
      5       1.6932      2.00000
      6       2.8385      2.00000
      7       4.1741      2.00000
      8       4.4920      2.00000
      9       4.9887      2.00000
     10       7.1495      0.00000
     11       7.5166      0.00000
     12       8.0504      0.00000
     13       9.8462      0.00000
     14      10.8555      0.00000

 k-point     8 :       0.3333    0.1111    0.0000
  band No.  band energies     occupation 
      1      -6.6524      2.00000
      2      -4.8503      2.00000
      3      -4.1918      2.00000
      4       1.2028      2.00000
      5       1.5539      2.00000
      6       2.4542      2.00000
      7       3.1681      2.00000
      8       4.4715      2.00000
      9       4.7175      2.00000
     10       7.3012      0.00000
     11       7.5356      0.00000
     12       9.1365      0.00000
     13       9.4112      0.00000
     14      11.8039      0.00000

 k-point     9 :       0.4444    0.1111    0.0000
  band No.  band energies     occupation 
      1      -6.4419      2.00000
      2      -5.0454      2.00000
      3      -4.1758      2.00000
      4       1.2528      2.00000
      5       1.5811      2.00000
      6       2.4415      2.00000
      7       2.5021      2.00000
      8       4.5244      2.00000
      9       4.5746      2.00000
     10       7.3226      0.00000
     11       7.5333      0.00000
     12       9.2557      0.00000
     13       9.6270      0.00000
     14      12.8322      0.00000

 k-point    10 :       0.2222    0.2222    0.0000
  band No.  band energies     occupation 
      1      -6.6973      2.00000
      2      -4.6869      2.00000
      3      -4.3313      2.00000
      4       1.3125      2.00000
      5       1.3974      2.00000
      6       2.8085      2.00000
      7       3.6459      2.00000
      8       3.9962      2.00000
      9       3.9981      2.00000
     10       8.0040      0.00000
     11       8.2592      0.00000
     12       8.4138      0.00000
     13      10.2577      0.00000
     14      10.5937      0.00000

 k-point    11 :       0.3333    0.2222    0.0000
  band No.  band energies     occupation 
      1      -6.3989      2.00000
      2      -4.8687      2.00000
      3      -4.4202      2.00000
      4       1.3994      2.00000
      5       1.5205      2.00000
      6       2.5999      2.00000
      7       2.9221      2.00000
      8       3.6556      2.00000
      9       3.7259      2.00000
     10       8.2319      0.00000
     11       8.5019      0.00000
     12       9.2282      0.00000
     13      10.1818      0.00000
     14      11.5300      0.00000

 k-point    12 :       0.3333    0.3333    0.0000
  band No.  band energies     occupation 
      1      -6.2833      2.00000
      2      -4.7066      2.00000
      3      -4.7066      2.00000
      4       1.5678      2.00000
      5       1.5678      2.00000
      6       2.8952      2.00000
      7       2.8952      2.00000
      8       3.0305      2.00000
      9       3.2262      2.00000
     10       8.8858      0.00000
     11       8.8858      0.00000
     12       9.1382      0.00000
     13      10.8707      0.00000
     14      11.7675      0.00000

 k-point    13 :       0.0000    0.0000    0.2500
  band No.  band energies     occupation 
      1      -7.3670      2.00000
      2      -5.6510      2.00000
      3      -2.9293      2.00000
      4       2.6053      2.00000
      5       3.0993      2.00000
      6       3.5103      2.00000
      7       4.5123      2.00000
      8       4.5925      2.00000
      9       5.0976      2.00000
     10       6.6296      0.00000
     11       6.6983      0.00000
     12       7.0512      0.00000
     13      10.3476      0.00000
     14      11.4333      0.00000

 k-point    14 :       0.1111    0.0000    0.2500
  band No.  band energies     occupation 
      1      -7.2845      2.00000
      2      -5.5978      2.00000
      3      -3.0387      2.00000
      4       2.2979      2.00000
      5       2.9575      2.00000
      6       3.3912      2.00000
      7       4.2055      2.00000
      8       4.6983      2.00000
      9       4.7398      2.00000
     10       6.8888      0.00000
     11       7.0713      0.00000
     12       7.4520      0.00000
     13      10.4345      0.00000
     14      11.4343      0.00000

 k-point    15 :       0.2222    0.0000    0.2500
  band No.  band energies     occupation 
      1      -7.0519      2.00000
      2      -5.4436      2.00000
      3      -3.3863      2.00000
      4       1.9440      2.00000
      5       2.5566      2.00000
      6       3.0792      2.00000
      7       3.5681      2.00000
      8       4.1776      2.00000
      9       4.6434      2.00000
     10       7.3629      0.00000
     11       7.8498      0.00000
     12       8.2461      0.00000
     13      10.7401      0.00000
     14      11.1693      0.00000

 k-point    16 :       0.3333   -0.0000    0.2500
  band No.  band energies     occupation 
      1      -6.7181      2.00000
      2      -5.2468      2.00000
      3      -3.8719      2.00000
      4       1.6105      2.00000
      5       1.9853      2.00000
      6       2.7144      2.00000
      7       3.1055      2.00000
      8       4.1886      2.00000
      9       4.5592      2.00000
     10       7.4112      0.00000
     11       8.0083      0.00000
     12       9.1258      0.00000
     13      10.2627      0.00000
     14      11.6583      0.00000

 k-point    17 :       0.4444    0.0000    0.2500
  band No.  band energies     occupation 
      1      -6.4022      2.00000
      2      -5.2181      2.00000
      3      -4.1375      2.00000
      4       0.9799      2.00000
      5       1.6820      2.00000
      6       2.4312      2.00000
      7       3.5568      2.00000
      8       4.2315      2.00000
      9       4.5076      2.00000
     10       7.2858      0.00000
     11       7.9605      0.00000
     12       8.9672      0.00000
     13       9.7865      0.00000
     14      12.1378      0.00000

 k-point    18 :      -0.4444   -0.0000    0.2500
  band No.  band energies     occupation 
      1      -6.3637      2.00000
      2      -5.3767      2.00000
      3      -3.9408      2.00000
      4       0.6305      2.00000
      5       1.5765      2.00000
      6       2.3939      2.00000
      7       4.2906      2.00000
      8       4.3663      2.00000
      9       4.6441      2.00000
     10       7.1331      0.00000
     11       7.7668      0.00000
     12       8.1866      0.00000
     13       9.4845      0.00000
     14      12.7128      0.00000

 k-point    19 :      -0.3333    0.0000    0.2500
  band No.  band energies     occupation 
      1      -6.6813      2.00000
      2      -5.4277      2.00000
      3      -3.5810      2.00000
      4       0.8268      2.00000
      5       1.6645      2.00000
      6       2.5444      2.00000
      7       4.5701      2.00000
      8       4.6367      2.00000
      9       5.4697      2.00000
     10       6.8207      0.00000
     11       7.3176      0.00000
     12       7.5276      0.00000
     13       9.3930      0.00000
     14      12.7154      0.00000

 k-point    20 :      -0.2222   -0.0000    0.2500
  band No.  band energies     occupation 
      1      -7.0399      2.00000
      2      -5.5062      2.00000
      3      -3.2472      2.00000
      4       1.5526      2.00000
      5       1.9574      2.00000
      6       2.8433      2.00000
      7       4.8178      2.00000
      8       4.9404      2.00000
      9       5.5625      2.00000
     10       6.5800      0.00000
     11       6.9893      0.00000
     12       7.2357      0.00000
     13       9.6151      0.00000
     14      12.1336      0.00000

 k-point    21 :      -0.1111   -0.0000    0.2500
  band No.  band energies     occupation 
      1      -7.2830      2.00000
      2      -5.6057      2.00000
      3      -3.0167      2.00000
      4       2.3294      2.00000
      5       2.6137      2.00000
      6       3.2392      2.00000
      7       4.6692      2.00000
      8       4.9083      2.00000
      9       5.1541      2.00000
     10       6.5443      0.00000
     11       6.5897      0.00000
     12       7.4680      0.00000
     13      10.1246      0.00000
     14      11.4944      0.00000

 k-point    22 :       0.1111    0.1111    0.2500
  band No.  band energies     occupation 
      1      -7.1230      2.00000
      2      -5.5134      2.00000
      3      -3.2226      2.00000
      4       1.9474      2.00000
      5       2.2444      2.00000
      6       3.1003      2.00000
      7       4.1424      2.00000
      8       4.7018      2.00000
      9       5.0953      2.00000
     10       6.8991      0.00000
     11       7.4254      0.00000
     12       7.5904      0.00000
     13      10.1521      0.00000
     14      11.5362      0.00000

 k-point    23 :       0.2222    0.1111    0.2500
  band No.  band energies     occupation 
      1      -6.8349      2.00000
      2      -5.3412      2.00000
      3      -3.6459      2.00000
      4       1.5775      2.00000
      5       2.0037      2.00000
      6       2.9108      2.00000
      7       3.1735      2.00000
      8       4.2360      2.00000
      9       5.2447      2.00000
     10       7.0849      0.00000
     11       7.7735      0.00000
     12       8.7270      0.00000
     13      10.5463      0.00000
     14      10.9896      0.00000

 k-point    24 :       0.3333    0.1111    0.2500
  band No.  band energies     occupation 
      1      -6.4958      2.00000
      2      -5.1967      2.00000
      3      -4.0784      2.00000
      4       1.2669      2.00000
      5       1.5266      2.00000
      6       2.5996      2.00000
      7       3.2187      2.00000
      8       3.8789      2.00000
      9       5.3021      2.00000
     10       6.9614      0.00000
     11       8.1438      0.00000
     12       9.1230      0.00000
     13      10.1371      0.00000
     14      11.7327      0.00000

 k-point    25 :       0.4444    0.1111    0.2500
  band No.  band energies     occupation 
      1      -6.2896      2.00000
      2      -5.2811      2.00000
      3      -4.1301      2.00000
      4       0.7902      2.00000
      5       1.4146      2.00000
      6       2.4968      2.00000
      7       3.4308      2.00000
      8       4.0897      2.00000
      9       5.3345      2.00000
     10       6.8458      0.00000
     11       8.2136      0.00000
     12       8.5922      0.00000
     13       9.8670      0.00000
     14      12.5036      0.00000

 k-point    26 :      -0.4444    0.1111    0.2500
  band No.  band energies     occupation 
      1      -6.4586      2.00000
      2      -5.3664      2.00000
      3      -3.8519      2.00000
      4       0.6967      2.00000
      5       1.5679      2.00000
      6       2.5020      2.00000
      7       3.4828      2.00000
      8       4.9213      2.00000
      9       5.3944      2.00000
     10       6.7342      0.00000
     11       7.6282      0.00000
     12       8.2136      0.00000
     13       9.7525      0.00000
     14      12.3828      0.00000

 k-point    27 :      -0.3333    0.1111    0.2500
  band No.  band energies     occupation 
      1      -6.8203      2.00000
      2      -5.4151      2.00000
      3      -3.5122      2.00000
      4       1.1592      2.00000
      5       1.8312      2.00000
      6       2.7092      2.00000
      7       3.7222      2.00000
      8       5.1128      2.00000
      9       5.7444      2.00000
     10       6.5350      0.00000
     11       7.1646      0.00000
     12       8.0099      0.00000
     13       9.8039      0.00000
     14      11.7261      0.00000

 k-point    28 :       0.2222    0.2222    0.2500
  band No.  band energies     occupation 
      1      -6.5164      2.00000
      2      -5.2758      2.00000
      3      -3.9309      2.00000
      4       0.9655      2.00000
      5       1.6874      2.00000
      6       2.4824      2.00000
      7       3.0202      2.00000
      8       4.6308      2.00000
      9       5.5928      2.00000
     10       6.8638      0.00000
     11       7.6587      0.00000
     12       8.8497      0.00000
     13      10.4867      0.00000
     14      11.0618      0.00000

 k-point    29 :       0.3333    0.2222    0.2500
  band No.  band energies     occupation 
      1      -6.2477      2.00000
      2      -5.2045      2.00000
      3      -4.2382      2.00000
      4       0.9523      2.00000
      5       1.2767      2.00000
      6       2.1376      2.00000
      7       3.3170      2.00000
      8       4.2022      2.00000
      9       5.3626      2.00000
     10       7.1098      0.00000
     11       8.2754      0.00000
     12       8.8318      0.00000
     13      10.5296      0.00000
     14      11.6450      0.00000

 k-point    30 :       0.4444    0.2222    0.2500
  band No.  band energies     occupation 
      1      -6.2356      2.00000
      2      -5.2557      2.00000
      3      -4.1814      2.00000
      4       0.7894      2.00000
      5       1.3638      2.00000
      6       2.1552      2.00000
      7       3.2403      2.00000
      8       4.5639      2.00000
      9       5.1898      2.00000
     10       7.2680      0.00000
     11       7.9931      0.00000
     12       8.7163      0.00000
     13      10.4405      0.00000
     14      11.8905      0.00000

 k-point    31 :       0.3333    0.3333    0.2500
  band No.  band energies     occupation 
      1      -6.1325      2.00000
      2      -5.2014      2.00000
      3      -4.3297      2.00000
      4       0.9041      2.00000
      5       1.2664      2.00000
      6       1.7569      2.00000
      7       3.5270      2.00000
      8       4.4523      2.00000
      9       4.8442      2.00000
     10       7.8113      0.00000
     11       8.3259      0.00000
     12       8.4161      0.00000
     13      11.3168      0.00000
     14      11.6038      0.00000

 k-point    32 :       0.0000    0.0000    0.5000
  band No.  band energies     occupation 
      1      -6.7057      2.00000
      2      -6.7057      2.00000
      3      -2.2249      2.00000
      4       2.1183      2.00000
      5       3.3500      2.00000
      6       3.3500      2.00000
      7       4.7031      2.00000
      8       5.0234      2.00000
      9       5.0234      2.00000
     10       6.4146      0.00000
     11       6.4146      0.00000
     12       6.4203      0.00000
     13       9.9975      0.00000
     14      11.1953      0.00000

 k-point    33 :       0.1111    0.0000    0.5000
  band No.  band energies     occupation 
      1      -6.6408      2.00000
      2      -6.6248      2.00000
      3      -2.4099      2.00000
      4       2.0820      2.00000
      5       3.1716      2.00000
      6       3.2756      2.00000
      7       4.1540      2.00000
      8       4.5681      2.00000
      9       4.8045      2.00000
     10       6.6786      0.00000
     11       6.8835      0.00000
     12       7.3415      0.00000
     13      10.2286      0.00000
     14      10.9092      0.00000

 k-point    34 :       0.2222    0.0000    0.5000
  band No.  band energies     occupation 
      1      -6.4654      2.00000
      2      -6.3911      2.00000
      3      -2.8895      2.00000
      4       1.7270      2.00000
      5       2.5874      2.00000
      6       2.9953      2.00000
      7       3.9527      2.00000
      8       4.1282      2.00000
      9       4.5701      2.00000
     10       7.1981      0.00000
     11       7.6501      0.00000
     12       8.1629      0.00000
     13      10.3872      0.00000
     14      11.1916      0.00000

 k-point    35 :       0.3333   -0.0000    0.5000
  band No.  band energies     occupation 
      1      -6.2424      2.00000
      2      -6.0422      2.00000
      3      -3.4936      2.00000
      4       0.9245      2.00000
      5       2.3706      2.00000
      6       2.6913      2.00000
      7       3.6983      2.00000
      8       3.9590      2.00000
      9       4.9147      2.00000
     10       7.5092      0.00000
     11       7.9579      0.00000
     12       8.2679      0.00000
     13      10.4161      0.00000
     14      11.5214      0.00000

 k-point    36 :       0.4444    0.0000    0.5000
  band No.  band energies     occupation 
      1      -6.0790      2.00000
      2      -5.7059      2.00000
      3      -3.9851      2.00000
      4       0.3808      2.00000
      5       2.3546      2.00000
      6       2.4645      2.00000
      7       3.5222      2.00000
      8       3.8413      2.00000
      9       5.6203      2.00000
     10       6.9207      0.00000
     11       7.9551      0.00000
     12       8.5373      0.00000
     13      10.5129      0.00000
     14      11.2201      0.00000

 k-point    37 :       0.1111    0.1111    0.5000
  band No.  band energies     occupation 
      1      -6.5164      2.00000
      2      -6.4714      2.00000
      3      -2.7390      2.00000
      4       1.9162      2.00000
      5       2.8002      2.00000
      6       2.8908      2.00000
      7       3.9015      2.00000
      8       4.0922      2.00000
      9       5.0990      2.00000
     10       6.5600      0.00000
     11       7.8283      0.00000
     12       7.9419      0.00000
     13      10.6440      0.00000
     14      10.6643      0.00000

 k-point    38 :       0.2222    0.1111    0.5000
  band No.  band energies     occupation 
      1      -6.3046      2.00000
      2      -6.1883      2.00000
      3      -3.2687      2.00000
      4       1.3494      2.00000
      5       2.1992      2.00000
      6       2.4092      2.00000
      7       3.9157      2.00000
      8       4.3282      2.00000
      9       5.0481      2.00000
     10       6.9549      0.00000
     11       8.1113      0.00000
     12       8.2499      0.00000
     13      10.5014      0.00000
     14      11.3703      0.00000

 k-point    39 :       0.3333    0.1111    0.5000
  band No.  band energies     occupation 
      1      -6.0948      2.00000
      2      -5.8413      2.00000
      3      -3.8132      2.00000
      4       0.6557      2.00000
      5       1.9304      2.00000
      6       2.0896      2.00000
      7       4.0215      2.00000
      8       4.4397      2.00000
      9       5.3206      2.00000
     10       7.2233      0.00000
     11       7.6971      0.00000
     12       8.3134      0.00000
     13      10.5604      0.00000
     14      11.5436      0.00000

 k-point    40 :       0.4444    0.1111    0.5000
  band No.  band energies     occupation 
      1      -6.0042      2.00000
      2      -5.6457      2.00000
      3      -4.0827      2.00000
      4       0.3766      2.00000
      5       1.8666      2.00000
      6       1.9600      2.00000
      7       4.1687      2.00000
      8       4.2600      2.00000
      9       5.8633      2.00000
     10       6.7085      0.00000
     11       7.7794      0.00000
     12       8.2987      0.00000
     13      10.6809      0.00000
     14      11.2612      0.00000

 k-point    41 :       0.2222    0.2222    0.5000
  band No.  band energies     occupation 
      1      -6.0757      2.00000
      2      -5.9242      2.00000
      3      -3.7262      2.00000
      4       1.0019      2.00000
      5       1.4681      2.00000
      6       1.8166      2.00000
      7       4.4082      2.00000
      8       4.7583      2.00000
      9       5.5204      2.00000
     10       6.7898      0.00000
     11       7.9357      0.00000
     12       7.9788      0.00000
     13      10.8163      0.00000
     14      11.6761      0.00000

 k-point    42 :       0.3333    0.2222    0.5000
  band No.  band energies     occupation 
      1      -5.8965      2.00000
      2      -5.7001      2.00000
      3      -4.0761      2.00000
      4       0.6414      2.00000
      5       1.2312      2.00000
      6       1.4180      2.00000
      7       4.7888      2.00000
      8       5.1850      2.00000
      9       5.7912      2.00000
     10       6.7708      0.00000
     11       7.3812      0.00000
     12       7.7273      0.00000
     13      11.1844      0.00000
     14      11.8488      0.00000

 k-point    43 :       0.3333    0.3333    0.5000
  band No.  band energies     occupation 
      1      -5.7274      2.00000
      2      -5.7274      2.00000
      3      -4.1738      2.00000
      4       0.8431      2.00000
      5       0.9605      2.00000
      6       0.9605      2.00000
      7       5.1140      2.00000
      8       6.0268      1.97839
      9       6.0268      1.97839
     10       6.1795      0.04321
     11       7.2402      0.00000
     12       7.2402      0.00000
     13      11.9414      0.00000
     14      12.4610      0.00000


--------------------------------------------------------------------------------------------------------


 soft charge-density along one line, spin component           1
         0         1         2         3         4         5         6         7         8         9
 total charge-density along one line
 
 pseudopotential strength for first ion, spin component:           1
 51.625  56.169  -0.000  -0.000  -0.048  -0.000  -0.000  -0.069
 56.169  61.117  -0.000  -0.000  -0.052  -0.000  -0.000  -0.075
 -0.000  -0.000  12.711   0.009   0.000  18.322   0.013   0.000
 -0.000  -0.000   0.009  12.726   0.000   0.013  18.344   0.000
 -0.048  -0.052   0.000   0.000  12.726   0.000   0.000  18.343
 -0.000  -0.000  18.322   0.013   0.000  26.419   0.019   0.000
 -0.000  -0.000   0.013  18.344   0.000   0.019  26.451   0.000
 -0.069  -0.075   0.000   0.000  18.343   0.000   0.000  26.450
  0.000   0.000  -0.009   0.000   0.000  -0.014   0.000   0.000
  0.014   0.016  -0.000  -0.000   0.000  -0.000  -0.000   0.000
  0.007   0.007  -0.000  -0.000   0.006  -0.000  -0.000   0.008
  0.000   0.000   0.000  -0.009  -0.000   0.000  -0.013  -0.000
  0.012   0.013   0.000  -0.000  -0.009   0.000  -0.000  -0.013
 total augmentation occupancy for first ion, spin component:           1
 13.468  -9.892   0.000  -0.000   2.061   0.000   0.000  -0.533   0.000  -0.164  -0.097   0.000  -0.120
 -9.892   8.538   0.000  -0.000  -1.731   0.000   0.000   0.456   0.000   0.148   0.086   0.000   0.107
  0.000   0.000   2.563   0.211   0.000  -0.506  -0.185   0.000  -0.052   0.000   0.000  -0.048   0.000
  0.000   0.000   0.211   2.903   0.000  -0.185  -0.804  -0.000  -0.047   0.000   0.000  -0.116  -0.000
  2.061  -1.731   0.000   0.000   2.802   0.000  -0.000  -0.747   0.000  -0.053  -0.014   0.000  -0.052
  0.000   0.000  -0.506  -0.185   0.000   0.183   0.069   0.000   0.013   0.000   0.000   0.018   0.000
  0.000   0.000  -0.185  -0.804  -0.000   0.069   0.293   0.000   0.018   0.000  -0.000   0.035   0.000
 -0.533   0.456   0.000  -0.000  -0.747   0.000   0.000   0.263   0.000   0.015   0.003  -0.000   0.013
  0.000   0.000  -0.052  -0.047   0.000   0.013   0.018   0.000   0.010   0.000   0.000   0.011   0.000
 -0.164   0.148   0.000   0.000  -0.053   0.000   0.000   0.015   0.000   0.015   0.004   0.000   0.004
 -0.097   0.086   0.000   0.000  -0.014  -0.000  -0.000   0.003  -0.000   0.004   0.007   0.000  -0.001
  0.000   0.000  -0.048  -0.116   0.000   0.018   0.035  -0.000   0.011   0.000  -0.000   0.027   0.000
 -0.120   0.107   0.000   0.000  -0.052   0.000   0.000   0.013   0.000   0.004  -0.001   0.000   0.010


------------------------ aborting loop because EDIFF is reached ----------------------------------------


    CHARGE:  cpu time    0.0251: real time    0.0252
    FORLOC:  cpu time    0.0009: real time    0.0009
    FORNL :  cpu time    0.0964: real time    0.0966
    STRESS:  cpu time    0.2169: real time    0.2176
    FORCOR:  cpu time    0.0182: real time    0.0182
    FORHAR:  cpu time    0.0039: real time    0.0039
    MIXING:  cpu time    0.0007: real time    0.0008
    OFIELD:  cpu time    0.0000: real time    0.0000

  Hirshfeld charges:
            ion         q(e)     
   ------------------------------
      1     Te         -0.000
      2     Te         -0.000
      3     Te          0.000

  Tkatchenko/Scheffler method for vdW energy calculation
  ---------------------------------------------------------------------------------------------

  Parameters of vdW forcefield:
            C6ts              R0ts           ALPHAts        RELVOL
            (au)              (au)            (au)                
   ---------------------------------------------------------------
   Te        395.365          4.213         37.620          0.999
   Te        395.365          4.213         37.620          0.999
   Te        395.365          4.213         37.620          0.999

  Number of pair interactions contributing to vdW energy:   31050
  Edisp (eV):   -0.69930
    FORVDW:  cpu time    0.1433: real time    0.1437

  FORCE on cell =-STRESS in cart. coord.  units (eV):
  Direction    XX          YY          ZZ          XY          YZ          ZX
  --------------------------------------------------------------------------------------
  Alpha Z     2.30632     2.30632     2.30632
  Ewald    -237.49951  -237.49951  -202.05676    -0.00000    -0.00001     0.00000
  Hartree    11.15817    11.15816    20.07672     0.00000     0.00000    -0.00000
  E(xc)     -70.39679   -70.39679   -69.94779    -0.00000     0.00000     0.00000
  Local    -111.80441  -111.80446  -147.60662    -0.00004     0.00000    -0.00000
  n-local   332.03386   332.87432   328.44755    -1.25041    -0.70027    -1.20876
  augment   -81.04904   -81.04899   -78.94954     0.00004    -0.00000     0.00000
  Kinetic   151.97598   158.88021   148.53642    -7.61056     0.18467     1.67457
  Fock        0.00000     0.00000     0.00000     0.00000     0.00000     0.00000
  vdW        -0.72914    -0.72914    -0.88016     0.00000    -0.00000    -0.00000
  -------------------------------------------------------------------------------------
  Total      -0.13222    -0.13222    -0.07386     0.00000     0.00000    -0.00000
  in kB      -2.09016    -2.09016    -1.16758     0.00000     0.00000    -0.00000
  external pressure =       -1.78 kB  Pullay stress =        0.00 kB


 VOLUME and BASIS-vectors are now :
 -----------------------------------------------------------------------------
  energy-cutoff  :      520.00
  volume of cell :      101.35
      direct lattice vectors                 reciprocal lattice vectors
     4.443951141  0.000000000  0.000000000     0.225024976  0.129918231 -0.000000000
    -2.221975570  3.848574581 -0.000000000    -0.000000000  0.259836461  0.000000000
     0.000000000 -0.000000000  5.926092804    -0.000000000  0.000000000  0.168745248

  length of vectors
     4.443951141  4.443951141  5.926092804     0.259836461  0.259836461  0.168745248


 FORCES acting on ions
    electron-ion (+dipol)            ewald-force                    non-local-force                 convergence-correction
 -----------------------------------------------------------------------------------------------
   -.108E+02 0.113E-04 -.104E-05   0.157E+02 0.158E-05 0.154E-05   -.480E+01 0.110E-18 0.000E+00   0.617E-02 0.105E-06 -.552E-08
   0.540E+01 -.936E+01 -.184E-04   -.783E+01 0.136E+02 -.821E-05   0.240E+01 -.415E+01 0.000E+00   -.308E-02 0.534E-02 0.860E-08
   0.540E+01 0.936E+01 0.191E-04   -.783E+01 -.136E+02 0.667E-05   0.240E+01 0.415E+01 0.000E+00   -.308E-02 -.534E-02 -.321E-08
 -----------------------------------------------------------------------------------------------
   0.259E-04 -.787E-05 -.321E-06   -.888E-15 0.000E+00 0.347E-17   -.888E-15 -.888E-15 0.000E+00   0.463E-07 0.953E-07 -.126E-09
 
 
 POSITION                                       TOTAL-FORCE (eV/Angst)
 -----------------------------------------------------------------------------------
      1.21580     -0.00000      1.97536         0.051628     -0.000000      0.000000
     -0.60790      1.05291      3.95073        -0.025814      0.044711     -0.000000
      1.61408      2.79566      0.00000        -0.025814     -0.044711     -0.000000
 -----------------------------------------------------------------------------------
    total drift:                                0.000026     -0.000008     -0.000000


--------------------------------------------------------------------------------------------------------



  FREE ENERGIE OF THE ION-ELECTRON SYSTEM (eV)
  ---------------------------------------------------
  free  energy   TOTEN  =       -10.11558693 eV

  energy  without entropy=      -10.11553948  energy(sigma->0) =      -10.11556320
 
 d Force = 0.7872718E-02[ 0.470E-02, 0.110E-01]  d Energy = 0.1074246E-01-0.287E-02
 d Force = 0.1513950E+01[ 0.143E+01, 0.160E+01]  d Ewald  = 0.5985210E+01-0.447E+01


--------------------------------------------------------------------------------------------------------


    POTLOK:  cpu time    0.0198: real time    0.0198


--------------------------------------------------------------------------------------------------------




--------------------------------------------------------------------------------------------------------


    WAVPRE:  cpu time    0.0038: real time    0.0068
    FEWALD:  cpu time    0.0001: real time    0.0001
    GENKIN:  cpu time    0.0060: real time    0.0060
    ORTHCH:  cpu time    0.0190: real time    0.0191
     LOOP+:  cpu time    2.4938: real time    2.5098


--------------------------------------- Iteration      7(   1)  ---------------------------------------


    POTLOK:  cpu time    0.0178: real time    0.0190
    SETDIJ:  cpu time    0.0024: real time    0.0024
     EDDAV:  cpu time    0.3208: real time    0.3218
       DOS:  cpu time    0.0006: real time    0.0006
    CHARGE:  cpu time    0.0248: real time    0.0249
    MIXING:  cpu time    0.0006: real time    0.0006
    --------------------------------------------
      LOOP:  cpu time    0.3670: real time    0.3693

 eigenvalue-minimisations  :  1204
 total energy-change (2. order) :-0.7236272E-02  (-0.6865119E+00)
 number of electron      18.0000006 magnetization 
 augmentation part       -3.5766086 magnetization 

 Broyden mixing:
  rms(total) = 0.13475E+00    rms(broyden)= 0.13474E+00
  rms(prec ) = 0.22615E+00
  weight for this iteration     100.00

 Free energy of the ion-electron system (eV)
  ---------------------------------------------------
  alpha Z        PSCENC =         2.40097003
  Ewald energy   TEWEN  =      -688.70455341
  -Hartree energ DENC   =       -41.26410791
  -exchange      EXHF   =         0.00000000
  -V(xc)+E(xc)   XCENC  =       -83.91960075
  PAW double counting   =      1533.60953520    -1418.25002395
  entropy T*S    EENTRO =        -0.00052052
  eigenvalues    EBANDS =        16.89046586
  atomic energy  EATOM  =       669.81430600
  Solvation  Ediel_sol  =         0.00000000
  ---------------------------------------------------
  free energy    TOTEN  =        -9.42352946 eV

  energy without entropy =       -9.42300894  energy(sigma->0) =       -9.42326920


--------------------------------------------------------------------------------------------------------




--------------------------------------- Iteration      7(   2)  ---------------------------------------


    POTLOK:  cpu time    0.0184: real time    0.0185
    SETDIJ:  cpu time    0.0024: real time    0.0024
     EDDAV:  cpu time    0.3565: real time    0.3578
       DOS:  cpu time    0.0006: real time    0.0006
    CHARGE:  cpu time    0.0248: real time    0.0249
    MIXING:  cpu time    0.0007: real time    0.0007
    --------------------------------------------
      LOOP:  cpu time    0.4034: real time    0.4048

 eigenvalue-minimisations  :  1408
 total energy-change (2. order) : 0.2144055E-01  (-0.2736247E-01)
 number of electron      18.0000006 magnetization 
 augmentation part       -3.5763431 magnetization 

 Broyden mixing:
  rms(total) = 0.79411E-01    rms(broyden)= 0.79411E-01
  rms(prec ) = 0.13533E+00
  weight for this iteration     100.00

 eigenvalues of (default mixing * dielectric matrix)
  average eigenvalue GAMMA=   1.0466
  1.0466

 Free energy of the ion-electron system (eV)
  ---------------------------------------------------
  alpha Z        PSCENC =         2.40097003
  Ewald energy   TEWEN  =      -688.70455341
  -Hartree energ DENC   =       -39.98539231
  -exchange      EXHF   =         0.00000000
  -V(xc)+E(xc)   XCENC  =       -83.88275089
  PAW double counting   =      1539.39182774    -1424.01329256
  entropy T*S    EENTRO =        -0.00044611
  eigenvalues    EBANDS =        15.57724260
  atomic energy  EATOM  =       669.81430600
  Solvation  Ediel_sol  =         0.00000000
  ---------------------------------------------------
  free energy    TOTEN  =        -9.40208891 eV

  energy without entropy =       -9.40164281  energy(sigma->0) =       -9.40186586


--------------------------------------------------------------------------------------------------------




--------------------------------------- Iteration      7(   3)  ---------------------------------------


    POTLOK:  cpu time    0.0177: real time    0.0177
    SETDIJ:  cpu time    0.0023: real time    0.0024
     EDDAV:  cpu time    0.3462: real time    0.3473
       DOS:  cpu time    0.0006: real time    0.0006
    CHARGE:  cpu time    0.0251: real time    0.0251
    MIXING:  cpu time    0.0006: real time    0.0006
    --------------------------------------------
      LOOP:  cpu time    0.3925: real time    0.3937

 eigenvalue-minimisations  :  1342
 total energy-change (2. order) : 0.2188634E-01  (-0.3300515E-02)
 number of electron      18.0000006 magnetization 
 augmentation part       -3.6019173 magnetization 

 Broyden mixing:
  rms(total) = 0.45768E-01    rms(broyden)= 0.45768E-01
  rms(prec ) = 0.56967E-01
  weight for this iteration     100.00

 eigenvalues of (default mixing * dielectric matrix)
  average eigenvalue GAMMA=   1.2019
  1.7085  0.6954

 Free energy of the ion-electron system (eV)
  ---------------------------------------------------
  alpha Z        PSCENC =         2.40097003
  Ewald energy   TEWEN  =      -688.70455341
  -Hartree energ DENC   =       -38.89797058
  -exchange      EXHF   =         0.00000000
  -V(xc)+E(xc)   XCENC  =       -83.82287626
  PAW double counting   =      1558.55015546    -1443.16173145
  entropy T*S    EENTRO =        -0.00038025
  eigenvalues    EBANDS =        14.44187791
  atomic energy  EATOM  =       669.81430600
  Solvation  Ediel_sol  =         0.00000000
  ---------------------------------------------------
  free energy    TOTEN  =        -9.38020257 eV

  energy without entropy =       -9.37982231  energy(sigma->0) =       -9.38001244


--------------------------------------------------------------------------------------------------------




--------------------------------------- Iteration      7(   4)  ---------------------------------------


    POTLOK:  cpu time    0.0179: real time    0.0180
    SETDIJ:  cpu time    0.0024: real time    0.0024
     EDDAV:  cpu time    0.3558: real time    0.3570
       DOS:  cpu time    0.0006: real time    0.0006
    CHARGE:  cpu time    0.0248: real time    0.0249
    MIXING:  cpu time    0.0007: real time    0.0007
    --------------------------------------------
      LOOP:  cpu time    0.4021: real time    0.4035

 eigenvalue-minimisations  :  1412
 total energy-change (2. order) : 0.2282075E-02  (-0.5451565E-03)
 number of electron      18.0000006 magnetization 
 augmentation part       -3.6140080 magnetization 

 Broyden mixing:
  rms(total) = 0.72136E-01    rms(broyden)= 0.72136E-01
  rms(prec ) = 0.72348E-01
  weight for this iteration     100.00

 eigenvalues of (default mixing * dielectric matrix)
  average eigenvalue GAMMA=   1.0756
  1.6181  0.8043  0.8043

 Free energy of the ion-electron system (eV)
  ---------------------------------------------------
  alpha Z        PSCENC =         2.40097003
  Ewald energy   TEWEN  =      -688.70455341
  -Hartree energ DENC   =       -38.48499911
  -exchange      EXHF   =         0.00000000
  -V(xc)+E(xc)   XCENC  =       -83.79502336
  PAW double counting   =      1568.45364073    -1453.07179910
  entropy T*S    EENTRO =        -0.00035420
  eigenvalues    EBANDS =        14.00989193
  atomic energy  EATOM  =       669.81430600
  Solvation  Ediel_sol  =         0.00000000
  ---------------------------------------------------
  free energy    TOTEN  =        -9.37792049 eV

  energy without entropy =       -9.37756630  energy(sigma->0) =       -9.37774339


--------------------------------------------------------------------------------------------------------




--------------------------------------- Iteration      7(   5)  ---------------------------------------


    POTLOK:  cpu time    0.0170: real time    0.0170
    SETDIJ:  cpu time    0.0023: real time    0.0023
     EDDAV:  cpu time    0.3792: real time    0.3804
       DOS:  cpu time    0.0006: real time    0.0006
    CHARGE:  cpu time    0.0248: real time    0.0249
    MIXING:  cpu time    0.0007: real time    0.0007
    --------------------------------------------
      LOOP:  cpu time    0.4246: real time    0.4260

 eigenvalue-minimisations  :  1528
 total energy-change (2. order) : 0.6054370E-05  (-0.1449401E-04)
 number of electron      18.0000006 magnetization 
 augmentation part       -3.6141288 magnetization 

 Broyden mixing:
  rms(total) = 0.60030E-01    rms(broyden)= 0.60030E-01
  rms(prec ) = 0.60234E-01
  weight for this iteration     100.00

 eigenvalues of (default mixing * dielectric matrix)
  average eigenvalue GAMMA=   1.9570
  3.9003  0.9767  1.2109  1.7400

 Free energy of the ion-electron system (eV)
  ---------------------------------------------------
  alpha Z        PSCENC =         2.40097003
  Ewald energy   TEWEN  =      -688.70455341
  -Hartree energ DENC   =       -38.48002554
  -exchange      EXHF   =         0.00000000
  -V(xc)+E(xc)   XCENC  =       -83.79447756
  PAW double counting   =      1571.77319305    -1456.39625693
  entropy T*S    EENTRO =        -0.00035417
  eigenvalues    EBANDS =        14.00928411
  atomic energy  EATOM  =       669.81430600
  Solvation  Ediel_sol  =         0.00000000
  ---------------------------------------------------
  free energy    TOTEN  =        -9.37791444 eV

  energy without entropy =       -9.37756027  energy(sigma->0) =       -9.37773735


--------------------------------------------------------------------------------------------------------




--------------------------------------- Iteration      7(   6)  ---------------------------------------


    POTLOK:  cpu time    0.0178: real time    0.0179
    SETDIJ:  cpu time    0.0023: real time    0.0023
     EDDAV:  cpu time    0.3474: real time    0.3485
       DOS:  cpu time    0.0006: real time    0.0006
    CHARGE:  cpu time    0.0254: real time    0.0254
    MIXING:  cpu time    0.0009: real time    0.0009
    --------------------------------------------
      LOOP:  cpu time    0.3943: real time    0.3956

 eigenvalue-minimisations  :  1348
 total energy-change (2. order) : 0.5886623E-04  (-0.2902063E-04)
 number of electron      18.0000006 magnetization 
 augmentation part       -3.6168918 magnetization 

 Broyden mixing:
  rms(total) = 0.20577E-01    rms(broyden)= 0.20577E-01
  rms(prec ) = 0.20728E-01
  weight for this iteration     100.00

 eigenvalues of (default mixing * dielectric matrix)
  average eigenvalue GAMMA=   1.5258
  2.3097  2.3097  0.9512  1.0293  1.0293

 Free energy of the ion-electron system (eV)
  ---------------------------------------------------
  alpha Z        PSCENC =         2.40097003
  Ewald energy   TEWEN  =      -688.70455341
  -Hartree energ DENC   =       -38.38769923
  -exchange      EXHF   =         0.00000000
  -V(xc)+E(xc)   XCENC  =       -83.78919434
  PAW double counting   =      1592.29263654    -1476.93879317
  entropy T*S    EENTRO =        -0.00035033
  eigenvalues    EBANDS =        13.93482235
  atomic energy  EATOM  =       669.81430600
  Solvation  Ediel_sol  =         0.00000000
  ---------------------------------------------------
  free energy    TOTEN  =        -9.37785557 eV

  energy without entropy =       -9.37750525  energy(sigma->0) =       -9.37768041


--------------------------------------------------------------------------------------------------------




--------------------------------------- Iteration      7(   7)  ---------------------------------------


    POTLOK:  cpu time    0.0173: real time    0.0174
    SETDIJ:  cpu time    0.0023: real time    0.0023
     EDDAV:  cpu time    0.3097: real time    0.3108
       DOS:  cpu time    0.0005: real time    0.0005
    --------------------------------------------
      LOOP:  cpu time    0.3298: real time    0.3310

 eigenvalue-minimisations  :  1138
 total energy-change (2. order) : 0.1938711E-05  (-0.3674881E-05)
 number of electron      18.0000006 magnetization 
 augmentation part       -3.6168918 magnetization 

 Free energy of the ion-electron system (eV)
  ---------------------------------------------------
  alpha Z        PSCENC =         2.40097003
  Ewald energy   TEWEN  =      -688.70455341
  -Hartree energ DENC   =       -38.42248330
  -exchange      EXHF   =         0.00000000
  -V(xc)+E(xc)   XCENC  =       -83.79026479
  PAW double counting   =      1588.03833977    -1472.68198366
  entropy T*S    EENTRO =        -0.00035228
  eigenvalues    EBANDS =        13.96816801
  atomic energy  EATOM  =       669.81430600
  Solvation  Ediel_sol  =         0.00000000
  ---------------------------------------------------
  free energy    TOTEN  =        -9.37785363 eV

  energy without entropy =       -9.37750135  energy(sigma->0) =       -9.37767749


--------------------------------------------------------------------------------------------------------




 average (electrostatic) potential at core
  the test charge radii are     1.1897
  (the norm of the test charge is              1.0000)
       1 -88.5326       2 -88.5326       3 -88.5326
 
 
 
 E-fermi :   6.6676     XC(G=0):  -9.2913     alpha+bet :-11.0456


 k-point     1 :       0.0000    0.0000    0.0000
  band No.  band energies     occupation 
      1      -7.2664      2.00000
      2      -3.8580      2.00000
      3      -3.8580      2.00000
      4       3.4944      2.00000
      5       3.8999      2.00000
      6       3.8999      2.00000
      7       4.6840      2.00000
      8       4.6840      2.00000
      9       5.2640      2.00000
     10       7.5643      0.00000
     11       7.5643      0.00000
     12       8.0694      0.00000
     13      11.5174      0.00000
     14      11.5174      0.00000

 k-point     2 :       0.1111    0.0000    0.0000
  band No.  band energies     occupation 
      1      -7.1706      2.00000
      2      -3.8796      2.00000
      3      -3.8346      2.00000
      4       2.7546      2.00000
      5       3.3502      2.00000
      6       3.5191      2.00000
      7       5.1126      2.00000
      8       5.2865      2.00000
      9       5.8734      2.00000
     10       7.1201      0.00000
     11       7.4489      0.00000
     12       7.8645      0.00000
     13      11.0871      0.00000
     14      11.4396      0.00000

 k-point     3 :       0.2222    0.0000    0.0000
  band No.  band energies     occupation 
      1      -6.8916      2.00000
      2      -4.0050      2.00000
      3      -3.7668      2.00000
      4       1.8763      2.00000
      5       2.6814      2.00000
      6       3.0374      2.00000
      7       5.2956      2.00000
      8       5.5664      2.00000
      9       5.7387      2.00000
     10       7.2357      0.00000
     11       7.4682      0.00000
     12       7.9706      0.00000
     13      10.1776      0.00000
     14      11.6570      0.00000

 k-point     4 :       0.3333   -0.0000    0.0000
  band No.  band energies     occupation 
      1      -6.4646      2.00000
      2      -4.3281      2.00000
      3      -3.6772      2.00000
      4       1.5167      2.00000
      5       2.1676      2.00000
      6       2.6699      2.00000
      7       4.0263      2.00000
      8       5.7748      2.00000
      9       5.8277      2.00000
     10       7.1110      0.00000
     11       7.2886      0.00000
     12       9.3144      0.00000
     13       9.4634      0.00000
     14      12.4902      0.00000

 k-point     5 :       0.4444    0.0000    0.0000
  band No.  band energies     occupation 
      1      -6.0161      2.00000
      2      -4.7540      2.00000
      3      -3.6118      2.00000
      4       1.5853      2.00000
      5       1.9753      2.00000
      6       2.5225      2.00000
      7       2.9641      2.00000
      8       5.7746      2.00000
      9       5.8507      2.00000
     10       7.0792      0.00000
     11       7.1532      0.00000
     12       9.0861      0.00000
     13      10.2588      0.00000
     14      13.7597      0.00000

 k-point     6 :       0.1111    0.1111    0.0000
  band No.  band energies     occupation 
      1      -6.9829      2.00000
      2      -3.9296      2.00000
      3      -3.8141      2.00000
      4       2.1747      2.00000
      5       2.4704      2.00000
      6       3.6782      2.00000
      7       4.7073      2.00000
      8       5.9113      2.00000
      9       5.9404      2.00000
     10       7.0609      0.00000
     11       7.3588      0.00000
     12       8.0125      0.00000
     13      10.8390      0.00000
     14      10.8685      0.00000

 k-point     7 :       0.2222    0.1111    0.0000
  band No.  band energies     occupation 
      1      -6.6274      2.00000
      2      -4.1198      2.00000
      3      -3.7853      2.00000
      4       1.6563      2.00000
      5       2.0186      2.00000
      6       3.2598      2.00000
      7       4.6114      2.00000
      8       4.9031      2.00000
      9       5.5734      2.00000
     10       7.5570      0.00000
     11       8.0682      0.00000
     12       8.5391      0.00000
     13      10.1022      0.00000
     14      11.2265      0.00000

 k-point     8 :       0.3333    0.1111    0.0000
  band No.  band energies     occupation 
      1      -6.1687      2.00000
      2      -4.5063      2.00000
      3      -3.7462      2.00000
      4       1.5855      2.00000
      5       1.8982      2.00000
      6       2.7656      2.00000
      7       3.5090      2.00000
      8       4.9151      2.00000
      9       5.2504      2.00000
     10       7.7667      0.00000
     11       8.0143      0.00000
     12       9.6130      0.00000
     13       9.7764      0.00000
     14      12.2523      0.00000

 k-point     9 :       0.4444    0.1111    0.0000
  band No.  band energies     occupation 
      1      -5.8744      2.00000
      2      -4.7910      2.00000
      3      -3.7283      2.00000
      4       1.6866      2.00000
      5       1.9975      2.00000
      6       2.6820      2.00000
      7       2.7414      2.00000
      8       5.0225      2.00000
      9       5.0576      2.00000
     10       7.8301      0.00000
     11       7.9648      0.00000
     12       9.4596      0.00000
     13      10.3013      0.00000
     14      13.4424      0.00000

 k-point    10 :       0.2222    0.2222    0.0000
  band No.  band energies     occupation 
      1      -6.2295      2.00000
      2      -4.2861      2.00000
      3      -3.9321      2.00000
      4       1.6776      2.00000
      5       1.7335      2.00000
      6       3.2550      2.00000
      7       3.9868      2.00000
      8       4.3467      2.00000
      9       4.4173      2.00000
     10       8.6307      0.00000
     11       8.8339      0.00000
     12       8.9205      0.00000
     13      10.6152      0.00000
     14      10.8440      0.00000

 k-point    11 :       0.3333    0.2222    0.0000
  band No.  band energies     occupation 
      1      -5.8300      2.00000
      2      -4.5648      2.00000
      3      -4.0401      2.00000
      4       1.8440      2.00000
      5       1.9533      2.00000
      6       2.9042      2.00000
      7       3.2182      2.00000
      8       3.9708      2.00000
      9       4.0951      2.00000
     10       8.8615      0.00000
     11       9.0547      0.00000
     12       9.8695      0.00000
     13      10.4846      0.00000
     14      11.9178      0.00000

 k-point    12 :       0.3333    0.3333    0.0000
  band No.  band energies     occupation 
      1      -5.6612      2.00000
      2      -4.3973      2.00000
      3      -4.3973      2.00000
      4       2.0826      2.00000
      5       2.0826      2.00000
      6       3.2081      2.00000
      7       3.2081      2.00000
      8       3.3184      2.00000
      9       3.3950      2.00000
     10       9.5617      0.00000
     11       9.5617      0.00000
     12       9.7178      0.00000
     13      11.3652      0.00000
     14      12.0634      0.00000

 k-point    13 :       0.0000    0.0000    0.2500
  band No.  band energies     occupation 
      1      -7.0342      2.00000
      2      -5.2565      2.00000
      3      -2.4173      2.00000
      4       3.2139      2.00000
      5       3.5845      2.00000
      6       3.9340      2.00000
      7       4.9264      2.00000
      8       5.1508      2.00000
      9       5.3840      2.00000
     10       7.0579      0.00000
     11       7.1448      0.00000
     12       7.4797      0.00000
     13      10.7141      0.00000
     14      11.8009      0.00000

 k-point    14 :       0.1111    0.0000    0.2500
  band No.  band energies     occupation 
      1      -6.9424      2.00000
      2      -5.1953      2.00000
      3      -2.5429      2.00000
      4       2.7943      2.00000
      5       3.4967      2.00000
      6       3.8906      2.00000
      7       4.5374      2.00000
      8       4.9566      2.00000
      9       5.2758      2.00000
     10       7.2470      0.00000
     11       7.6335      0.00000
     12       7.9709      0.00000
     13      10.7953      0.00000
     14      11.8062      0.00000

 k-point    15 :       0.2222    0.0000    0.2500
  band No.  band energies     occupation 
      1      -6.6808      2.00000
      2      -5.0133      2.00000
      3      -2.9533      2.00000
      4       2.4454      2.00000
      5       3.0741      2.00000
      6       3.4673      2.00000
      7       3.9036      2.00000
      8       4.5645      2.00000
      9       4.9058      2.00000
     10       8.0082      0.00000
     11       8.4076      0.00000
     12       8.7939      0.00000
     13      11.1624      0.00000
     14      11.5632      0.00000

 k-point    16 :       0.3333   -0.0000    0.2500
  band No.  band energies     occupation 
      1      -6.2948      2.00000
      2      -4.7640      2.00000
      3      -3.5481      2.00000
      4       2.0861      2.00000
      5       2.4659      2.00000
      6       3.0208      2.00000
      7       3.3863      2.00000
      8       4.6146      2.00000
      9       4.8631      2.00000
     10       8.0629      0.00000
     11       8.5585      0.00000
     12       9.7828      0.00000
     13      10.5496      0.00000
     14      12.1600      0.00000

 k-point    17 :       0.4444    0.0000    0.2500
  band No.  band energies     occupation 
      1      -5.8997      2.00000
      2      -4.7543      2.00000
      3      -3.8584      2.00000
      4       1.2885      2.00000
      5       2.1597      2.00000
      6       2.7341      2.00000
      7       3.9145      2.00000
      8       4.6727      2.00000
      9       4.8672      2.00000
     10       7.8954      0.00000
     11       8.4934      0.00000
     12       9.5993      0.00000
     13       9.9956      0.00000
     14      12.7876      0.00000

 k-point    18 :      -0.4444   -0.0000    0.2500
  band No.  band energies     occupation 
      1      -5.8302      2.00000
      2      -5.0147      2.00000
      3      -3.5638      2.00000
      4       0.8659      2.00000
      5       2.0206      2.00000
      6       2.6926      2.00000
      7       4.7746      2.00000
      8       4.8274      2.00000
      9       5.0457      2.00000
     10       7.6830      0.00000
     11       8.2859      0.00000
     12       8.7197      0.00000
     13       9.6609      0.00000
     14      13.4877      0.00000

 k-point    19 :      -0.3333    0.0000    0.2500
  band No.  band energies     occupation 
      1      -6.2427      2.00000
      2      -5.0259      2.00000
      3      -3.1396      2.00000
      4       1.0667      2.00000
      5       2.0949      2.00000
      6       2.8474      2.00000
      7       5.0538      2.00000
      8       5.1857      2.00000
      9       6.0276      2.00000
     10       7.3430      0.00000
     11       7.7005      0.00000
     12       7.9685      0.00000
     13       9.5768      0.00000
     14      13.3868      0.00000

 k-point    20 :      -0.2222   -0.0000    0.2500
  band No.  band energies     occupation 
      1      -6.6655      2.00000
      2      -5.0953      2.00000
      3      -2.7670      2.00000
      4       1.8752      2.00000
      5       2.4009      2.00000
      6       3.1650      2.00000
      7       5.3850      2.00000
      8       5.5353      2.00000
      9       6.1189      2.00000
     10       6.9965      0.00000
     11       7.3610      0.00000
     12       7.6087      0.00000
     13       9.8499      0.00000
     14      12.7151      0.00000

 k-point    21 :      -0.1111   -0.0000    0.2500
  band No.  band energies     occupation 
      1      -6.9406      2.00000
      2      -5.2052      2.00000
      3      -2.5138      2.00000
      4       2.8562      2.00000
      5       3.0446      2.00000
      6       3.6173      2.00000
      7       5.0509      2.00000
      8       5.5272      2.00000
      9       5.7161      2.00000
     10       6.8441      0.00000
     11       6.8996      0.00000
     12       8.0242      0.00000
     13      10.4325      0.00000
     14      11.9157      0.00000

 k-point    22 :       0.1111    0.1111    0.2500
  band No.  band energies     occupation 
      1      -6.7607      2.00000
      2      -5.0988      2.00000
      3      -2.7515      2.00000
      4       2.3923      2.00000
      5       2.6578      2.00000
      6       3.4945      2.00000
      7       4.5941      2.00000
      8       5.1377      2.00000
      9       5.5298      2.00000
     10       7.4053      0.00000
     11       7.9429      0.00000
     12       8.0464      0.00000
     13      10.4509      0.00000
     14      12.0591      0.00000

 k-point    23 :       0.2222    0.1111    0.2500
  band No.  band energies     occupation 
      1      -6.4312      2.00000
      2      -4.8915      2.00000
      3      -3.2588      2.00000
      4       1.9760      2.00000
      5       2.4830      2.00000
      6       3.2589      2.00000
      7       3.5206      2.00000
      8       4.5540      2.00000
      9       5.7353      2.00000
     10       7.6436      0.00000
     11       8.2943      0.00000
     12       9.3432      0.00000
     13      10.9443      0.00000
     14      11.3086      0.00000

 k-point    24 :       0.3333    0.1111    0.2500
  band No.  band energies     occupation 
      1      -6.0243      2.00000
      2      -4.7023      2.00000
      3      -3.8023      2.00000
      4       1.6484      2.00000
      5       1.8857      2.00000
      6       3.0226      2.00000
      7       3.5782      2.00000
      8       4.1312      2.00000
      9       5.8511      2.00000
     10       7.4290      0.00000
     11       8.7482      0.00000
     12       9.7785      0.00000
     13      10.4263      0.00000
     14      12.1994      0.00000

 k-point    25 :       0.4444    0.1111    0.2500
  band No.  band energies     occupation 
      1      -5.7400      2.00000
      2      -4.8815      2.00000
      3      -3.8190      2.00000
      4       1.0629      2.00000
      5       1.7851      2.00000
      6       2.9232      2.00000
      7       3.7481      2.00000
      8       4.4621      2.00000
      9       5.9359      2.00000
     10       7.2374      0.00000
     11       8.8274      0.00000
     12       9.1723      0.00000
     13      10.1155      0.00000
     14      13.1744      0.00000

 k-point    26 :      -0.4444    0.1111    0.2500
  band No.  band energies     occupation 
      1      -5.9646      2.00000
      2      -4.9733      2.00000
      3      -3.4639      2.00000
      4       0.9339      2.00000
      5       1.9821      2.00000
      6       2.8631      2.00000
      7       3.8153      2.00000
      8       5.4669      2.00000
      9       5.9958      2.00000
     10       7.0966      0.00000
     11       8.1031      0.00000
     12       8.7821      0.00000
     13       9.9895      0.00000
     14      12.9132      0.00000

 k-point    27 :      -0.3333    0.1111    0.2500
  band No.  band energies     occupation 
      1      -6.4116      2.00000
      2      -4.9938      2.00000
      3      -3.0757      2.00000
      4       1.4437      2.00000
      5       2.2849      2.00000
      6       3.0353      2.00000
      7       4.1092      2.00000
      8       5.7056      2.00000
      9       6.3728      2.00000
     10       6.9773      0.00000
     11       7.4567      0.00000
     12       8.5561      0.00000
     13      10.0468      0.00000
     14      12.2056      0.00000

 k-point    28 :       0.2222    0.2222    0.2500
  band No.  band energies     occupation 
      1      -6.0476      2.00000
      2      -4.8272      2.00000
      3      -3.5902      2.00000
      4       1.2476      2.00000
      5       2.1567      2.00000
      6       2.8031      2.00000
      7       3.3303      2.00000
      8       5.0761      2.00000
      9       6.1905      2.00000
     10       7.3115      0.00000
     11       8.1170      0.00000
     12       9.4909      0.00000
     13      10.8354      0.00000
     14      11.4264      0.00000

 k-point    29 :       0.3333    0.2222    0.2500
  band No.  band energies     occupation 
      1      -5.6960      2.00000
      2      -4.7453      2.00000
      3      -3.9911      2.00000
      4       1.2730      2.00000
      5       1.6097      2.00000
      6       2.4452      2.00000
      7       3.7799      2.00000
      8       4.5367      2.00000
      9       5.9006      2.00000
     10       7.5650      0.00000
     11       8.8773      0.00000
     12       9.4453      0.00000
     13      10.8832      0.00000
     14      12.0623      0.00000

 k-point    30 :       0.4444    0.2222    0.2500
  band No.  band energies     occupation 
      1      -5.6711      2.00000
      2      -4.8433      2.00000
      3      -3.8938      2.00000
      4       1.0664      2.00000
      5       1.7318      2.00000
      6       2.4673      2.00000
      7       3.6356      2.00000
      8       5.0373      2.00000
      9       5.6485      2.00000
     10       7.7854      0.00000
     11       8.5000      0.00000
     12       9.3457      0.00000
     13      10.7641      0.00000
     14      12.3487      0.00000

 k-point    31 :       0.3333    0.3333    0.2500
  band No.  band energies     occupation 
      1      -5.5258      2.00000
      2      -4.7608      2.00000
      3      -4.1151      2.00000
      4       1.2435      2.00000
      5       1.6272      2.00000
      6       1.9494      2.00000
      7       4.0901      2.00000
      8       4.8734      2.00000
      9       5.1739      2.00000
     10       8.5004      0.00000
     11       8.8462      0.00000
     12       8.9361      0.00000
     13      11.7951      0.00000
     14      12.0604      0.00000

 k-point    32 :       0.0000    0.0000    0.5000
  band No.  band energies     occupation 
      1      -6.3498      2.00000
      2      -6.3498      2.00000
      3      -1.6724      2.00000
      4       2.6988      2.00000
      5       3.7705      2.00000
      6       3.7705      2.00000
      7       5.2288      2.00000
      8       5.6021      2.00000
      9       5.6021      2.00000
     10       6.6968      0.40765
     11       6.6968      0.40763
     12       6.7102      0.22829
     13      10.3990      0.00000
     14      11.4866      0.00000

 k-point    33 :       0.1111    0.0000    0.5000
  band No.  band energies     occupation 
      1      -6.2755      2.00000
      2      -6.2607      2.00000
      3      -1.8869      2.00000
      4       2.6803      2.00000
      5       3.6085      2.00000
      6       3.7459      2.00000
      7       4.4669      2.00000
      8       5.0156      2.00000
      9       5.2413      2.00000
     10       7.0611      0.00000
     11       7.2978      0.00000
     12       7.8572      0.00000
     13      10.6300      0.00000
     14      11.2248      0.00000

 k-point    34 :       0.2222    0.0000    0.5000
  band No.  band energies     occupation 
      1      -6.0734      2.00000
      2      -5.9993      2.00000
      3      -2.4394      2.00000
      4       2.2420      2.00000
      5       3.0098      2.00000
      6       3.4711      2.00000
      7       4.3020      2.00000
      8       4.4708      2.00000
      9       4.8896      2.00000
     10       7.7480      0.00000
     11       8.1621      0.00000
     12       8.7844      0.00000
     13      10.6708      0.00000
     14      11.6921      0.00000

 k-point    35 :       0.3333   -0.0000    0.5000
  band No.  band energies     occupation 
      1      -5.8123      2.00000
      2      -5.5935      2.00000
      3      -3.1414      2.00000
      4       1.2509      2.00000
      5       2.8643      2.00000
      6       3.1884      2.00000
      7       3.9977      2.00000
      8       4.2226      2.00000
      9       5.3233      2.00000
     10       8.2168      0.00000
     11       8.4910      0.00000
     12       8.8471      0.00000
     13      10.7066      0.00000
     14      12.0819      0.00000

 k-point    36 :       0.4444    0.0000    0.5000
  band No.  band energies     occupation 
      1      -5.6173      2.00000
      2      -5.1584      2.00000
      3      -3.7545      2.00000
      4       0.6242      2.00000
      5       2.8612      2.00000
      6       2.9780      2.00000
      7       3.7869      2.00000
      8       4.0630      2.00000
      9       6.1596      2.00000
     10       7.4204      0.00000
     11       8.6431      0.00000
     12       9.1498      0.00000
     13      10.9086      0.00000
     14      11.5412      0.00000

 k-point    37 :       0.1111    0.1111    0.5000
  band No.  band energies     occupation 
      1      -6.1320      2.00000
      2      -6.0903      2.00000
      3      -2.2659      2.00000
      4       2.5049      2.00000
      5       3.2112      2.00000
      6       3.3377      2.00000
      7       4.1743      2.00000
      8       4.3988      2.00000
      9       5.6746      2.00000
     10       6.8556      0.00000
     11       8.4614      0.00000
     12       8.5021      0.00000
     13      10.9835      0.00000
     14      11.0467      0.00000

 k-point    38 :       0.2222    0.1111    0.5000
  band No.  band energies     occupation 
      1      -5.8850      2.00000
      2      -5.7679      2.00000
      3      -2.8757      2.00000
      4       1.7721      2.00000
      5       2.5824      2.00000
      6       2.8030      2.00000
      7       4.2275      2.00000
      8       4.7599      2.00000
      9       5.5151      2.00000
     10       7.4013      0.00000
     11       8.7468      0.00000
     12       8.8571      0.00000
     13      10.8373      0.00000
     14      11.8351      0.00000

 k-point    39 :       0.3333    0.1111    0.5000
  band No.  band energies     occupation 
      1      -5.6363      2.00000
      2      -5.3443      2.00000
      3      -3.5259      2.00000
      4       0.9373      2.00000
      5       2.3026      2.00000
      6       2.4794      2.00000
      7       4.3747      2.00000
      8       4.9034      2.00000
      9       5.7729      2.00000
     10       7.8559      0.00000
     11       8.1900      0.00000
     12       8.9140      0.00000
     13      10.9329      0.00000
     14      11.9946      0.00000

 k-point    40 :       0.4444    0.1111    0.5000
  band No.  band energies     occupation 
      1      -5.5272      2.00000
      2      -5.0688      2.00000
      3      -3.8854      2.00000
      4       0.6139      2.00000
      5       2.2185      2.00000
      6       2.3593      2.00000
      7       4.5666      2.00000
      8       4.6564      2.00000
      9       6.4678      2.00000
     10       7.1394      0.00000
     11       8.4329      0.00000
     12       8.8396      0.00000
     13      11.1461      0.00000
     14      11.5569      0.00000

 k-point    41 :       0.2222    0.2222    0.5000
  band No.  band energies     occupation 
      1      -5.6104      2.00000
      2      -5.4542      2.00000
      3      -3.4135      2.00000
      4       1.3774      2.00000
      5       1.7219      2.00000
      6       2.1458      2.00000
      7       4.8635      2.00000
      8       5.2312      2.00000
      9       6.1151      2.00000
     10       7.1767      0.00000
     11       8.5193      0.00000
     12       8.5213      0.00000
     13      11.2439      0.00000
     14      12.1203      0.00000

 k-point    42 :       0.3333    0.2222    0.5000
  band No.  band energies     occupation 
      1      -5.3932      2.00000
      2      -5.1511      2.00000
      3      -3.8606      2.00000
      4       0.9081      2.00000
      5       1.5008      2.00000
      6       1.7214      2.00000
      7       5.3460      2.00000
      8       5.7397      2.00000
      9       6.3118      2.00000
     10       7.3623      0.00000
     11       7.7732      0.00000
     12       8.1827      0.00000
     13      11.6579      0.00000
     14      12.2740      0.00000

 k-point    43 :       0.3333    0.3333    0.5000
  band No.  band energies     occupation 
      1      -5.1770      2.00000
      2      -5.1770      2.00000
      3      -3.9926      2.00000
      4       1.1704      2.00000
      5       1.1836      2.00000
      6       1.1836      2.00000
      7       5.8336      2.00000
      8       6.6279      1.73839
      9       6.6279      1.73838
     10       6.7802      0.00144
     11       7.5215      0.00000
     12       7.5215      0.00000
     13      12.5294      0.00000
     14      12.8910      0.00000


--------------------------------------------------------------------------------------------------------


 soft charge-density along one line, spin component           1
         0         1         2         3         4         5         6         7         8         9
 total charge-density along one line
 
 pseudopotential strength for first ion, spin component:           1
 51.438  55.966  -0.000  -0.000  -0.038  -0.000  -0.000  -0.056
 55.966  60.896  -0.000  -0.000  -0.042  -0.000  -0.000  -0.061
 -0.000  -0.000  12.675   0.008   0.000  18.269   0.011   0.000
 -0.000  -0.000   0.008  12.687   0.000   0.011  18.287   0.000
 -0.038  -0.042   0.000   0.000  12.687   0.000   0.000  18.287
 -0.000  -0.000  18.269   0.011   0.000  26.343   0.016   0.000
 -0.000  -0.000   0.011  18.287   0.000   0.016  26.368   0.000
 -0.056  -0.061   0.000   0.000  18.287   0.000   0.000  26.369
  0.000   0.000  -0.007   0.000  -0.000  -0.011   0.000  -0.000
  0.012   0.013   0.000  -0.000   0.000   0.000  -0.000   0.000
  0.005   0.006   0.000  -0.000   0.005   0.000  -0.000   0.007
  0.000   0.000   0.000  -0.007  -0.000   0.000  -0.010  -0.000
  0.010   0.011   0.000  -0.000  -0.007   0.000  -0.000  -0.011
 total augmentation occupancy for first ion, spin component:           1
 14.467 -10.704   0.000  -0.000   1.638   0.000   0.000  -0.394   0.000  -0.150  -0.086  -0.000  -0.114
-10.704   9.194   0.000   0.000  -1.372   0.000  -0.000   0.336  -0.000   0.134   0.076   0.000   0.101
  0.000   0.000   2.612   0.153   0.000  -0.550  -0.144   0.000  -0.041   0.000   0.000  -0.041  -0.000
  0.000  -0.000   0.153   2.867   0.000  -0.144  -0.783  -0.000  -0.041  -0.000  -0.000  -0.091  -0.000
  1.638  -1.372   0.000   0.000   2.809   0.000  -0.000  -0.751   0.000  -0.045  -0.009   0.000  -0.041
  0.000   0.000  -0.550  -0.144   0.000   0.205   0.051   0.000   0.010   0.000   0.000   0.014   0.000
 -0.000  -0.000  -0.144  -0.783  -0.000   0.051   0.288   0.000   0.014   0.000   0.000   0.025   0.000
 -0.394   0.336   0.000  -0.000  -0.751   0.000   0.000   0.269  -0.000   0.013   0.002   0.000   0.009
  0.000   0.000  -0.041  -0.041   0.000   0.010   0.014   0.000   0.011   0.000   0.000   0.012   0.000
 -0.150   0.134  -0.000   0.000  -0.045   0.000   0.000   0.013   0.000   0.017   0.003   0.000   0.006
 -0.086   0.076  -0.000  -0.000  -0.009   0.000   0.000   0.002   0.000   0.003   0.007   0.000  -0.000
 -0.000  -0.000  -0.041  -0.091   0.000   0.014   0.025   0.000   0.012   0.000   0.000   0.028   0.000
 -0.114   0.101  -0.000  -0.000  -0.041   0.000   0.000   0.009   0.000   0.006  -0.000   0.000   0.011


------------------------ aborting loop because EDIFF is reached ----------------------------------------


    CHARGE:  cpu time    0.0258: real time    0.0258
    FORLOC:  cpu time    0.0010: real time    0.0010
    FORNL :  cpu time    0.0960: real time    0.0963
    STRESS:  cpu time    0.2198: real time    0.2204
    FORCOR:  cpu time    0.0172: real time    0.0173
    FORHAR:  cpu time    0.0036: real time    0.0036
    MIXING:  cpu time    0.0008: real time    0.0008
    OFIELD:  cpu time    0.0000: real time    0.0000

  Hirshfeld charges:
            ion         q(e)     
   ------------------------------
      1     Te         -0.000
      2     Te          0.000
      3     Te          0.000

  Tkatchenko/Scheffler method for vdW energy calculation
  ---------------------------------------------------------------------------------------------

  Parameters of vdW forcefield:
            C6ts              R0ts           ALPHAts        RELVOL
            (au)              (au)            (au)                
   ---------------------------------------------------------------
   Te        395.046          4.212         37.604          0.999
   Te        395.046          4.212         37.604          0.999
   Te        395.046          4.212         37.604          0.999

  Number of pair interactions contributing to vdW energy:   32292
  Edisp (eV):   -0.72811
    FORVDW:  cpu time    0.1454: real time    0.1458

  FORCE on cell =-STRESS in cart. coord.  units (eV):
  Direction    XX          YY          ZZ          XY          YZ          ZX
  --------------------------------------------------------------------------------------
  Alpha Z     2.40097     2.40097     2.40097
  Ewald    -238.26659  -238.26658  -212.17201    -0.00000    -0.00000     0.00000
  Hartree    10.69874    10.69874    17.02600     0.00000     0.00000    -0.00000
  E(xc)     -70.46781   -70.46781   -70.08462    -0.00000     0.00000    -0.00000
  Local    -110.09063  -110.09067  -135.79722    -0.00004     0.00000    -0.00000
  n-local   332.14235   332.99580   329.10237    -1.26909    -0.62564    -1.09777
  augment   -81.03462   -81.03458   -79.34516     0.00004    -0.00000     0.00000
  Kinetic   151.41607   159.09273   150.47876    -8.20945     0.23686     2.05460
  Fock        0.00000     0.00000     0.00000     0.00000     0.00000     0.00000
  vdW        -0.68013    -0.68013    -0.93162     0.00000    -0.00000    -0.00000
  -------------------------------------------------------------------------------------
  Total       0.38341     0.38341     0.67747     0.00000     0.00000    -0.00000
  in kB       6.30970     6.30970    11.14892     0.00000     0.00000    -0.00000
  external pressure =        7.92 kB  Pullay stress =        0.00 kB


 VOLUME and BASIS-vectors are now :
 -----------------------------------------------------------------------------
  energy-cutoff  :      520.00
  volume of cell :       97.36
      direct lattice vectors                 reciprocal lattice vectors
     4.385648074  0.000000000  0.000000000     0.228016472  0.131645371 -0.000000000
    -2.192824037  3.798082644 -0.000000000    -0.000000000  0.263290743  0.000000000
     0.000000000 -0.000000000  5.844825873    -0.000000000  0.000000000  0.171091496

  length of vectors
     4.385648074  4.385648074  5.844825873     0.263290743  0.263290743  0.171091496


 FORCES acting on ions
    electron-ion (+dipol)            ewald-force                    non-local-force                 convergence-correction
 -----------------------------------------------------------------------------------------------
   -.787E+01 0.104E-04 -.714E-06   0.118E+02 0.170E-05 0.120E-05   -.401E+01 0.279E-16 0.000E+00   -.450E-03 -.120E-07 -.437E-10
   0.394E+01 -.682E+01 -.185E-04   -.591E+01 0.102E+02 -.778E-05   0.200E+01 -.347E+01 0.000E+00   0.225E-03 -.390E-03 0.273E-08
   0.394E+01 0.682E+01 0.190E-04   -.591E+01 -.102E+02 0.659E-05   0.200E+01 0.347E+01 0.000E+00   0.225E-03 0.390E-03 -.269E-08
 -----------------------------------------------------------------------------------------------
   0.256E-04 -.923E-05 -.291E-06   0.000E+00 -.178E-14 0.695E-17   -.888E-15 -.444E-15 0.000E+00   0.369E-08 0.106E-07 0.114E-11
 
 
 POSITION                                       TOTAL-FORCE (eV/Angst)
 -----------------------------------------------------------------------------------
      1.26020     -0.00000      1.94828        -0.060895      0.000000     -0.000000
     -0.63010      1.09136      3.89655         0.030447     -0.052737      0.000000
      1.56273      2.70672      0.00000         0.030447      0.052737      0.000000
 -----------------------------------------------------------------------------------
    total drift:                                0.000026     -0.000009     -0.000000


--------------------------------------------------------------------------------------------------------



  FREE ENERGIE OF THE ION-ELECTRON SYSTEM (eV)
  ---------------------------------------------------
  free  energy   TOTEN  =       -10.10596735 eV

  energy  without entropy=      -10.10561507  energy(sigma->0) =      -10.10579121
 
 d Force =-0.8389018E-03[-0.110E-01, 0.935E-02]  d Energy =-0.9619577E-02 0.878E-02
 d Force = 0.2488598E+01[ 0.214E+01, 0.284E+01]  d Ewald  = 0.1164937E+02-0.916E+01


--------------------------------------------------------------------------------------------------------


    POTLOK:  cpu time    0.0190: real time    0.0190


--------------------------------------------------------------------------------------------------------




--------------------------------------------------------------------------------------------------------


    WAVPRE:  cpu time    0.0037: real time    0.0065
    FEWALD:  cpu time    0.0001: real time    0.0001
    GENKIN:  cpu time    0.0058: real time    0.0059
    ORTHCH:  cpu time    0.0190: real time    0.0190
     LOOP+:  cpu time    3.2800: real time    3.2983


--------------------------------------- Iteration      8(   1)  ---------------------------------------


    POTLOK:  cpu time    0.0171: real time    0.0182
    SETDIJ:  cpu time    0.0023: real time    0.0023
     EDDAV:  cpu time    0.3231: real time    0.3242
       DOS:  cpu time    0.0005: real time    0.0005
    CHARGE:  cpu time    0.0256: real time    0.0257
    MIXING:  cpu time    0.0005: real time    0.0005
    --------------------------------------------
      LOOP:  cpu time    0.3692: real time    0.3714

 eigenvalue-minimisations  :  1204
 total energy-change (2. order) :-0.5003469E-01  (-0.3057532E+00)
 number of electron      18.0000001 magnetization 
 augmentation part       -3.6271663 magnetization 

 Broyden mixing:
  rms(total) = 0.10772E+00    rms(broyden)= 0.10772E+00
  rms(prec ) = 0.16017E+00
  weight for this iteration     100.00

 Free energy of the ion-electron system (eV)
  ---------------------------------------------------
  alpha Z        PSCENC =         2.33552480
  Ewald energy   TEWEN  =      -680.74153364
  -Hartree energ DENC   =       -39.18064493
  -exchange      EXHF   =         0.00000000
  -V(xc)+E(xc)   XCENC  =       -83.82870055
  PAW double counting   =      1587.93800561    -1472.58193101
  entropy T*S    EENTRO =        -0.00002427
  eigenvalues    EBANDS =         6.81710774
  atomic energy  EATOM  =       669.81430600
  Solvation  Ediel_sol  =         0.00000000
  ---------------------------------------------------
  free energy    TOTEN  =        -9.42789026 eV

  energy without entropy =       -9.42786600  energy(sigma->0) =       -9.42787813


--------------------------------------------------------------------------------------------------------




--------------------------------------- Iteration      8(   2)  ---------------------------------------


    POTLOK:  cpu time    0.0172: real time    0.0173
    SETDIJ:  cpu time    0.0022: real time    0.0022
     EDDAV:  cpu time    0.3628: real time    0.3640
       DOS:  cpu time    0.0005: real time    0.0005
    CHARGE:  cpu time    0.0246: real time    0.0246
    MIXING:  cpu time    0.0006: real time    0.0006
    --------------------------------------------
      LOOP:  cpu time    0.4079: real time    0.4092

 eigenvalue-minimisations  :  1438
 total energy-change (2. order) : 0.6913006E-02  (-0.1382457E-01)
 number of electron      18.0000001 magnetization 
 augmentation part       -3.6405674 magnetization 

 Broyden mixing:
  rms(total) = 0.66519E-01    rms(broyden)= 0.66519E-01
  rms(prec ) = 0.10140E+00
  weight for this iteration     100.00

 eigenvalues of (default mixing * dielectric matrix)
  average eigenvalue GAMMA=   0.7479
  0.7479

 Free energy of the ion-electron system (eV)
  ---------------------------------------------------
  alpha Z        PSCENC =         2.33552480
  Ewald energy   TEWEN  =      -680.74153364
  -Hartree energ DENC   =       -39.97994471
  -exchange      EXHF   =         0.00000000
  -V(xc)+E(xc)   XCENC  =       -83.85044551
  PAW double counting   =      1594.98723875    -1479.64086102
  entropy T*S    EENTRO =        -0.00003940
  eigenvalues    EBANDS =         7.65477749
  atomic energy  EATOM  =       669.81430600
  Solvation  Ediel_sol  =         0.00000000
  ---------------------------------------------------
  free energy    TOTEN  =        -9.42097726 eV

  energy without entropy =       -9.42093786  energy(sigma->0) =       -9.42095756


--------------------------------------------------------------------------------------------------------




--------------------------------------- Iteration      8(   3)  ---------------------------------------


    POTLOK:  cpu time    0.0173: real time    0.0173
    SETDIJ:  cpu time    0.0022: real time    0.0022
     EDDAV:  cpu time    0.3438: real time    0.3449
       DOS:  cpu time    0.0005: real time    0.0005
    CHARGE:  cpu time    0.0250: real time    0.0250
    MIXING:  cpu time    0.0007: real time    0.0007
    --------------------------------------------
      LOOP:  cpu time    0.3894: real time    0.3906

 eigenvalue-minimisations  :  1342
 total energy-change (2. order) : 0.8318516E-02  (-0.8063650E-03)
 number of electron      18.0000001 magnetization 
 augmentation part       -3.6287423 magnetization 

 Broyden mixing:
  rms(total) = 0.30037E-01    rms(broyden)= 0.30037E-01
  rms(prec ) = 0.51756E-01
  weight for this iteration     100.00

 eigenvalues of (default mixing * dielectric matrix)
  average eigenvalue GAMMA=   1.2066
  0.8105  1.6028

 Free energy of the ion-electron system (eV)
  ---------------------------------------------------
  alpha Z        PSCENC =         2.33552480
  Ewald energy   TEWEN  =      -680.74153364
  -Hartree energ DENC   =       -40.47786895
  -exchange      EXHF   =         0.00000000
  -V(xc)+E(xc)   XCENC  =       -83.87718795
  PAW double counting   =      1584.45692665    -1469.11638672
  entropy T*S    EENTRO =        -0.00004210
  eigenvalues    EBANDS =         8.19360319
  atomic energy  EATOM  =       669.81430600
  Solvation  Ediel_sol  =         0.00000000
  ---------------------------------------------------
  free energy    TOTEN  =        -9.41265874 eV

  energy without entropy =       -9.41261664  energy(sigma->0) =       -9.41263769


--------------------------------------------------------------------------------------------------------




--------------------------------------- Iteration      8(   4)  ---------------------------------------


    POTLOK:  cpu time    0.0170: real time    0.0171
    SETDIJ:  cpu time    0.0023: real time    0.0023
     EDDAV:  cpu time    0.3351: real time    0.3364
       DOS:  cpu time    0.0005: real time    0.0005
    CHARGE:  cpu time    0.0246: real time    0.0247
    MIXING:  cpu time    0.0007: real time    0.0007
    --------------------------------------------
      LOOP:  cpu time    0.3803: real time    0.3817

 eigenvalue-minimisations  :  1282
 total energy-change (2. order) : 0.3780027E-02  (-0.7644489E-03)
 number of electron      18.0000001 magnetization 
 augmentation part       -3.6151497 magnetization 

 Broyden mixing:
  rms(total) = 0.48473E-01    rms(broyden)= 0.48473E-01
  rms(prec ) = 0.48645E-01
  weight for this iteration     100.00

 eigenvalues of (default mixing * dielectric matrix)
  average eigenvalue GAMMA=   1.5998
  1.0810  1.8592  1.8592

 Free energy of the ion-electron system (eV)
  ---------------------------------------------------
  alpha Z        PSCENC =         2.33552480
  Ewald energy   TEWEN  =      -680.74153364
  -Hartree energ DENC   =       -41.04310987
  -exchange      EXHF   =         0.00000000
  -V(xc)+E(xc)   XCENC  =       -83.90939916
  PAW double counting   =      1567.64018511    -1452.29775010
  entropy T*S    EENTRO =        -0.00004533
  eigenvalues    EBANDS =         8.79294348
  atomic energy  EATOM  =       669.81430600
  Solvation  Ediel_sol  =         0.00000000
  ---------------------------------------------------
  free energy    TOTEN  =        -9.40887871 eV

  energy without entropy =       -9.40883339  energy(sigma->0) =       -9.40885605


--------------------------------------------------------------------------------------------------------




--------------------------------------- Iteration      8(   5)  ---------------------------------------


    POTLOK:  cpu time    0.0169: real time    0.0170
    SETDIJ:  cpu time    0.0023: real time    0.0023
     EDDAV:  cpu time    0.3910: real time    0.3922
       DOS:  cpu time    0.0006: real time    0.0006
    CHARGE:  cpu time    0.0254: real time    0.0255
    MIXING:  cpu time    0.0008: real time    0.0008
    --------------------------------------------
      LOOP:  cpu time    0.4370: real time    0.4384

 eigenvalue-minimisations  :  1608
 total energy-change (2. order) : 0.9627996E-05  (-0.2853120E-04)
 number of electron      18.0000001 magnetization 
 augmentation part       -3.6134243 magnetization 

 Broyden mixing:
  rms(total) = 0.21686E-01    rms(broyden)= 0.21686E-01
  rms(prec ) = 0.21728E-01
  weight for this iteration     100.00

 eigenvalues of (default mixing * dielectric matrix)
  average eigenvalue GAMMA=   1.9598
  3.7267  2.0915  1.0105  1.0105

 Free energy of the ion-electron system (eV)
  ---------------------------------------------------
  alpha Z        PSCENC =         2.33552480
  Ewald energy   TEWEN  =      -680.74153364
  -Hartree energ DENC   =       -41.07782704
  -exchange      EXHF   =         0.00000000
  -V(xc)+E(xc)   XCENC  =       -83.91303056
  PAW double counting   =      1558.40961113    -1443.05454780
  entropy T*S    EENTRO =        -0.00004538
  eigenvalues    EBANDS =         8.81867341
  atomic energy  EATOM  =       669.81430600
  Solvation  Ediel_sol  =         0.00000000
  ---------------------------------------------------
  free energy    TOTEN  =        -9.40886909 eV

  energy without entropy =       -9.40882370  energy(sigma->0) =       -9.40884639


--------------------------------------------------------------------------------------------------------




--------------------------------------- Iteration      8(   6)  ---------------------------------------


    POTLOK:  cpu time    0.0175: real time    0.0175
    SETDIJ:  cpu time    0.0024: real time    0.0024
     EDDAV:  cpu time    0.3130: real time    0.3140
       DOS:  cpu time    0.0005: real time    0.0005
    --------------------------------------------
      LOOP:  cpu time    0.3333: real time    0.3344

 eigenvalue-minimisations  :  1154
 total energy-change (2. order) :-0.7910752E-05  (-0.2183414E-05)
 number of electron      18.0000001 magnetization 
 augmentation part       -3.6134243 magnetization 

 Free energy of the ion-electron system (eV)
  ---------------------------------------------------
  alpha Z        PSCENC =         2.33552480
  Ewald energy   TEWEN  =      -680.74153364
  -Hartree energ DENC   =       -41.09901720
  -exchange      EXHF   =         0.00000000
  -V(xc)+E(xc)   XCENC  =       -83.91384235
  PAW double counting   =      1548.74501231    -1433.38147810
  entropy T*S    EENTRO =        -0.00004520
  eigenvalues    EBANDS =         8.83219639
  atomic energy  EATOM  =       669.81430600
  Solvation  Ediel_sol  =         0.00000000
  ---------------------------------------------------
  free energy    TOTEN  =        -9.40887700 eV

  energy without entropy =       -9.40883180  energy(sigma->0) =       -9.40885440


--------------------------------------------------------------------------------------------------------




 average (electrostatic) potential at core
  the test charge radii are     1.1897
  (the norm of the test charge is              1.0000)
       1 -88.8430       2 -88.8430       3 -88.8430
 
 
 
 E-fermi :   6.2916     XC(G=0):  -9.1589     alpha+bet :-10.7445


 k-point     1 :       0.0000    0.0000    0.0000
  band No.  band energies     occupation 
      1      -7.4895      2.00000
      2      -4.1686      2.00000
      3      -4.1686      2.00000
      4       3.1328      2.00000
      5       3.4897      2.00000
      6       3.4897      2.00000
      7       4.4314      2.00000
      8       4.4314      2.00000
      9       5.1452      2.00000
     10       7.1726      0.00000
     11       7.1726      0.00000
     12       7.7282      0.00000
     13      11.1499      0.00000
     14      11.1499      0.00000

 k-point     2 :       0.1111    0.0000    0.0000
  band No.  band energies     occupation 
      1      -7.4003      2.00000
      2      -4.1924      2.00000
      3      -4.1458      2.00000
      4       2.4656      2.00000
      5       3.0094      2.00000
      6       3.2206      2.00000
      7       4.7730      2.00000
      8       5.0177      2.00000
      9       5.5029      2.00000
     10       6.8252      0.00000
     11       7.0843      0.00000
     12       7.5654      0.00000
     13      10.8224      0.00000
     14      11.1006      0.00000

 k-point     3 :       0.2222    0.0000    0.0000
  band No.  band energies     occupation 
      1      -7.1427      2.00000
      2      -4.3120      2.00000
      3      -4.0818      2.00000
      4       1.6437      2.00000
      5       2.3938      2.00000
      6       2.8006      2.00000
      7       4.9118      2.00000
      8       5.2125      2.00000
      9       5.3492      2.00000
     10       6.9367      0.00000
     11       7.1468      0.00000
     12       7.6992      0.00000
     13       9.9989      0.00000
     14      11.3281      0.00000

 k-point     4 :       0.3333   -0.0000    0.0000
  band No.  band energies     occupation 
      1      -6.7577      2.00000
      2      -4.5977      2.00000
      3      -3.9992      2.00000
      4       1.2794      2.00000
      5       1.9176      2.00000
      6       2.4675      2.00000
      7       3.7498      2.00000
      8       5.3382      2.00000
      9       5.3932      2.00000
     10       6.8784      0.00000
     11       7.0404      0.00000
     12       8.9090      0.00000
     13       9.3234      0.00000
     14      12.1315      0.00000

 k-point     5 :       0.4444    0.0000    0.0000
  band No.  band energies     occupation 
      1      -6.3806      2.00000
      2      -4.9470      2.00000
      3      -3.9398      2.00000
      4       1.2984      2.00000
      5       1.7220      2.00000
      6       2.3551      2.00000
      7       2.7744      2.00000
      8       5.2848      2.00000
      9       5.4209      2.00000
     10       6.8766      0.00000
     11       6.9257      0.00000
     12       8.9651      0.00000
     13       9.7940      0.00000
     14      13.3155      0.00000

 k-point     6 :       0.1111    0.1111    0.0000
  band No.  band energies     occupation 
      1      -7.2266      2.00000
      2      -4.2454      2.00000
      3      -4.1225      2.00000
      4       1.9171      2.00000
      5       2.2362      2.00000
      6       3.3165      2.00000
      7       4.4922      2.00000
      8       5.4723      2.00000
      9       5.4822      2.00000
     10       6.8015      0.00000
     11       7.1292      0.00000
     12       7.6618      0.00000
     13      10.5868      0.00000
     14      10.6453      0.00000

 k-point     7 :       0.2222    0.1111    0.0000
  band No.  band energies     occupation 
      1      -6.9024      2.00000
      2      -4.4192      2.00000
      3      -4.0918      2.00000
      4       1.4264      2.00000
      5       1.7947      2.00000
      6       2.9666      2.00000
      7       4.3106      2.00000
      8       4.6186      2.00000
      9       5.1676      2.00000
     10       7.2727      0.00000
     11       7.6812      0.00000
     12       8.1944      0.00000
     13       9.9256      0.00000
     14      10.9700      0.00000

 k-point     8 :       0.3333    0.1111    0.0000
  band No.  band energies     occupation 
      1      -6.5014      2.00000
      2      -4.7457      2.00000
      3      -4.0552      2.00000
      4       1.3212      2.00000
      5       1.6617      2.00000
      6       2.5486      2.00000
      7       3.2726      2.00000
      8       4.6102      2.00000
      9       4.8802      2.00000
     10       7.4427      0.00000
     11       7.6752      0.00000
     12       9.3215      0.00000
     13       9.4818      0.00000
     14      11.9424      0.00000

 k-point     9 :       0.4444    0.1111    0.0000
  band No.  band energies     occupation 
      1      -6.2683      2.00000
      2      -4.9650      2.00000
      3      -4.0387      2.00000
      4       1.3864      2.00000
      5       1.7074      2.00000
      6       2.5157      2.00000
      7       2.5776      2.00000
      8       4.6904      2.00000
      9       4.7114      2.00000
     10       7.4745      0.00000
     11       7.6606      0.00000
     12       9.3192      0.00000
     13       9.8310      0.00000
     14      13.0188      0.00000

 k-point    10 :       0.2222    0.2222    0.0000
  band No.  band energies     occupation 
      1      -6.5509      2.00000
      2      -4.5665      2.00000
      3      -4.2074      2.00000
      4       1.4268      2.00000
      5       1.5015      2.00000
      6       2.9414      2.00000
      7       3.7558      2.00000
      8       4.1025      2.00000
      9       4.1267      2.00000
     10       8.1930      0.00000
     11       8.4324      0.00000
     12       8.5634      0.00000
     13      10.3677      0.00000
     14      10.6717      0.00000

 k-point    11 :       0.3333    0.2222    0.0000
  band No.  band energies     occupation 
      1      -6.2240      2.00000
      2      -4.7748      2.00000
      3      -4.3026      2.00000
      4       1.5365      2.00000
      5       1.6530      2.00000
      6       2.6928      2.00000
      7       3.0142      2.00000
      8       3.7566      2.00000
      9       3.8356      2.00000
     10       8.4214      0.00000
     11       8.6679      0.00000
     12       9.4212      0.00000
     13      10.2768      0.00000
     14      11.6488      0.00000

 k-point    12 :       0.3333    0.3333    0.0000
  band No.  band energies     occupation 
      1      -6.0947      2.00000
      2      -4.6094      2.00000
      3      -4.6094      2.00000
      4       1.7228      2.00000
      5       1.7228      2.00000
      6       2.9930      2.00000
      7       2.9930      2.00000
      8       3.1198      2.00000
      9       3.2803      2.00000
     10       9.0901      0.00000
     11       9.0901      0.00000
     12       9.3115      0.00000
     13      11.0209      0.00000
     14      11.8600      0.00000

 k-point    13 :       0.0000    0.0000    0.2500
  band No.  band energies     occupation 
      1      -7.2627      2.00000
      2      -5.5288      2.00000
      3      -2.7741      2.00000
      4       2.7937      2.00000
      5       3.2444      2.00000
      6       3.6435      2.00000
      7       4.6406      2.00000
      8       4.7611      2.00000
      9       5.1910      2.00000
     10       6.7574      0.00000
     11       6.8361      0.00000
     12       7.1760      0.00000
     13      10.4592      0.00000
     14      11.5455      0.00000

 k-point    14 :       0.1111    0.0000    0.2500
  band No.  band energies     occupation 
      1      -7.1773      2.00000
      2      -5.4732      2.00000
      3      -2.8885      2.00000
      4       2.4546      2.00000
      5       3.1180      2.00000
      6       3.5428      2.00000
      7       4.3084      2.00000
      8       4.7920      2.00000
      9       4.8941      2.00000
     10       6.9982      0.00000
     11       7.2413      0.00000
     12       7.6061      0.00000
     13      10.5446      0.00000
     14      11.5522      0.00000

 k-point    15 :       0.2222    0.0000    0.2500
  band No.  band energies     occupation 
      1      -6.9356      2.00000
      2      -5.3106      2.00000
      3      -3.2554      2.00000
      4       2.0994      2.00000
      5       2.7135      2.00000
      6       3.1998      2.00000
      7       3.6723      2.00000
      8       4.2944      2.00000
      9       4.7257      2.00000
     10       7.5598      0.00000
     11       8.0176      0.00000
     12       8.4100      0.00000
     13      10.8685      0.00000
     14      11.2936      0.00000

 k-point    16 :       0.3333   -0.0000    0.2500
  band No.  band energies     occupation 
      1      -6.5855      2.00000
      2      -5.0989      2.00000
      3      -3.7735      2.00000
      4       1.7576      2.00000
      5       2.1309      2.00000
      6       2.8095      2.00000
      7       3.1942      2.00000
      8       4.3187      2.00000
      9       4.6519      2.00000
     10       7.6080      0.00000
     11       8.1743      0.00000
     12       9.3244      0.00000
     13      10.3528      0.00000
     14      11.8129      0.00000

 k-point    17 :       0.4444    0.0000    0.2500
  band No.  band energies     occupation 
      1      -6.2460      2.00000
      2      -5.0755      2.00000
      3      -4.0529      2.00000
      4       1.0760      2.00000
      5       1.8290      2.00000
      6       2.5239      2.00000
      7       3.6688      2.00000
      8       4.3683      2.00000
      9       4.6153      2.00000
     10       7.4680      0.00000
     11       8.1217      0.00000
     12       9.1590      0.00000
     13       9.8521      0.00000
     14      12.3379      0.00000

 k-point    18 :      -0.4444   -0.0000    0.2500
  band No.  band energies     occupation 
      1      -6.1997      2.00000
      2      -5.2614      2.00000
      3      -3.8289      2.00000
      4       0.7038      2.00000
      5       1.7145      2.00000
      6       2.4854      2.00000
      7       4.4425      2.00000
      8       4.5106      2.00000
      9       4.7628      2.00000
     10       7.2973      0.00000
     11       7.9236      0.00000
     12       8.3461      0.00000
     13       9.5399      0.00000
     14      12.9512      0.00000

 k-point    19 :      -0.3333    0.0000    0.2500
  band No.  band energies     occupation 
      1      -6.5442      2.00000
      2      -5.3032      2.00000
      3      -3.4489      2.00000
      4       0.9015      2.00000
      5       1.7988      2.00000
      6       2.6374      2.00000
      7       4.7203      2.00000
      8       4.8059      2.00000
      9       5.6401      2.00000
     10       6.9783      0.00000
     11       7.4309      0.00000
     12       7.6586      0.00000
     13       9.4497      0.00000
     14      12.9297      0.00000

 k-point    20 :      -0.2222   -0.0000    0.2500
  band No.  band energies     occupation 
      1      -6.9226      2.00000
      2      -5.3791      2.00000
      3      -3.1025      2.00000
      4       1.6531      2.00000
      5       2.0952      2.00000
      6       2.9425      2.00000
      7       4.9938      2.00000
      8       5.1195      2.00000
      9       5.7329      2.00000
     10       6.7098      0.00000
     11       7.1015      0.00000
     12       7.3427      0.00000
     13       9.6865      0.00000
     14      12.3160      0.00000

 k-point    21 :      -0.1111   -0.0000    0.2500
  band No.  band energies     occupation 
      1      -7.1757      2.00000
      2      -5.4817      2.00000
      3      -2.8645      2.00000
      4       2.4946      2.00000
      5       2.7440      2.00000
      6       3.3573      2.00000
      7       4.7863      2.00000
      8       5.0997      2.00000
      9       5.3197      2.00000
     10       6.6356      0.00000
     11       6.6874      0.00000
     12       7.6335      0.00000
     13      10.2185      0.00000
     14      11.6259      0.00000

 k-point    22 :       0.1111    0.1111    0.2500
  band No.  band energies     occupation 
      1      -7.0094      2.00000
      2      -5.3851      2.00000
      3      -3.0803      2.00000
      4       2.0869      2.00000
      5       2.3721      2.00000
      6       3.2212      2.00000
      7       4.2814      2.00000
      8       4.8359      2.00000
      9       5.2284      2.00000
     10       7.0545      0.00000
     11       7.5805      0.00000
     12       7.7243      0.00000
     13      10.2438      0.00000
     14      11.6980      0.00000

 k-point    23 :       0.2222    0.1111    0.2500
  band No.  band energies     occupation 
      1      -6.7083      2.00000
      2      -5.2025      2.00000
      3      -3.5290      2.00000
      4       1.7023      2.00000
      5       2.1496      2.00000
      6       3.0212      2.00000
      7       3.2771      2.00000
      8       4.3347      2.00000
      9       5.3948      2.00000
     10       7.2556      0.00000
     11       7.9287      0.00000
     12       8.9121      0.00000
     13      10.6685      0.00000
     14      11.0903      0.00000

 k-point    24 :       0.3333    0.1111    0.2500
  band No.  band energies     occupation 
      1      -6.3485      2.00000
      2      -5.0464      2.00000
      3      -3.9935      2.00000
      4       1.3846      2.00000
      5       1.6406      2.00000
      6       2.7251      2.00000
      7       3.3292      2.00000
      8       3.9584      2.00000
      9       5.4701      2.00000
     10       7.1034      0.00000
     11       8.3247      0.00000
     12       9.3213      0.00000
     13      10.2275      0.00000
     14      11.8781      0.00000

 k-point    25 :       0.4444    0.1111    0.2500
  band No.  band energies     occupation 
      1      -6.1207      2.00000
      2      -5.1548      2.00000
      3      -4.0375      2.00000
      4       0.8749      2.00000
      5       1.5316      2.00000
      6       2.6236      2.00000
      7       3.5320      2.00000
      8       4.2032      2.00000
      9       5.5170      2.00000
     10       6.9655      0.00000
     11       8.3984      0.00000
     12       8.7667      0.00000
     13       9.9443      0.00000
     14      12.7100      0.00000

 k-point    26 :      -0.4444    0.1111    0.2500
  band No.  band energies     occupation 
      1      -6.3052      2.00000
      2      -5.2436      2.00000
      3      -3.7362      2.00000
      4       0.7705      2.00000
      5       1.6981      2.00000
      6       2.6110      2.00000
      7       3.5861      2.00000
      8       5.0913      2.00000
      9       5.5734      2.00000
     10       6.8486      0.00000
     11       7.7687      0.00000
     12       8.3835      0.00000
     13       9.8256      0.00000
     14      12.5491      0.00000

 k-point    27 :      -0.3333    0.1111    0.2500
  band No.  band energies     occupation 
      1      -6.6922      2.00000
      2      -5.2849      2.00000
      3      -3.3810      2.00000
      4       1.2477      2.00000
      5       1.9723      2.00000
      6       2.8095      2.00000
      7       3.8415      2.00000
      8       5.2940      2.00000
      9       5.9349      2.00000
     10       6.6693      0.00000
     11       7.2535      0.00000
     12       8.1726      0.00000
     13       9.8791      0.00000
     14      11.8749      0.00000

 k-point    28 :       0.2222    0.2222    0.2500
  band No.  band energies     occupation 
      1      -6.3700      2.00000
      2      -5.1376      2.00000
      3      -3.8284      2.00000
      4       1.0531      2.00000
      5       1.8322      2.00000
      6       2.5818      2.00000
      7       3.1155      2.00000
      8       4.7676      2.00000
      9       5.7749      2.00000
     10       7.0025      0.00000
     11       7.7936      0.00000
     12       9.0421      0.00000
     13      10.5960      0.00000
     14      11.1737      0.00000

 k-point    29 :       0.3333    0.2222    0.2500
  band No.  band energies     occupation 
      1      -6.0775      2.00000
      2      -5.0635      2.00000
      3      -4.1622      2.00000
      4       1.0504      2.00000
      5       1.3831      2.00000
      6       2.2315      2.00000
      7       3.4568      2.00000
      8       4.3065      2.00000
      9       5.5272      2.00000
     10       7.2492      0.00000
     11       8.4556      0.00000
     12       9.0163      0.00000
     13      10.6394      0.00000
     14      11.7743      0.00000

 k-point    30 :       0.4444    0.2222    0.2500
  band No.  band energies     occupation 
      1      -6.0624      2.00000
      2      -5.1260      2.00000
      3      -4.0952      2.00000
      4       0.8749      2.00000
      5       1.4802      2.00000
      6       2.2503      2.00000
      7       3.3615      2.00000
      8       4.7089      2.00000
      9       5.3307      2.00000
     10       7.4272      0.00000
     11       8.1435      0.00000
     12       8.9045      0.00000
     13      10.5416      0.00000
     14      12.0320      0.00000

 k-point    31 :       0.3333    0.3333    0.2500
  band No.  band energies     occupation 
      1      -5.9482      2.00000
      2      -5.0646      2.00000
      3      -4.2625      2.00000
      4       1.0060      2.00000
      5       1.3811      2.00000
      6       1.8173      2.00000
      7       3.6962      2.00000
      8       4.5828      2.00000
      9       4.9474      2.00000
     10       8.0218      0.00000
     11       8.4812      0.00000
     12       8.5726      0.00000
     13      11.4620      0.00000
     14      11.7457      0.00000

 k-point    32 :       0.0000    0.0000    0.5000
  band No.  band energies     occupation 
      1      -6.5947      2.00000
      2      -6.5947      2.00000
      3      -2.0589      2.00000
      4       2.3005      2.00000
      5       3.4791      2.00000
      6       3.4791      2.00000
      7       4.8601      2.00000
      8       5.1991      2.00000
      9       5.1991      2.00000
     10       6.4988      0.00000
     11       6.4989      0.00000
     12       6.5161      0.00000
     13      10.1200      0.00000
     14      11.2833      0.00000

 k-point    33 :       0.1111    0.0000    0.5000
  band No.  band energies     occupation 
      1      -6.5269      2.00000
      2      -6.5112      2.00000
      3      -2.2528      2.00000
      4       2.2683      2.00000
      5       3.3055      2.00000
      6       3.4190      2.00000
      7       4.2522      2.00000
      8       4.7057      2.00000
      9       4.9383      2.00000
     10       6.7959      0.00000
     11       7.0074      0.00000
     12       7.4969      0.00000
     13      10.3520      0.00000
     14      11.0051      0.00000

 k-point    34 :       0.2222    0.0000    0.5000
  band No.  band energies     occupation 
      1      -6.3434      2.00000
      2      -6.2687      2.00000
      3      -2.7546      2.00000
      4       1.8877      2.00000
      5       2.7171      2.00000
      6       3.1425      2.00000
      7       4.0555      2.00000
      8       4.2351      2.00000
      9       4.6691      2.00000
     10       7.3666      0.00000
     11       7.8044      0.00000
     12       8.3503      0.00000
     13      10.4748      0.00000
     14      11.3465      0.00000

 k-point    35 :       0.3333   -0.0000    0.5000
  band No.  band energies     occupation 
      1      -6.1089      2.00000
      2      -5.9019      2.00000
      3      -3.3888      2.00000
      4       1.0271      2.00000
      5       2.5214      2.00000
      6       2.8436      2.00000
      7       3.7884      2.00000
      8       4.0428      2.00000
      9       5.0392      2.00000
     10       7.7257      0.00000
     11       8.1179      0.00000
     12       8.4433      0.00000
     13      10.5084      0.00000
     14      11.6907      0.00000

 k-point    36 :       0.4444    0.0000    0.5000
  band No.  band energies     occupation 
      1      -5.9361      2.00000
      2      -5.5373      2.00000
      3      -3.9156      2.00000
      4       0.4572      2.00000
      5       2.5101      2.00000
      6       2.6196      2.00000
      7       3.6029      2.00000
      8       3.9127      2.00000
      9       5.7859      2.00000
     10       7.0756      0.00000
     11       8.1600      0.00000
     12       8.7221      0.00000
     13      10.6385      0.00000
     14      11.3174      0.00000

 k-point    37 :       0.1111    0.1111    0.5000
  band No.  band energies     occupation 
      1      -6.3967      2.00000
      2      -6.3523      2.00000
      3      -2.5971      2.00000
      4       2.0976      2.00000
      5       2.9266      2.00000
      6       3.0288      2.00000
      7       3.9875      2.00000
      8       4.1854      2.00000
      9       5.2716      2.00000
     10       6.6529      0.00000
     11       8.0213      0.00000
     12       8.1101      0.00000
     13      10.7632      0.00000
     14      10.7689      0.00000

 k-point    38 :       0.2222    0.1111    0.5000
  band No.  band energies     occupation 
      1      -6.1743      2.00000
      2      -6.0568      2.00000
      3      -3.1514      2.00000
      4       1.4821      2.00000
      5       2.3172      2.00000
      6       2.5313      2.00000
      7       4.0114      2.00000
      8       4.4585      2.00000
      9       5.1909      2.00000
     10       7.0924      0.00000
     11       8.3044      0.00000
     12       8.4316      0.00000
     13      10.6066      0.00000
     14      11.5148      0.00000

 k-point    39 :       0.3333    0.1111    0.5000
  band No.  band energies     occupation 
      1      -5.9528      2.00000
      2      -5.6866      2.00000
      3      -3.7279      2.00000
      4       0.7442      2.00000
      5       2.0452      2.00000
      6       2.2109      2.00000
      7       4.1290      2.00000
      8       4.5809      2.00000
      9       5.4595      2.00000
     10       7.4193      0.00000
     11       7.8440      0.00000
     12       8.4931      0.00000
     13      10.6780      0.00000
     14      11.6807      0.00000

 k-point    40 :       0.4444    0.1111    0.5000
  band No.  band energies     occupation 
      1      -5.8567      2.00000
      2      -5.4697      2.00000
      3      -4.0219      2.00000
      4       0.4512      2.00000
      5       1.9741      2.00000
      6       2.0856      2.00000
      7       4.2889      2.00000
      8       4.3821      2.00000
      9       6.0464      2.00000
     10       6.8450      0.00000
     11       7.9734      0.00000
     12       8.4618      0.00000
     13      10.8245      0.00000
     14      11.3533      0.00000

 k-point    41 :       0.2222    0.2222    0.5000
  band No.  band energies     occupation 
      1      -5.9319      2.00000
      2      -5.7772      2.00000
      3      -3.6335      2.00000
      4       1.1185      2.00000
      5       1.5470      2.00000
      6       1.9193      2.00000
      7       4.5493      2.00000
      8       4.9013      2.00000
      9       5.6988      2.00000
     10       6.9145      0.00000
     11       8.1097      0.00000
     12       8.1413      0.00000
     13      10.9490      0.00000
     14      11.8144      0.00000

 k-point    42 :       0.3333    0.2222    0.5000
  band No.  band energies     occupation 
      1      -5.7413      2.00000
      2      -5.5312      2.00000
      3      -4.0109      2.00000
      4       0.7259      2.00000
      5       1.3136      2.00000
      6       1.5123      2.00000
      7       4.9620      2.00000
      8       5.3514      2.00000
      9       5.9521      2.00000
     10       6.9550      0.00000
     11       7.4984      0.00000
     12       7.8608      0.00000
     13      11.3321      0.00000
     14      11.9787      0.00000

 k-point    43 :       0.3333    0.3333    0.5000
  band No.  band energies     occupation 
      1      -5.5589      2.00000
      2      -5.5589      2.00000
      3      -4.1174      2.00000
      4       0.9474      2.00000
      5       1.0287      2.00000
      6       1.0287      2.00000
      7       5.3316      2.00000
      8       6.2097      1.97958
      9       6.2097      1.97958
     10       6.3639      0.04084
     11       7.3263      0.00000
     12       7.3263      0.00000
     13      12.1222      0.00000
     14      12.5928      0.00000


--------------------------------------------------------------------------------------------------------


 soft charge-density along one line, spin component           1
         0         1         2         3         4         5         6         7         8         9
 total charge-density along one line
 
 pseudopotential strength for first ion, spin component:           1
 51.569  56.109  -0.000  -0.000  -0.045  -0.000  -0.000  -0.065
 56.109  61.051  -0.000  -0.000  -0.049  -0.000  -0.000  -0.071
 -0.000  -0.000  12.700   0.009   0.000  18.306   0.013   0.000
 -0.000  -0.000   0.009  12.714   0.000   0.013  18.327   0.000
 -0.045  -0.049   0.000   0.000  12.714   0.000   0.000  18.327
 -0.000  -0.000  18.306   0.013   0.000  26.396   0.019   0.000
 -0.000  -0.000   0.013  18.327   0.000   0.019  26.426   0.000
 -0.065  -0.071   0.000   0.000  18.327   0.000   0.000  26.426
  0.000   0.000  -0.009   0.000  -0.000  -0.013   0.000  -0.000
  0.014   0.015   0.000  -0.000   0.000   0.000  -0.000   0.000
  0.006   0.007   0.000  -0.000   0.005   0.000  -0.000   0.008
  0.000   0.000   0.000  -0.008  -0.000   0.000  -0.012  -0.000
  0.011   0.012   0.000  -0.000  -0.009   0.000  -0.000  -0.013
 total augmentation occupancy for first ion, spin component:           1
 13.872 -10.198   0.000   0.000   1.937   0.000   0.000  -0.489  -0.000  -0.160  -0.093   0.000  -0.119
-10.198   8.763   0.000  -0.000  -1.626   0.000   0.000   0.419   0.000   0.144   0.083  -0.000   0.106
  0.000   0.000   2.570   0.194   0.000  -0.515  -0.173  -0.000  -0.049   0.000   0.000  -0.047   0.000
  0.000  -0.000   0.194   2.883   0.000  -0.173  -0.793  -0.000  -0.045   0.000  -0.000  -0.108   0.000
  1.937  -1.626   0.000   0.000   2.797   0.000  -0.000  -0.745   0.000  -0.051  -0.013   0.000  -0.049
  0.000   0.000  -0.515  -0.173   0.000   0.189   0.063   0.000   0.012   0.000   0.000   0.017   0.000
 -0.000   0.000  -0.173  -0.793  -0.000   0.063   0.289   0.000   0.017   0.000   0.000   0.032   0.000
 -0.489   0.419  -0.000  -0.000  -0.745   0.000   0.000   0.264   0.000   0.015   0.003   0.000   0.012
 -0.000   0.000  -0.049  -0.045   0.000   0.012   0.017   0.000   0.010   0.000   0.000   0.011   0.000
 -0.160   0.144   0.000   0.000  -0.051   0.000   0.000   0.015   0.000   0.015   0.004   0.000   0.005
 -0.093   0.083   0.000  -0.000  -0.013   0.000   0.000   0.003   0.000   0.004   0.007   0.000  -0.001
  0.000  -0.000  -0.047  -0.108   0.000   0.017   0.032   0.000   0.011   0.000   0.000   0.027   0.000
 -0.119   0.106   0.000  -0.000  -0.049   0.000   0.000   0.012   0.000   0.005  -0.001   0.000   0.010


------------------------ aborting loop because EDIFF is reached ----------------------------------------


    CHARGE:  cpu time    0.0253: real time    0.0254
    FORLOC:  cpu time    0.0009: real time    0.0009
    FORNL :  cpu time    0.0963: real time    0.0966
    STRESS:  cpu time    0.2167: real time    0.2173
    FORCOR:  cpu time    0.0174: real time    0.0174
    FORHAR:  cpu time    0.0038: real time    0.0038
    MIXING:  cpu time    0.0008: real time    0.0008
    OFIELD:  cpu time    0.0000: real time    0.0000

  Hirshfeld charges:
            ion         q(e)     
   ------------------------------
      1     Te         -0.000
      2     Te          0.000
      3     Te          0.000

  Tkatchenko/Scheffler method for vdW energy calculation
  ---------------------------------------------------------------------------------------------

  Parameters of vdW forcefield:
            C6ts              R0ts           ALPHAts        RELVOL
            (au)              (au)            (au)                
   ---------------------------------------------------------------
   Te        395.258          4.213         37.615          0.999
   Te        395.258          4.213         37.615          0.999
   Te        395.258          4.213         37.615          0.999

  Number of pair interactions contributing to vdW energy:   31467
  Edisp (eV):   -0.70823
    FORVDW:  cpu time    0.1433: real time    0.1437

  FORCE on cell =-STRESS in cart. coord.  units (eV):
  Direction    XX          YY          ZZ          XY          YZ          ZX
  --------------------------------------------------------------------------------------
  Alpha Z     2.33552     2.33552     2.33552
  Ewald    -237.67857  -237.67856  -205.38501    -0.00000    -0.00000     0.00000
  Hartree    11.02134    11.02134    19.05808     0.00000     0.00000    -0.00000
  E(xc)     -70.40755   -70.40755   -69.97826    -0.00000     0.00000    -0.00000
  Local    -111.32396  -111.32400  -143.66972    -0.00004     0.00000    -0.00000
  n-local   332.07686   332.93032   328.64343    -1.25699    -0.68050    -1.17860
  augment   -81.06398   -81.06393   -79.09214     0.00004     0.00000     0.00000
  Kinetic   151.79205   158.93474   149.15631    -7.79444     0.20293     1.79129
  Fock        0.00000     0.00000     0.00000     0.00000     0.00000     0.00000
  vdW        -0.71624    -0.71624    -0.89831     0.00000    -0.00000    -0.00000
  -------------------------------------------------------------------------------------
  Total       0.03356     0.03356     0.16990     0.00000     0.00000     0.00000
  in kB       0.53716     0.53716     2.71980     0.00000     0.00000     0.00000
  external pressure =        1.26 kB  Pullay stress =        0.00 kB


 VOLUME and BASIS-vectors are now :
 -----------------------------------------------------------------------------
  energy-cutoff  :      520.00
  volume of cell :      100.09
      direct lattice vectors                 reciprocal lattice vectors
     4.425624266  0.000000000  0.000000000     0.225956823  0.130456233 -0.000000000
    -2.212812133  3.832703042 -0.000000000    -0.000000000  0.260912465  0.000000000
     0.000000000 -0.000000000  5.900547512    -0.000000000  0.000000000  0.169475798

  length of vectors
     4.425624266  4.425624266  5.900547512     0.260912465  0.260912465  0.169475798


 FORCES acting on ions
    electron-ion (+dipol)            ewald-force                    non-local-force                 convergence-correction
 -----------------------------------------------------------------------------------------------
   -.990E+01 0.111E-04 -.933E-06   0.145E+02 0.162E-05 0.143E-05   -.457E+01 -.276E-16 0.000E+00   0.254E-02 0.689E-07 -.169E-08
   0.495E+01 -.857E+01 -.184E-04   -.725E+01 0.126E+02 -.807E-05   0.229E+01 -.396E+01 0.000E+00   -.127E-02 0.220E-02 0.609E-09
   0.495E+01 0.857E+01 0.190E-04   -.725E+01 -.126E+02 0.664E-05   0.229E+01 0.396E+01 0.000E+00   -.127E-02 -.220E-02 0.107E-08
 -----------------------------------------------------------------------------------------------
   0.258E-04 -.839E-05 -.309E-06   0.000E+00 0.000E+00 0.348E-17   -.133E-14 0.000E+00 0.000E+00   0.443E-08 0.842E-08 -.309E-11
 
 
 POSITION                                       TOTAL-FORCE (eV/Angst)
 -----------------------------------------------------------------------------------
      1.22937     -0.00000      1.96685         0.012612      0.000000      0.000000
     -0.61469      1.06467      3.93370        -0.006306      0.010923     -0.000000
      1.59813      2.76803      0.00000        -0.006306     -0.010923     -0.000000
 -----------------------------------------------------------------------------------
    total drift:                                0.000026     -0.000008     -0.000000


--------------------------------------------------------------------------------------------------------



  FREE ENERGIE OF THE ION-ELECTRON SYSTEM (eV)
  ---------------------------------------------------
  free  energy   TOTEN  =       -10.11710785 eV

  energy  without entropy=      -10.11706265  energy(sigma->0) =      -10.11708525
 
 d Force = 0.3064286E-02[-0.160E-02, 0.773E-02]  d Energy = 0.1114049E-01-0.808E-02
 d Force =-0.1670615E+01[-0.184E+01,-0.150E+01]  d Ewald  =-0.7963020E+01 0.629E+01


--------------------------------------------------------------------------------------------------------


    POTLOK:  cpu time    0.0192: real time    0.0192


--------------------------------------------------------------------------------------------------------




--------------------------------------------------------------------------------------------------------


    WAVPRE:  cpu time    0.0038: real time    0.0064
    FEWALD:  cpu time    0.0001: real time    0.0001
    GENKIN:  cpu time    0.0058: real time    0.0059
    ORTHCH:  cpu time    0.0192: real time    0.0192
     LOOP+:  cpu time    2.8790: real time    2.8951


--------------------------------------- Iteration      9(   1)  ---------------------------------------


    POTLOK:  cpu time    0.0177: real time    0.0188
    SETDIJ:  cpu time    0.0022: real time    0.0023
     EDDAV:  cpu time    0.3250: real time    0.3263
       DOS:  cpu time    0.0005: real time    0.0005
    CHARGE:  cpu time    0.0257: real time    0.0258
    MIXING:  cpu time    0.0008: real time    0.0008
    --------------------------------------------
      LOOP:  cpu time    0.3720: real time    0.3745

 eigenvalue-minimisations  :  1222
 total energy-change (2. order) :-0.5651290E-03  (-0.2203489E-03)
 number of electron      18.0000001 magnetization 
 augmentation part       -3.6133463 magnetization 

 Broyden mixing:
  rms(total) = 0.40537E-02    rms(broyden)= 0.40537E-02
  rms(prec ) = 0.52127E-02
  weight for this iteration     100.00

 Free energy of the ion-electron system (eV)
  ---------------------------------------------------
  alpha Z        PSCENC =         2.33379631
  Ewald energy   TEWEN  =      -680.52460232
  -Hartree energ DENC   =       -41.12365189
  -exchange      EXHF   =         0.00000000
  -V(xc)+E(xc)   XCENC  =       -83.91322803
  PAW double counting   =      1550.62206278    -1435.26201309
  entropy T*S    EENTRO =        -0.00004453
  eigenvalues    EBANDS =         8.64394057
  atomic energy  EATOM  =       669.81430600
  Solvation  Ediel_sol  =         0.00000000
  ---------------------------------------------------
  free energy    TOTEN  =        -9.40943422 eV

  energy without entropy =       -9.40938968  energy(sigma->0) =       -9.40941195


--------------------------------------------------------------------------------------------------------




--------------------------------------- Iteration      9(   2)  ---------------------------------------


    POTLOK:  cpu time    0.0174: real time    0.0175
    SETDIJ:  cpu time    0.0023: real time    0.0023
     EDDAV:  cpu time    0.3621: real time    0.3633
       DOS:  cpu time    0.0006: real time    0.0005
    --------------------------------------------
      LOOP:  cpu time    0.3824: real time    0.3836

 eigenvalue-minimisations  :  1432
 total energy-change (2. order) : 0.6092811E-05  (-0.9216701E-05)
 number of electron      18.0000001 magnetization 
 augmentation part       -3.6133463 magnetization 

 Free energy of the ion-electron system (eV)
  ---------------------------------------------------
  alpha Z        PSCENC =         2.33379631
  Ewald energy   TEWEN  =      -680.52460232
  -Hartree energ DENC   =       -41.14624221
  -exchange      EXHF   =         0.00000000
  -V(xc)+E(xc)   XCENC  =       -83.91390130
  PAW double counting   =      1549.96882725    -1434.60918513
  entropy T*S    EENTRO =        -0.00004504
  eigenvalues    EBANDS =         8.66761832
  atomic energy  EATOM  =       669.81430600
  Solvation  Ediel_sol  =         0.00000000
  ---------------------------------------------------
  free energy    TOTEN  =        -9.40942812 eV

  energy without entropy =       -9.40938308  energy(sigma->0) =       -9.40940560


--------------------------------------------------------------------------------------------------------




 average (electrostatic) potential at core
  the test charge radii are     1.1897
  (the norm of the test charge is              1.0000)
       1 -88.8571       2 -88.8571       3 -88.8571
 
 
 
 E-fermi :   6.2792     XC(G=0):  -9.1560     alpha+bet :-10.7366


 k-point     1 :       0.0000    0.0000    0.0000
  band No.  band energies     occupation 
      1      -7.4975      2.00000
      2      -4.1793      2.00000
      3      -4.1793      2.00000
      4       3.1224      2.00000
      5       3.4774      2.00000
      6       3.4774      2.00000
      7       4.4234      2.00000
      8       4.4234      2.00000
      9       5.1404      2.00000
     10       7.1611      0.00000
     11       7.1611      0.00000
     12       7.7183      0.00000
     13      11.1401      0.00000
     14      11.1401      0.00000

 k-point     2 :       0.1111    0.0000    0.0000
  band No.  band energies     occupation 
      1      -7.4086      2.00000
      2      -4.2032      2.00000
      3      -4.1565      2.00000
      4       2.4569      2.00000
      5       2.9990      2.00000
      6       3.2113      2.00000
      7       4.7625      2.00000
      8       5.0089      2.00000
      9       5.4921      2.00000
     10       6.8161      0.00000
     11       7.0736      0.00000
     12       7.5567      0.00000
     13      10.8152      0.00000
     14      11.0914      0.00000

 k-point     3 :       0.2222    0.0000    0.0000
  band No.  band energies     occupation 
      1      -7.1516      2.00000
      2      -4.3226      2.00000
      3      -4.0927      2.00000
      4       1.6366      2.00000
      5       2.3849      2.00000
      6       2.7932      2.00000
      7       4.9002      2.00000
      8       5.2013      2.00000
      9       5.3379      2.00000
     10       6.9278      0.00000
     11       7.1371      0.00000
     12       7.6910      0.00000
     13       9.9942      0.00000
     14      11.3192      0.00000

 k-point     4 :       0.3333   -0.0000    0.0000
  band No.  band energies     occupation 
      1      -6.7678      2.00000
      2      -4.6073      2.00000
      3      -4.0104      2.00000
      4       1.2721      2.00000
      5       1.9098      2.00000
      6       2.4612      2.00000
      7       3.7415      2.00000
      8       5.3240      2.00000
      9       5.3818      2.00000
     10       6.8710      0.00000
     11       7.0328      0.00000
     12       8.8968      0.00000
     13       9.3198      0.00000
     14      12.1217      0.00000

 k-point     5 :       0.4444    0.0000    0.0000
  band No.  band energies     occupation 
      1      -6.3926      2.00000
      2      -4.9546      2.00000
      3      -3.9512      2.00000
      4       1.2899      2.00000
      5       1.7142      2.00000
      6       2.3497      2.00000
      7       2.7684      2.00000
      8       5.2707      2.00000
      9       5.4084      2.00000
     10       6.8698      0.00000
     11       6.9188      0.00000
     12       8.9619      0.00000
     13       9.7801      0.00000
     14      13.3032      0.00000

 k-point     6 :       0.1111    0.1111    0.0000
  band No.  band energies     occupation 
      1      -7.2353      2.00000
      2      -4.2562      2.00000
      3      -4.1333      2.00000
      4       1.9092      2.00000
      5       2.2287      2.00000
      6       3.3057      2.00000
      7       4.4849      2.00000
      8       5.4597      2.00000
      9       5.4687      2.00000
     10       6.7933      0.00000
     11       7.1214      0.00000
     12       7.6519      0.00000
     13      10.5800      0.00000
     14      10.6393      0.00000

 k-point     7 :       0.2222    0.1111    0.0000
  band No.  band energies     occupation 
      1      -6.9120      2.00000
      2      -4.4295      2.00000
      3      -4.1025      2.00000
      4       1.4193      2.00000
      5       1.7877      2.00000
      6       2.9577      2.00000
      7       4.3014      2.00000
      8       4.6098      2.00000
      9       5.1556      2.00000
     10       7.2639      0.00000
     11       7.6700      0.00000
     12       8.1841      0.00000
     13       9.9208      0.00000
     14      10.9631      0.00000

 k-point     8 :       0.3333    0.1111    0.0000
  band No.  band energies     occupation 
      1      -6.5126      2.00000
      2      -4.7544      2.00000
      3      -4.0660      2.00000
      4       1.3132      2.00000
      5       1.6544      2.00000
      6       2.5419      2.00000
      7       3.2653      2.00000
      8       4.6007      2.00000
      9       4.8692      2.00000
     10       7.4329      0.00000
     11       7.6654      0.00000
     12       9.3089      0.00000
     13       9.4772      0.00000
     14      11.9339      0.00000

 k-point     9 :       0.4444    0.1111    0.0000
  band No.  band energies     occupation 
      1      -6.2809      2.00000
      2      -4.9722      2.00000
      3      -4.0496      2.00000
      4       1.3775      2.00000
      5       1.6988      2.00000
      6       2.5101      2.00000
      7       2.5722      2.00000
      8       4.6793      2.00000
      9       4.7021      2.00000
     10       7.4641      0.00000
     11       7.6515      0.00000
     12       9.3153      0.00000
     13       9.8170      0.00000
     14      13.0073      0.00000

 k-point    10 :       0.2222    0.2222    0.0000
  band No.  band energies     occupation 
      1      -6.5618      2.00000
      2      -4.5763      2.00000
      3      -4.2174      2.00000
      4       1.4191      2.00000
      5       1.4944      2.00000
      6       2.9321      2.00000
      7       3.7483      2.00000
      8       4.0952      2.00000
      9       4.1177      2.00000
     10       8.1802      0.00000
     11       8.4205      0.00000
     12       8.5528      0.00000
     13      10.3610      0.00000
     14      10.6669      0.00000

 k-point    11 :       0.3333    0.2222    0.0000
  band No.  band energies     occupation 
      1      -6.2368      2.00000
      2      -4.7829      2.00000
      3      -4.3122      2.00000
      4       1.5274      2.00000
      5       1.6441      2.00000
      6       2.6861      2.00000
      7       3.0077      2.00000
      8       3.7496      2.00000
      9       3.8278      2.00000
     10       8.4086      0.00000
     11       8.6564      0.00000
     12       9.4079      0.00000
     13      10.2709      0.00000
     14      11.6415      0.00000

 k-point    12 :       0.3333    0.3333    0.0000
  band No.  band energies     occupation 
      1      -6.1084      2.00000
      2      -4.6177      2.00000
      3      -4.6177      2.00000
      4       1.7125      2.00000
      5       1.7125      2.00000
      6       2.9862      2.00000
      7       2.9862      2.00000
      8       3.1132      2.00000
      9       3.2762      2.00000
     10       9.0762      0.00000
     11       9.0762      0.00000
     12       9.2994      0.00000
     13      11.0118      0.00000
     14      11.8543      0.00000

 k-point    13 :       0.0000    0.0000    0.2500
  band No.  band energies     occupation 
      1      -7.2710      2.00000
      2      -5.5384      2.00000
      3      -2.7863      2.00000
      4       2.7812      2.00000
      5       3.2344      2.00000
      6       3.6343      2.00000
      7       4.6318      2.00000
      8       4.7495      2.00000
      9       5.1843      2.00000
     10       6.7485      0.00000
     11       6.8267      0.00000
     12       7.1672      0.00000
     13      10.4525      0.00000
     14      11.5387      0.00000

 k-point    14 :       0.1111    0.0000    0.2500
  band No.  band energies     occupation 
      1      -7.1858      2.00000
      2      -5.4829      2.00000
      3      -2.9005      2.00000
      4       2.4442      2.00000
      5       3.1071      2.00000
      6       3.5323      2.00000
      7       4.3011      2.00000
      8       4.7860      2.00000
      9       4.8830      2.00000
     10       6.9904      0.00000
     11       7.2297      0.00000
     12       7.5955      0.00000
     13      10.5380      0.00000
     14      11.5453      0.00000

 k-point    15 :       0.2222    0.0000    0.2500
  band No.  band energies     occupation 
      1      -6.9446      2.00000
      2      -5.3209      2.00000
      3      -3.2661      2.00000
      4       2.0892      2.00000
      5       2.7029      2.00000
      6       3.1914      2.00000
      7       3.6650      2.00000
      8       4.2861      2.00000
      9       4.7196      2.00000
     10       7.5466      0.00000
     11       8.0062      0.00000
     12       8.3986      0.00000
     13      10.8606      0.00000
     14      11.2862      0.00000

 k-point    16 :       0.3333   -0.0000    0.2500
  band No.  band energies     occupation 
      1      -6.5955      2.00000
      2      -5.1102      2.00000
      3      -3.7820      2.00000
      4       1.7479      2.00000
      5       2.1210      2.00000
      6       2.8027      2.00000
      7       3.1879      2.00000
      8       4.3096      2.00000
      9       4.6452      2.00000
     10       7.5949      0.00000
     11       8.1629      0.00000
     12       9.3108      0.00000
     13      10.3473      0.00000
     14      11.8034      0.00000

 k-point    17 :       0.4444    0.0000    0.2500
  band No.  band energies     occupation 
      1      -6.2576      2.00000
      2      -5.0865      2.00000
      3      -4.0606      2.00000
      4       1.0695      2.00000
      5       1.8192      2.00000
      6       2.5172      2.00000
      7       3.6611      2.00000
      8       4.3590      2.00000
      9       4.6076      2.00000
     10       7.4559      0.00000
     11       8.1106      0.00000
     12       9.1458      0.00000
     13       9.8480      0.00000
     14      12.3257      0.00000

 k-point    18 :      -0.4444   -0.0000    0.2500
  band No.  band energies     occupation 
      1      -6.2118      2.00000
      2      -5.2706      2.00000
      3      -3.8384      2.00000
      4       0.6987      2.00000
      5       1.7053      2.00000
      6       2.4788      2.00000
      7       4.4324      2.00000
      8       4.5008      2.00000
      9       4.7544      2.00000
     10       7.2862      0.00000
     11       7.9128      0.00000
     12       8.3349      0.00000
     13       9.5364      0.00000
     14      12.9366      0.00000

 k-point    19 :      -0.3333    0.0000    0.2500
  band No.  band energies     occupation 
      1      -6.5545      2.00000
      2      -5.3130      2.00000
      3      -3.4597      2.00000
      4       0.8962      2.00000
      5       1.7898      2.00000
      6       2.6307      2.00000
      7       4.7102      2.00000
      8       4.7945      2.00000
      9       5.6286      2.00000
     10       6.9675      0.00000
     11       7.4227      0.00000
     12       7.6492      0.00000
     13       9.4462      0.00000
     14      12.9168      0.00000

 k-point    20 :      -0.2222   -0.0000    0.2500
  band No.  band energies     occupation 
      1      -6.9316      2.00000
      2      -5.3890      2.00000
      3      -3.1141      2.00000
      4       1.6461      2.00000
      5       2.0859      2.00000
      6       2.9355      2.00000
      7       4.9821      2.00000
      8       5.1074      2.00000
      9       5.7212      2.00000
     10       6.7008      0.00000
     11       7.0933      0.00000
     12       7.3350      0.00000
     13       9.6823      0.00000
     14      12.3049      0.00000

 k-point    21 :      -0.1111   -0.0000    0.2500
  band No.  band energies     occupation 
      1      -7.1842      2.00000
      2      -5.4914      2.00000
      3      -2.8765      2.00000
      4       2.4836      2.00000
      5       2.7350      2.00000
      6       3.3490      2.00000
      7       4.7780      2.00000
      8       5.0870      2.00000
      9       5.3083      2.00000
     10       6.6289      0.00000
     11       6.6804      0.00000
     12       7.6222      0.00000
     13      10.2129      0.00000
     14      11.6180      0.00000

 k-point    22 :       0.1111    0.1111    0.2500
  band No.  band energies     occupation 
      1      -7.0183      2.00000
      2      -5.3951      2.00000
      3      -3.0917      2.00000
      4       2.0776      2.00000
      5       2.3633      2.00000
      6       3.2127      2.00000
      7       4.2720      2.00000
      8       4.8266      2.00000
      9       5.2190      2.00000
     10       7.0439      0.00000
     11       7.5697      0.00000
     12       7.7149      0.00000
     13      10.2383      0.00000
     14      11.6882      0.00000

 k-point    23 :       0.2222    0.1111    0.2500
  band No.  band energies     occupation 
      1      -6.7180      2.00000
      2      -5.2132      2.00000
      3      -3.5388      2.00000
      4       1.6940      2.00000
      5       2.1398      2.00000
      6       3.0135      2.00000
      7       3.2697      2.00000
      8       4.3277      2.00000
      9       5.3844      2.00000
     10       7.2441      0.00000
     11       7.9180      0.00000
     12       8.8994      0.00000
     13      10.6611      0.00000
     14      11.0842      0.00000

 k-point    24 :       0.3333    0.1111    0.2500
  band No.  band energies     occupation 
      1      -6.3595      2.00000
      2      -5.0579      2.00000
      3      -4.0012      2.00000
      4       1.3767      2.00000
      5       1.6329      2.00000
      6       2.7164      2.00000
      7       3.3215      2.00000
      8       3.9526      2.00000
      9       5.4587      2.00000
     10       7.0936      0.00000
     11       8.3124      0.00000
     12       9.3077      0.00000
     13      10.2220      0.00000
     14      11.8692      0.00000

 k-point    25 :       0.4444    0.1111    0.2500
  band No.  band energies     occupation 
      1      -6.1331      2.00000
      2      -5.1647      2.00000
      3      -4.0458      2.00000
      4       0.8691      2.00000
      5       1.5237      2.00000
      6       2.6148      2.00000
      7       3.5250      2.00000
      8       4.1952      2.00000
      9       5.5046      2.00000
     10       6.9571      0.00000
     11       8.3860      0.00000
     12       8.7546      0.00000
     13       9.9393      0.00000
     14      12.6973      0.00000

 k-point    26 :      -0.4444    0.1111    0.2500
  band No.  band energies     occupation 
      1      -6.3166      2.00000
      2      -5.2533      2.00000
      3      -3.7459      2.00000
      4       0.7653      2.00000
      5       1.6894      2.00000
      6       2.6033      2.00000
      7       3.5790      2.00000
      8       5.0800      2.00000
      9       5.5612      2.00000
     10       6.8406      0.00000
     11       7.7587      0.00000
     12       8.3720      0.00000
     13       9.8210      0.00000
     14      12.5390      0.00000

 k-point    27 :      -0.3333    0.1111    0.2500
  band No.  band energies     occupation 
      1      -6.7020      2.00000
      2      -5.2951      2.00000
      3      -3.3917      2.00000
      4       1.2415      2.00000
      5       1.9629      2.00000
      6       2.8024      2.00000
      7       3.8334      2.00000
      8       5.2818      2.00000
      9       5.9220      2.00000
     10       6.6600      0.00000
     11       7.2470      0.00000
     12       8.1614      0.00000
     13       9.8745      0.00000
     14      11.8659      0.00000

 k-point    28 :       0.2222    0.2222    0.2500
  band No.  band energies     occupation 
      1      -6.3809      2.00000
      2      -5.1483      2.00000
      3      -3.8372      2.00000
      4       1.0470      2.00000
      5       1.8226      2.00000
      6       2.5747      2.00000
      7       3.1089      2.00000
      8       4.7582      2.00000
      9       5.7626      2.00000
     10       6.9929      0.00000
     11       7.7841      0.00000
     12       9.0291      0.00000
     13      10.5893      0.00000
     14      11.1670      0.00000

 k-point    29 :       0.3333    0.2222    0.2500
  band No.  band energies     occupation 
      1      -6.0900      2.00000
      2      -5.0744      2.00000
      3      -4.1693      2.00000
      4       1.0437      2.00000
      5       1.3760      2.00000
      6       2.2248      2.00000
      7       3.4473      2.00000
      8       4.2991      2.00000
      9       5.5160      2.00000
     10       7.2395      0.00000
     11       8.4433      0.00000
     12       9.0036      0.00000
     13      10.6328      0.00000
     14      11.7664      0.00000

 k-point    30 :       0.4444    0.2222    0.2500
  band No.  band energies     occupation 
      1      -6.0751      2.00000
      2      -5.1362      2.00000
      3      -4.1030      2.00000
      4       0.8690      2.00000
      5       1.4724      2.00000
      6       2.2435      2.00000
      7       3.3532      2.00000
      8       4.6991      2.00000
      9       5.3209      2.00000
     10       7.4163      0.00000
     11       8.1329      0.00000
     12       8.8918      0.00000
     13      10.5354      0.00000
     14      12.0234      0.00000

 k-point    31 :       0.3333    0.3333    0.2500
  band No.  band energies     occupation 
      1      -5.9616      2.00000
      2      -5.0752      2.00000
      3      -4.2690      2.00000
      4       0.9990      2.00000
      5       1.3735      2.00000
      6       1.8127      2.00000
      7       3.6849      2.00000
      8       4.5738      2.00000
      9       4.9399      2.00000
     10       8.0077      0.00000
     11       8.4704      0.00000
     12       8.5617      0.00000
     13      11.4532      0.00000
     14      11.7371      0.00000

 k-point    32 :       0.0000    0.0000    0.5000
  band No.  band energies     occupation 
      1      -6.6034      2.00000
      2      -6.6034      2.00000
      3      -2.0721      2.00000
      4       2.2886      2.00000
      5       3.4701      2.00000
      6       3.4701      2.00000
      7       4.8494      2.00000
      8       5.1872      2.00000
      9       5.1872      2.00000
     10       6.4927      0.00000
     11       6.4927      0.00000
     12       6.5093      0.00000
     13      10.1127      0.00000
     14      11.2780      0.00000

 k-point    33 :       0.1111    0.0000    0.5000
  band No.  band energies     occupation 
      1      -6.5358      2.00000
      2      -6.5201      2.00000
      3      -2.2654      2.00000
      4       2.2562      2.00000
      5       3.2963      2.00000
      6       3.4091      2.00000
      7       4.2453      2.00000
      8       4.6963      2.00000
      9       4.9290      2.00000
     10       6.7877      0.00000
     11       6.9987      0.00000
     12       7.4863      0.00000
     13      10.3446      0.00000
     14      10.9993      0.00000

 k-point    34 :       0.2222    0.0000    0.5000
  band No.  band energies     occupation 
      1      -6.3529      2.00000
      2      -6.2781      2.00000
      3      -2.7657      2.00000
      4       1.8772      2.00000
      5       2.7082      2.00000
      6       3.1325      2.00000
      7       4.0482      2.00000
      8       4.2276      2.00000
      9       4.6620      2.00000
     10       7.3552      0.00000
     11       7.7937      0.00000
     12       8.3376      0.00000
     13      10.4696      0.00000
     14      11.3370      0.00000

 k-point    35 :       0.3333   -0.0000    0.5000
  band No.  band energies     occupation 
      1      -6.1191      2.00000
      2      -5.9125      2.00000
      3      -3.3979      2.00000
      4       1.0202      2.00000
      5       2.5112      2.00000
      6       2.8332      2.00000
      7       3.7819      2.00000
      8       4.0368      2.00000
      9       5.0304      2.00000
     10       7.7114      0.00000
     11       8.1069      0.00000
     12       8.4313      0.00000
     13      10.5029      0.00000
     14      11.6802      0.00000

 k-point    36 :       0.4444    0.0000    0.5000
  band No.  band energies     occupation 
      1      -5.9469      2.00000
      2      -5.5497      2.00000
      3      -3.9223      2.00000
      4       0.4519      2.00000
      5       2.4996      2.00000
      6       2.6090      2.00000
      7       3.5970      2.00000
      8       3.9075      2.00000
      9       5.7747      2.00000
     10       7.0651      0.00000
     11       8.1462      0.00000
     12       8.7096      0.00000
     13      10.6309      0.00000
     14      11.3113      0.00000

 k-point    37 :       0.1111    0.1111    0.5000
  band No.  band energies     occupation 
      1      -6.4060      2.00000
      2      -6.3615      2.00000
      3      -2.6087      2.00000
      4       2.0857      2.00000
      5       2.9179      2.00000
      6       3.0193      2.00000
      7       3.9813      2.00000
      8       4.1786      2.00000
      9       5.2598      2.00000
     10       6.6462      0.00000
     11       8.0083      0.00000
     12       8.0986      0.00000
     13      10.7573      0.00000
     14      10.7614      0.00000

 k-point    38 :       0.2222    0.1111    0.5000
  band No.  band energies     occupation 
      1      -6.1843      2.00000
      2      -6.0668      2.00000
      3      -3.1614      2.00000
      4       1.4733      2.00000
      5       2.3090      2.00000
      6       2.5229      2.00000
      7       4.0045      2.00000
      8       4.4494      2.00000
      9       5.1810      2.00000
     10       7.0829      0.00000
     11       8.2914      0.00000
     12       8.4192      0.00000
     13      10.6003      0.00000
     14      11.5060      0.00000

 k-point    39 :       0.3333    0.1111    0.5000
  band No.  band energies     occupation 
      1      -5.9636      2.00000
      2      -5.6981      2.00000
      3      -3.7357      2.00000
      4       0.7381      2.00000
      5       2.0373      2.00000
      6       2.2026      2.00000
      7       4.1214      2.00000
      8       4.5712      2.00000
      9       5.4498      2.00000
     10       7.4063      0.00000
     11       7.8338      0.00000
     12       8.4809      0.00000
     13      10.6710      0.00000
     14      11.6723      0.00000

 k-point    40 :       0.4444    0.1111    0.5000
  band No.  band energies     occupation 
      1      -5.8679      2.00000
      2      -5.4826      2.00000
      3      -4.0281      2.00000
      4       0.4461      2.00000
      5       1.9666      2.00000
      6       2.0771      2.00000
      7       4.2804      2.00000
      8       4.3736      2.00000
      9       6.0340      2.00000
     10       6.8357      0.00000
     11       7.9603      0.00000
     12       8.4506      0.00000
     13      10.8159      0.00000
     14      11.3476      0.00000

 k-point    41 :       0.2222    0.2222    0.5000
  band No.  band energies     occupation 
      1      -5.9428      2.00000
      2      -5.7883      2.00000
      3      -3.6419      2.00000
      4       1.1107      2.00000
      5       1.5413      2.00000
      6       1.9122      2.00000
      7       4.5397      2.00000
      8       4.8913      2.00000
      9       5.6866      2.00000
     10       6.9059      0.00000
     11       8.0978      0.00000
     12       8.1301      0.00000
     13      10.9410      0.00000
     14      11.8061      0.00000

 k-point    42 :       0.3333    0.2222    0.5000
  band No.  band energies     occupation 
      1      -5.7530      2.00000
      2      -5.5437      2.00000
      3      -4.0174      2.00000
      4       0.7201      2.00000
      5       1.3078      2.00000
      6       1.5057      2.00000
      7       4.9505      2.00000
      8       5.3400      2.00000
      9       5.9410      2.00000
     10       6.9427      0.00000
     11       7.4900      0.00000
     12       7.8513      0.00000
     13      11.3232      0.00000
     14      11.9707      0.00000

 k-point    43 :       0.3333    0.3333    0.5000
  band No.  band energies     occupation 
      1      -5.5714      2.00000
      2      -5.5714      2.00000
      3      -4.1234      2.00000
      4       0.9405      2.00000
      5       1.0237      2.00000
      6       1.0237      2.00000
      7       5.3172      2.00000
      8       6.1971      1.97967
      9       6.1971      1.97967
     10       6.3515      0.04067
     11       7.3199      0.00000
     12       7.3199      0.00000
     13      12.1112      0.00000
     14      12.5848      0.00000


--------------------------------------------------------------------------------------------------------


 soft charge-density along one line, spin component           1
         0         1         2         3         4         5         6         7         8         9
 total charge-density along one line
 
 pseudopotential strength for first ion, spin component:           1
 51.576  56.116  -0.000  -0.000  -0.045  -0.000  -0.000  -0.065
 56.116  61.059  -0.000  -0.000  -0.049  -0.000  -0.000  -0.071
 -0.000  -0.000  12.702   0.009   0.000  18.308   0.013   0.000
 -0.000  -0.000   0.009  12.716   0.000   0.013  18.329   0.000
 -0.045  -0.049   0.000   0.000  12.716   0.000   0.000  18.329
 -0.000  -0.000  18.308   0.013   0.000  26.400   0.019   0.000
 -0.000  -0.000   0.013  18.329   0.000   0.019  26.430   0.000
 -0.065  -0.071   0.000   0.000  18.329   0.000   0.000  26.430
  0.000   0.000  -0.009   0.000  -0.000  -0.013   0.000  -0.000
  0.014   0.015   0.000  -0.000   0.000   0.000  -0.000   0.000
  0.006   0.007   0.000  -0.000   0.005   0.000  -0.000   0.008
  0.000   0.000   0.000  -0.008  -0.000   0.000  -0.012  -0.000
  0.011   0.012   0.000  -0.000  -0.009   0.000  -0.000  -0.013
 total augmentation occupancy for first ion, spin component:           1
 13.831 -10.169  -0.000  -0.000   1.943   0.000  -0.000  -0.490  -0.000  -0.160  -0.093   0.000  -0.119
-10.169   8.744   0.000   0.000  -1.637   0.000   0.000   0.423   0.000   0.144   0.083   0.000   0.106
  0.000   0.000   2.567   0.198   0.000  -0.514  -0.175   0.000  -0.049   0.000   0.000  -0.047   0.000
 -0.000   0.000   0.198   2.887   0.000  -0.175  -0.796  -0.000  -0.046   0.000   0.000  -0.109   0.000
  1.943  -1.637   0.000   0.000   2.803   0.000  -0.000  -0.749   0.000  -0.051  -0.013   0.000  -0.049
  0.000   0.000  -0.514  -0.175  -0.000   0.188   0.064   0.000   0.012   0.000   0.000   0.017   0.000
  0.000   0.000  -0.175  -0.796  -0.000   0.064   0.291   0.000   0.017   0.000   0.000   0.032   0.000
 -0.490   0.423   0.000  -0.000  -0.749   0.000   0.000   0.265   0.000   0.015   0.003   0.000   0.012
 -0.000   0.000  -0.049  -0.046   0.000   0.012   0.017   0.000   0.010   0.000   0.000   0.011   0.000
 -0.160   0.144   0.000   0.000  -0.051   0.000   0.000   0.015   0.000   0.015   0.004   0.000   0.005
 -0.093   0.083   0.000   0.000  -0.013   0.000   0.000   0.003  -0.000   0.004   0.007   0.000  -0.001
  0.000   0.000  -0.047  -0.109   0.000   0.017   0.032  -0.000   0.011   0.000   0.000   0.027   0.000
 -0.119   0.106   0.000   0.000  -0.049  -0.000   0.000   0.012   0.000   0.005  -0.001   0.000   0.010


------------------------ aborting loop because EDIFF is reached ----------------------------------------


    CHARGE:  cpu time    0.0247: real time    0.0248
    FORLOC:  cpu time    0.0009: real time    0.0009
    FORNL :  cpu time    0.0957: real time    0.0960
    STRESS:  cpu time    0.2175: real time    0.2181
    FORCOR:  cpu time    0.0181: real time    0.0182
    FORHAR:  cpu time    0.0039: real time    0.0039
    MIXING:  cpu time    0.0006: real time    0.0006
    OFIELD:  cpu time    0.0000: real time    0.0000

  Hirshfeld charges:
            ion         q(e)     
   ------------------------------
      1     Te         -0.000
      2     Te         -0.000
      3     Te          0.000

  Tkatchenko/Scheffler method for vdW energy calculation
  ---------------------------------------------------------------------------------------------

  Parameters of vdW forcefield:
            C6ts              R0ts           ALPHAts        RELVOL
            (au)              (au)            (au)                
   ---------------------------------------------------------------
   Te        395.184          4.213         37.611          0.999
   Te        395.184          4.213         37.611          0.999
   Te        395.184          4.213         37.611          0.999

  Number of pair interactions contributing to vdW energy:   31467
  Edisp (eV):   -0.70763
    FORVDW:  cpu time    0.1435: real time    0.1439

  FORCE on cell =-STRESS in cart. coord.  units (eV):
  Direction    XX          YY          ZZ          XY          YZ          ZX
  --------------------------------------------------------------------------------------
  Alpha Z     2.33380     2.33380     2.33380
  Ewald    -237.66755  -237.66754  -205.19012    -0.00000    -0.00000     0.00000
  Hartree    11.03337    11.03337    19.12256     0.00000     0.00000    -0.00000
  E(xc)     -70.39872   -70.39872   -69.96772    -0.00000     0.00000    -0.00000
  Local    -111.37023  -111.37028  -143.91515    -0.00004     0.00000    -0.00000
  n-local   332.13559   332.98827   328.68874    -1.25613    -0.68204    -1.18093
  augment   -81.09025   -81.09020   -79.11022     0.00004    -0.00000     0.00000
  Kinetic   151.82870   158.95573   149.14191    -7.78205     0.20146     1.78366
  Fock        0.00000     0.00000     0.00000     0.00000     0.00000     0.00000
  vdW        -0.71720    -0.71720    -0.89725     0.00000    -0.00000    -0.00000
  -------------------------------------------------------------------------------------
  Total       0.07737     0.07737     0.20655     0.00000    -0.00000    -0.00000
  in kB       1.23761     1.23761     3.30406     0.00000    -0.00000    -0.00000
  external pressure =        1.93 kB  Pullay stress =        0.00 kB


 VOLUME and BASIS-vectors are now :
 -----------------------------------------------------------------------------
  energy-cutoff  :      520.00
  volume of cell :      100.16
      direct lattice vectors                 reciprocal lattice vectors
     4.426700282  0.000000000  0.000000000     0.225901899  0.130424522 -0.000000000
    -2.213350141  3.833634899 -0.000000000    -0.000000000  0.260849044  0.000000000
     0.000000000 -0.000000000  5.902047339    -0.000000000  0.000000000  0.169432731

  length of vectors
     4.426700282  4.426700282  5.902047339     0.260849044  0.260849044  0.169432731


 FORCES acting on ions
    electron-ion (+dipol)            ewald-force                    non-local-force                 convergence-correction
 -----------------------------------------------------------------------------------------------
   -.995E+01 0.112E-04 -.939E-06   0.146E+02 0.162E-05 0.144E-05   -.459E+01 0.135E-18 0.000E+00   0.163E-02 -.456E-07 0.174E-08
   0.497E+01 -.862E+01 -.184E-04   -.728E+01 0.126E+02 -.808E-05   0.230E+01 -.398E+01 0.000E+00   -.817E-03 0.142E-02 -.108E-08
   0.497E+01 0.862E+01 0.191E-04   -.728E+01 -.126E+02 0.664E-05   0.230E+01 0.398E+01 0.000E+00   -.817E-03 -.142E-02 -.635E-09
 -----------------------------------------------------------------------------------------------
   0.258E-04 -.838E-05 -.309E-06   -.888E-15 0.000E+00 0.348E-17   0.888E-15 0.444E-15 0.000E+00   -.104E-07 -.184E-07 0.274E-10
 
 
 POSITION                                       TOTAL-FORCE (eV/Angst)
 -----------------------------------------------------------------------------------
      1.22854     -0.00000      1.96735         0.014433      0.000000      0.000000
     -0.61427      1.06395      3.93470        -0.007216      0.012499     -0.000000
      1.59908      2.76969      0.00000        -0.007216     -0.012499     -0.000000
 -----------------------------------------------------------------------------------
    total drift:                                0.000026     -0.000008     -0.000000


--------------------------------------------------------------------------------------------------------



  FREE ENERGIE OF THE ION-ELECTRON SYSTEM (eV)
  ---------------------------------------------------
  free  energy   TOTEN  =       -10.11705323 eV

  energy  without entropy=      -10.11700819  energy(sigma->0) =      -10.11703071
 
 d Force =-0.4579420E-04[-0.489E-04,-0.427E-04]  d Energy =-0.5461940E-04 0.883E-05
 d Force =-0.4920482E-01[-0.493E-01,-0.491E-01]  d Ewald  =-0.2169313E+00 0.168E+00


--------------------------------------------------------------------------------------------------------


    POTLOK:  cpu time    0.0196: real time    0.0196


--------------------------------------------------------------------------------------------------------




--------------------------------------------------------------------------------------------------------


    WAVPRE:  cpu time    0.0037: real time    0.0066
    FEWALD:  cpu time    0.0001: real time    0.0001
    GENKIN:  cpu time    0.0058: real time    0.0059
    ORTHCH:  cpu time    0.0190: real time    0.0191
     LOOP+:  cpu time    1.3165: real time    1.3279


--------------------------------------- Iteration     10(   1)  ---------------------------------------


    POTLOK:  cpu time    0.0179: real time    0.0192
    SETDIJ:  cpu time    0.0022: real time    0.0022
     EDDAV:  cpu time    0.3219: real time    0.3230
       DOS:  cpu time    0.0005: real time    0.0005
    CHARGE:  cpu time    0.0249: real time    0.0250
    MIXING:  cpu time    0.0006: real time    0.0006
    --------------------------------------------
      LOOP:  cpu time    0.3681: real time    0.3704

 eigenvalue-minimisations  :  1204
 total energy-change (2. order) :-0.4692953E-02  (-0.1429512E-01)
 number of electron      18.0000000 magnetization 
 augmentation part       -3.6159677 magnetization 

 Broyden mixing:
  rms(total) = 0.21662E-01    rms(broyden)= 0.21661E-01
  rms(prec ) = 0.33258E-01
  weight for this iteration     100.00

 Free energy of the ion-electron system (eV)
  ---------------------------------------------------
  alpha Z        PSCENC =         2.32000207
  Ewald energy   TEWEN  =      -678.78008106
  -Hartree energ DENC   =       -41.37907649
  -exchange      EXHF   =         0.00000000
  -V(xc)+E(xc)   XCENC  =       -83.92164398
  PAW double counting   =      1549.07098574    -1433.71161028
  entropy T*S    EENTRO =        -0.00004201
  eigenvalues    EBANDS =         7.17303285
  atomic energy  EATOM  =       669.81430600
  Solvation  Ediel_sol  =         0.00000000
  ---------------------------------------------------
  free energy    TOTEN  =        -9.41412717 eV

  energy without entropy =       -9.41408516  energy(sigma->0) =       -9.41410616


--------------------------------------------------------------------------------------------------------




--------------------------------------- Iteration     10(   2)  ---------------------------------------


    POTLOK:  cpu time    0.0173: real time    0.0174
    SETDIJ:  cpu time    0.0024: real time    0.0024
     EDDAV:  cpu time    0.3614: real time    0.3626
       DOS:  cpu time    0.0005: real time    0.0005
    CHARGE:  cpu time    0.0250: real time    0.0251
    MIXING:  cpu time    0.0006: real time    0.0006
    --------------------------------------------
      LOOP:  cpu time    0.4073: real time    0.4086

 eigenvalue-minimisations  :  1426
 total energy-change (2. order) : 0.3421864E-03  (-0.6081367E-03)
 number of electron      18.0000000 magnetization 
 augmentation part       -3.6178646 magnetization 

 Broyden mixing:
  rms(total) = 0.12443E-01    rms(broyden)= 0.12443E-01
  rms(prec ) = 0.20243E-01
  weight for this iteration     100.00

 eigenvalues of (default mixing * dielectric matrix)
  average eigenvalue GAMMA=   0.8296
  0.8296

 Free energy of the ion-electron system (eV)
  ---------------------------------------------------
  alpha Z        PSCENC =         2.32000207
  Ewald energy   TEWEN  =      -678.78008106
  -Hartree energ DENC   =       -41.55609460
  -exchange      EXHF   =         0.00000000
  -V(xc)+E(xc)   XCENC  =       -83.92635103
  PAW double counting   =      1550.11456947    -1434.75744889
  entropy T*S    EENTRO =        -0.00004533
  eigenvalues    EBANDS =         7.35735839
  atomic energy  EATOM  =       669.81430600
  Solvation  Ediel_sol  =         0.00000000
  ---------------------------------------------------
  free energy    TOTEN  =        -9.41378498 eV

  energy without entropy =       -9.41373965  energy(sigma->0) =       -9.41376232


--------------------------------------------------------------------------------------------------------




--------------------------------------- Iteration     10(   3)  ---------------------------------------


    POTLOK:  cpu time    0.0174: real time    0.0180
    SETDIJ:  cpu time    0.0024: real time    0.0024
     EDDAV:  cpu time    0.3447: real time    0.3459
       DOS:  cpu time    0.0005: real time    0.0005
    CHARGE:  cpu time    0.0253: real time    0.0254
    MIXING:  cpu time    0.0006: real time    0.0007
    --------------------------------------------
      LOOP:  cpu time    0.3909: real time    0.3928

 eigenvalue-minimisations  :  1336
 total energy-change (2. order) : 0.4031776E-03  (-0.4366220E-04)
 number of electron      18.0000000 magnetization 
 augmentation part       -3.6150267 magnetization 

 Broyden mixing:
  rms(total) = 0.62991E-02    rms(broyden)= 0.62991E-02
  rms(prec ) = 0.99845E-02
  weight for this iteration     100.00

 eigenvalues of (default mixing * dielectric matrix)
  average eigenvalue GAMMA=   1.2199
  0.7675  1.6722

 Free energy of the ion-electron system (eV)
  ---------------------------------------------------
  alpha Z        PSCENC =         2.32000207
  Ewald energy   TEWEN  =      -678.78008106
  -Hartree energ DENC   =       -41.67763792
  -exchange      EXHF   =         0.00000000
  -V(xc)+E(xc)   XCENC  =       -83.93273876
  PAW double counting   =      1547.47891462    -1432.12312377
  entropy T*S    EENTRO =        -0.00004553
  eigenvalues    EBANDS =         7.48702255
  atomic energy  EATOM  =       669.81430600
  Solvation  Ediel_sol  =         0.00000000
  ---------------------------------------------------
  free energy    TOTEN  =        -9.41338180 eV

  energy without entropy =       -9.41333628  energy(sigma->0) =       -9.41335904


--------------------------------------------------------------------------------------------------------




--------------------------------------- Iteration     10(   4)  ---------------------------------------


    POTLOK:  cpu time    0.0178: real time    0.0184
    SETDIJ:  cpu time    0.0023: real time    0.0023
     EDDAV:  cpu time    0.3425: real time    0.3436
       DOS:  cpu time    0.0005: real time    0.0005
    CHARGE:  cpu time    0.0248: real time    0.0249
    MIXING:  cpu time    0.0007: real time    0.0007
    --------------------------------------------
      LOOP:  cpu time    0.3886: real time    0.3904

 eigenvalue-minimisations  :  1318
 total energy-change (2. order) : 0.1303545E-03  (-0.2765992E-04)
 number of electron      18.0000000 magnetization 
 augmentation part       -3.6123886 magnetization 

 Broyden mixing:
  rms(total) = 0.10526E-01    rms(broyden)= 0.10526E-01
  rms(prec ) = 0.10551E-01
  weight for this iteration     100.00

 eigenvalues of (default mixing * dielectric matrix)
  average eigenvalue GAMMA=   1.6130
  1.1130  1.8630  1.8630

 Free energy of the ion-electron system (eV)
  ---------------------------------------------------
  alpha Z        PSCENC =         2.32000207
  Ewald energy   TEWEN  =      -678.78008106
  -Hartree energ DENC   =       -41.78384507
  -exchange      EXHF   =         0.00000000
  -V(xc)+E(xc)   XCENC  =       -83.93893306
  PAW double counting   =      1544.33513696    -1428.97877917
  entropy T*S    EENTRO =        -0.00004584
  eigenvalues    EBANDS =         7.59898773
  atomic energy  EATOM  =       669.81430600
  Solvation  Ediel_sol  =         0.00000000
  ---------------------------------------------------
  free energy    TOTEN  =        -9.41325145 eV

  energy without entropy =       -9.41320561  energy(sigma->0) =       -9.41322853


--------------------------------------------------------------------------------------------------------




--------------------------------------- Iteration     10(   5)  ---------------------------------------


    POTLOK:  cpu time    0.0175: real time    0.0175
    SETDIJ:  cpu time    0.0022: real time    0.0022
     EDDAV:  cpu time    0.2366: real time    0.2373
       DOS:  cpu time    0.0005: real time    0.0005
    --------------------------------------------
      LOOP:  cpu time    0.2568: real time    0.2576

 eigenvalue-minimisations  :   706
 total energy-change (2. order) :-0.7542887E-06  (-0.8056835E-06)
 number of electron      18.0000000 magnetization 
 augmentation part       -3.6123886 magnetization 

 Free energy of the ion-electron system (eV)
  ---------------------------------------------------
  alpha Z        PSCENC =         2.32000207
  Ewald energy   TEWEN  =      -678.78008106
  -Hartree energ DENC   =       -41.78764611
  -exchange      EXHF   =         0.00000000
  -V(xc)+E(xc)   XCENC  =       -83.93950972
  PAW double counting   =      1542.48702386    -1427.12805497
  entropy T*S    EENTRO =        -0.00004594
  eigenvalues    EBANDS =         7.60075368
  atomic energy  EATOM  =       669.81430600
  Solvation  Ediel_sol  =         0.00000000
  ---------------------------------------------------
  free energy    TOTEN  =        -9.41325220 eV

  energy without entropy =       -9.41320626  energy(sigma->0) =       -9.41322923


--------------------------------------------------------------------------------------------------------




 average (electrostatic) potential at core
  the test charge radii are     1.1897
  (the norm of the test charge is              1.0000)
       1 -88.9162       2 -88.9162       3 -88.9162
 
 
 
 E-fermi :   6.1930     XC(G=0):  -9.1268     alpha+bet :-10.6731


 k-point     1 :       0.0000    0.0000    0.0000
  band No.  band energies     occupation 
      1      -7.5452      2.00000
      2      -4.2434      2.00000
      3      -4.2434      2.00000
      4       3.0506      2.00000
      5       3.3916      2.00000
      6       3.3916      2.00000
      7       4.3705      2.00000
      8       4.3705      2.00000
      9       5.1138      2.00000
     10       7.0821      0.00000
     11       7.0821      0.00000
     12       7.6515      0.00000
     13      11.0631      0.00000
     14      11.0631      0.00000

 k-point     2 :       0.1111    0.0000    0.0000
  band No.  band energies     occupation 
      1      -7.4577      2.00000
      2      -4.2675      2.00000
      3      -4.2208      2.00000
      4       2.3969      2.00000
      5       2.9274      2.00000
      6       3.1486      2.00000
      7       4.6905      2.00000
      8       4.9503      2.00000
      9       5.4194      2.00000
     10       6.7563      0.00000
     11       7.0007      0.00000
     12       7.4996      0.00000
     13      10.7586      0.00000
     14      11.0188      0.00000

 k-point     3 :       0.2222    0.0000    0.0000
  band No.  band energies     occupation 
      1      -7.2054      2.00000
      2      -4.3854      2.00000
      3      -4.1576      2.00000
      4       1.5877      2.00000
      5       2.3244      2.00000
      6       2.7443      2.00000
      7       4.8185      2.00000
      8       5.1235      2.00000
      9       5.2620      2.00000
     10       6.8685      0.00000
     11       7.0730      0.00000
     12       7.6398      0.00000
     13       9.9568      0.00000
     14      11.2486      0.00000

 k-point     4 :       0.3333   -0.0000    0.0000
  band No.  band energies     occupation 
      1      -6.8307      2.00000
      2      -4.6619      2.00000
      3      -4.0765      2.00000
      4       1.2220      2.00000
      5       1.8568      2.00000
      6       2.4202      2.00000
      7       3.6842      2.00000
      8       5.2226      2.00000
      9       5.3026      2.00000
     10       6.8242      0.00000
     11       6.9847      0.00000
     12       8.8159      0.00000
     13       9.2909      0.00000
     14      12.0452      0.00000

 k-point     5 :       0.4444    0.0000    0.0000
  band No.  band energies     occupation 
      1      -6.4696      2.00000
      2      -4.9941      2.00000
      3      -4.0185      2.00000
      4       1.2299      2.00000
      5       1.6605      2.00000
      6       2.3158      2.00000
      7       2.7294      2.00000
      8       5.1686      2.00000
      9       5.3210      2.00000
     10       6.8264      0.00000
     11       6.8767      0.00000
     12       8.9369      0.00000
     13       9.6861      0.00000
     14      13.2086      0.00000

 k-point     6 :       0.1111    0.1111    0.0000
  band No.  band energies     occupation 
      1      -7.2875      2.00000
      2      -4.3207      2.00000
      3      -4.1970      2.00000
      4       1.8557      2.00000
      5       2.1788      2.00000
      6       3.2324      2.00000
      7       4.4375      2.00000
      8       5.3714      2.00000
      9       5.3733      2.00000
     10       6.7420      0.00000
     11       7.0716      0.00000
     12       7.5865      0.00000
     13      10.5262      0.00000
     14      10.5920      0.00000

 k-point     7 :       0.2222    0.1111    0.0000
  band No.  band energies     occupation 
      1      -6.9710      2.00000
      2      -4.4902      2.00000
      3      -4.1657      2.00000
      4       1.3707      2.00000
      5       1.7404      2.00000
      6       2.8977      2.00000
      7       4.2377      2.00000
      8       4.5509      2.00000
      9       5.0712      2.00000
     10       7.2073      0.00000
     11       7.5928      0.00000
     12       8.1173      0.00000
     13       9.8836      0.00000
     14      10.9090      0.00000

 k-point     8 :       0.3333    0.1111    0.0000
  band No.  band energies     occupation 
      1      -6.5837      2.00000
      2      -4.8028      2.00000
      3      -4.1295      2.00000
      4       1.2575      2.00000
      5       1.6040      2.00000
      6       2.4980      2.00000
      7       3.2166      2.00000
      8       4.5362      2.00000
      9       4.7925      2.00000
     10       7.3673      0.00000
     11       7.6001      0.00000
     12       9.2230      0.00000
     13       9.4441      0.00000
     14      11.8685      0.00000

 k-point     9 :       0.4444    0.1111    0.0000
  band No.  band energies     occupation 
      1      -6.3631      2.00000
      2      -5.0086      2.00000
      3      -4.1133      2.00000
      4       1.3144      2.00000
      5       1.6392      2.00000
      6       2.4761      2.00000
      7       2.5375      2.00000
      8       4.6013      2.00000
      9       4.6381      2.00000
     10       7.3930      0.00000
     11       7.5925      0.00000
     12       9.2858      0.00000
     13       9.7219      0.00000
     14      12.9185      0.00000

 k-point    10 :       0.2222    0.2222    0.0000
  band No.  band energies     occupation 
      1      -6.6306      2.00000
      2      -4.6323      2.00000
      3      -4.2747      2.00000
      4       1.3654      2.00000
      5       1.4456      2.00000
      6       2.8695      2.00000
      7       3.6976      2.00000
      8       4.0465      2.00000
      9       4.0568      2.00000
     10       8.0915      0.00000
     11       8.3397      0.00000
     12       8.4833      0.00000
     13      10.3090      0.00000
     14      10.6307      0.00000

 k-point    11 :       0.3333    0.2222    0.0000
  band No.  band energies     occupation 
      1      -6.3195      2.00000
      2      -4.8259      2.00000
      3      -4.3665      2.00000
      4       1.4626      2.00000
      5       1.5815      2.00000
      6       2.6430      2.00000
      7       2.9651      2.00000
      8       3.7035      2.00000
      9       3.7762      2.00000
     10       8.3196      0.00000
     11       8.5792      0.00000
     12       9.3179      0.00000
     13      10.2266      0.00000
     14      11.5855      0.00000

 k-point    12 :       0.3333    0.3333    0.0000
  band No.  band energies     occupation 
      1      -6.1979      2.00000
      2      -4.6621      2.00000
      3      -4.6621      2.00000
      4       1.6389      2.00000
      5       1.6389      2.00000
      6       2.9409      2.00000
      7       2.9409      2.00000
      8       3.0721      2.00000
      9       3.2521      2.00000
     10       8.9805      0.00000
     11       8.9805      0.00000
     12       9.2188      0.00000
     13      10.9402      0.00000
     14      11.8114      0.00000

 k-point    13 :       0.0000    0.0000    0.2500
  band No.  band energies     occupation 
      1      -7.3197      2.00000
      2      -5.5954      2.00000
      3      -2.8586      2.00000
      4       2.6923      2.00000
      5       3.1659      2.00000
      6       3.5724      2.00000
      7       4.5721      2.00000
      8       4.6700      2.00000
      9       5.1420      2.00000
     10       6.6890      0.00000
     11       6.7628      0.00000
     12       7.1089      0.00000
     13      10.3997      0.00000
     14      11.4860      0.00000

 k-point    14 :       0.1111    0.0000    0.2500
  band No.  band energies     occupation 
      1      -7.2359      2.00000
      2      -5.5411      2.00000
      3      -2.9703      2.00000
      4       2.3707      2.00000
      5       3.0310      2.00000
      6       3.4611      2.00000
      7       4.2537      2.00000
      8       4.7476      2.00000
      9       4.8063      2.00000
     10       6.9405      0.00000
     11       7.1500      0.00000
     12       7.5233      0.00000
     13      10.4859      0.00000
     14      11.4903      0.00000

 k-point    15 :       0.2222    0.0000    0.2500
  band No.  band energies     occupation 
      1      -6.9991      2.00000
      2      -5.3830      2.00000
      3      -3.3267      2.00000
      4       2.0158      2.00000
      5       2.6287      2.00000
      6       3.1353      2.00000
      7       3.6167      2.00000
      8       4.2318      2.00000
      9       4.6824      2.00000
     10       7.4542      0.00000
     11       7.9277      0.00000
     12       8.3222      0.00000
     13      10.7998      0.00000
     14      11.2277      0.00000

 k-point    16 :       0.3333   -0.0000    0.2500
  band No.  band energies     occupation 
      1      -6.6577      2.00000
      2      -5.1796      2.00000
      3      -3.8271      2.00000
      4       1.6784      2.00000
      5       2.0521      2.00000
      6       2.7587      2.00000
      7       3.1471      2.00000
      8       4.2489      2.00000
      9       4.6027      2.00000
     10       7.5022      0.00000
     11       8.0854      0.00000
     12       9.2181      0.00000
     13      10.3053      0.00000
     14      11.7301      0.00000

 k-point    17 :       0.4444    0.0000    0.2500
  band No.  band energies     occupation 
      1      -6.3312      2.00000
      2      -5.1532      2.00000
      3      -4.0990      2.00000
      4       1.0244      2.00000
      5       1.7498      2.00000
      6       2.4742      2.00000
      7       3.6091      2.00000
      8       4.2950      2.00000
      9       4.5576      2.00000
     10       7.3699      0.00000
     11       8.0355      0.00000
     12       9.0563      0.00000
     13       9.8178      0.00000
     14      12.2305      0.00000

 k-point    18 :      -0.4444   -0.0000    0.2500
  band No.  band energies     occupation 
      1      -6.2893      2.00000
      2      -5.3238      2.00000
      3      -3.8902      2.00000
      4       0.6646      2.00000
      5       1.6403      2.00000
      6       2.4364      2.00000
      7       4.3613      2.00000
      8       4.4334      2.00000
      9       4.6990      2.00000
     10       7.2090      0.00000
     11       7.8398      0.00000
     12       8.2607      0.00000
     13       9.5111      0.00000
     14      12.8230      0.00000

 k-point    19 :      -0.3333    0.0000    0.2500
  band No.  band energies     occupation 
      1      -6.6189      2.00000
      2      -5.3710      2.00000
      3      -3.5210      2.00000
      4       0.8615      2.00000
      5       1.7267      2.00000
      6       2.5876      2.00000
      7       4.6399      2.00000
      8       4.7149      2.00000
      9       5.5485      2.00000
     10       6.8938      0.00000
     11       7.3705      0.00000
     12       7.5886      0.00000
     13       9.4200      0.00000
     14      12.8153      0.00000

 k-point    20 :      -0.2222   -0.0000    0.2500
  band No.  band energies     occupation 
      1      -6.9866      2.00000
      2      -5.4483      2.00000
      3      -3.1814      2.00000
      4       1.5993      2.00000
      5       2.0211      2.00000
      6       2.8895      2.00000
      7       4.8995      2.00000
      8       5.0227      2.00000
      9       5.6415      2.00000
     10       6.6409      0.00000
     11       7.0419      0.00000
     12       7.2854      0.00000
     13       9.6487      0.00000
     14      12.2186      0.00000

 k-point    21 :      -0.1111   -0.0000    0.2500
  band No.  band energies     occupation 
      1      -7.2343      2.00000
      2      -5.5492      2.00000
      3      -2.9474      2.00000
      4       2.4059      2.00000
      5       2.6737      2.00000
      6       3.2941      2.00000
      7       4.7239      2.00000
      8       4.9967      2.00000
      9       5.2301      2.00000
     10       6.5875      0.00000
     11       6.6362      0.00000
     12       7.5445      0.00000
     13      10.1686      0.00000
     14      11.5563      0.00000

 k-point    22 :       0.1111    0.1111    0.2500
  band No.  band energies     occupation 
      1      -7.0714      2.00000
      2      -5.4550      2.00000
      3      -3.1578      2.00000
      4       2.0122      2.00000
      5       2.3034      2.00000
      6       3.1563      2.00000
      7       4.2069      2.00000
      8       4.7642      2.00000
      9       5.1573      2.00000
     10       6.9715      0.00000
     11       7.4973      0.00000
     12       7.6526      0.00000
     13      10.1951      0.00000
     14      11.6114      0.00000

 k-point    23 :       0.2222    0.1111    0.2500
  band No.  band energies     occupation 
      1      -6.7773      2.00000
      2      -5.2781      2.00000
      3      -3.5927      2.00000
      4       1.6354      2.00000
      5       2.0708      2.00000
      6       2.9623      2.00000
      7       3.2214      2.00000
      8       4.2823      2.00000
      9       5.3144      2.00000
     10       7.1643      0.00000
     11       7.8455      0.00000
     12       8.8129      0.00000
     13      10.6033      0.00000
     14      11.0371      0.00000

 k-point    24 :       0.3333    0.1111    0.2500
  band No.  band energies     occupation 
      1      -6.4288      2.00000
      2      -5.1285      2.00000
      3      -4.0397      2.00000
      4       1.3213      2.00000
      5       1.5796      2.00000
      6       2.6572      2.00000
      7       3.2701      2.00000
      8       3.9165      2.00000
      9       5.3799      2.00000
     10       7.0276      0.00000
     11       8.2276      0.00000
     12       9.2151      0.00000
     13      10.1798      0.00000
     14      11.8005      0.00000

 k-point    25 :       0.4444    0.1111    0.2500
  band No.  band energies     occupation 
      1      -6.2129      2.00000
      2      -5.2233      2.00000
      3      -4.0882      2.00000
      4       0.8295      2.00000
      5       1.4690      2.00000
      6       2.5549      2.00000
      7       3.4783      2.00000
      8       4.1424      2.00000
      9       5.4186      2.00000
     10       6.9019      0.00000
     11       8.2991      0.00000
     12       8.6732      0.00000
     13       9.9037      0.00000
     14      12.5991      0.00000

 k-point    26 :      -0.4444    0.1111    0.2500
  band No.  band energies     occupation 
      1      -6.3888      2.00000
      2      -5.3103      2.00000
      3      -3.7994      2.00000
      4       0.7309      2.00000
      5       1.6283      2.00000
      6       2.5523      2.00000
      7       3.5310      2.00000
      8       5.0003      2.00000
      9       5.4766      2.00000
     10       6.7883      0.00000
     11       7.6934      0.00000
     12       8.2922      0.00000
     13       9.7872      0.00000
     14      12.4604      0.00000

 k-point    27 :      -0.3333    0.1111    0.2500
  band No.  band energies     occupation 
      1      -6.7620      2.00000
      2      -5.3558      2.00000
      3      -3.4525      2.00000
      4       1.2002      2.00000
      5       1.8965      2.00000
      6       2.7558      2.00000
      7       3.7776      2.00000
      8       5.1965      2.00000
      9       5.8323      2.00000
     10       6.5977      0.00000
     11       7.2068      0.00000
     12       8.0853      0.00000
     13       9.8395      0.00000
     14      11.7954      0.00000

 k-point    28 :       0.2222    0.2222    0.2500
  band No.  band energies     occupation 
      1      -6.4497      2.00000
      2      -5.2129      2.00000
      3      -3.8843      2.00000
      4       1.0061      2.00000
      5       1.7542      2.00000
      6       2.5285      2.00000
      7       3.0646      2.00000
      8       4.6944      2.00000
      9       5.6769      2.00000
     10       6.9289      0.00000
     11       7.7213      0.00000
     12       8.9389      0.00000
     13      10.5380      0.00000
     14      11.1141      0.00000

 k-point    29 :       0.3333    0.2222    0.2500
  band No.  band energies     occupation 
      1      -6.1704      2.00000
      2      -5.1404      2.00000
      3      -4.2035      2.00000
      4       0.9975      2.00000
      5       1.3263      2.00000
      6       2.1810      2.00000
      7       3.3814      2.00000
      8       4.2511      2.00000
      9       5.4388      2.00000
     10       7.1750      0.00000
     11       8.3589      0.00000
     12       8.9174      0.00000
     13      10.5810      0.00000
     14      11.7054      0.00000

 k-point    30 :       0.4444    0.2222    0.2500
  band No.  band energies     occupation 
      1      -6.1570      2.00000
      2      -5.1964      2.00000
      3      -4.1423      2.00000
      4       0.8289      2.00000
      5       1.4179      2.00000
      6       2.1991      2.00000
      7       3.2965      2.00000
      8       4.6311      2.00000
      9       5.2553      2.00000
     10       7.3424      0.00000
     11       8.0629      0.00000
     12       8.8035      0.00000
     13      10.4881      0.00000
     14      11.9564      0.00000

 k-point    31 :       0.3333    0.3333    0.2500
  band No.  band energies     occupation 
      1      -6.0490      2.00000
      2      -5.1390      2.00000
      3      -4.2989      2.00000
      4       0.9508      2.00000
      5       1.3198      2.00000
      6       1.7852      2.00000
      7       3.6047      2.00000
      8       4.5131      2.00000
      9       4.8926      2.00000
     10       7.9090      0.00000
     11       8.3982      0.00000
     12       8.4890      0.00000
     13      11.3840      0.00000
     14      11.6700      0.00000

 k-point    32 :       0.0000    0.0000    0.5000
  band No.  band energies     occupation 
      1      -6.6552      2.00000
      2      -6.6552      2.00000
      3      -2.1493      2.00000
      4       2.2027      2.00000
      5       3.4098      2.00000
      6       3.4098      2.00000
      7       4.7755      2.00000
      8       5.1044      2.00000
      9       5.1044      2.00000
     10       6.4543      0.00000
     11       6.4543      0.00000
     12       6.4662      0.00000
     13      10.0547      0.00000
     14      11.2370      0.00000

 k-point    33 :       0.1111    0.0000    0.5000
  band No.  band energies     occupation 
      1      -6.5890      2.00000
      2      -6.5732      2.00000
      3      -2.3384      2.00000
      4       2.1681      2.00000
      5       3.2336      2.00000
      6       3.3418      2.00000
      7       4.2001      2.00000
      8       4.6319      2.00000
      9       4.8666      2.00000
     10       6.7337      0.00000
     11       6.9413      0.00000
     12       7.4137      0.00000
     13      10.2863      0.00000
     14      10.9542      0.00000

 k-point    34 :       0.2222    0.0000    0.5000
  band No.  band energies     occupation 
      1      -6.4100      2.00000
      2      -6.3354      2.00000
      3      -2.8282      2.00000
      4       1.8013      2.00000
      5       2.6473      2.00000
      6       3.0633      2.00000
      7       4.0003      2.00000
      8       4.1782      2.00000
      9       4.6165      2.00000
     10       7.2765      0.00000
     11       7.7219      0.00000
     12       8.2498      0.00000
     13      10.4285      0.00000
     14      11.2637      0.00000

 k-point    35 :       0.3333   -0.0000    0.5000
  band No.  band energies     occupation 
      1      -6.1817      2.00000
      2      -5.9782      2.00000
      3      -3.4460      2.00000
      4       0.9721      2.00000
      5       2.4401      2.00000
      6       2.7614      2.00000
      7       3.7402      2.00000
      8       3.9987      2.00000
      9       4.9725      2.00000
     10       7.6095      0.00000
     11       8.0323      0.00000
     12       8.3494      0.00000
     13      10.4599      0.00000
     14      11.5996      0.00000

 k-point    36 :       0.4444    0.0000    0.5000
  band No.  band energies     occupation 
      1      -6.0140      2.00000
      2      -5.6292      2.00000
      3      -3.9535      2.00000
      4       0.4163      2.00000
      5       2.4263      2.00000
      6       2.5356      2.00000
      7       3.5600      2.00000
      8       3.8754      2.00000
      9       5.6971      2.00000
     10       6.9932      0.00000
     11       8.0494      0.00000
     12       8.6231      0.00000
     13      10.5719      0.00000
     14      11.2658      0.00000

 k-point    37 :       0.1111    0.1111    0.5000
  band No.  band energies     occupation 
      1      -6.4620      2.00000
      2      -6.4172      2.00000
      3      -2.6744      2.00000
      4       1.9998      2.00000
      5       2.8587      2.00000
      6       2.9545      2.00000
      7       3.9420      2.00000
      8       4.1357      2.00000
      9       5.1784      2.00000
     10       6.6042      0.00000
     11       7.9178      0.00000
     12       8.0200      0.00000
     13      10.7026      0.00000
     14      10.7107      0.00000

 k-point    38 :       0.2222    0.1111    0.5000
  band No.  band energies     occupation 
      1      -6.2454      2.00000
      2      -6.1284      2.00000
      3      -3.2154      2.00000
      4       1.4109      2.00000
      5       2.2538      2.00000
      6       2.4657      2.00000
      7       3.9604      2.00000
      8       4.3885      2.00000
      9       5.1143      2.00000
     10       7.0193      0.00000
     11       8.2009      0.00000
     12       8.3341      0.00000
     13      10.5508      0.00000
     14      11.4379      0.00000

 k-point    39 :       0.3333    0.1111    0.5000
  band No.  band energies     occupation 
      1      -6.0302      2.00000
      2      -5.7708      2.00000
      3      -3.7745      2.00000
      4       0.6968      2.00000
      5       1.9835      2.00000
      6       2.1458      2.00000
      7       4.0716      2.00000
      8       4.5051      2.00000
      9       5.3852      2.00000
     10       7.3145      0.00000
     11       7.7653      0.00000
     12       8.3967      0.00000
     13      10.6156      0.00000
     14      11.6073      0.00000

 k-point    40 :       0.4444    0.1111    0.5000
  band No.  band energies     occupation 
      1      -5.9371      2.00000
      2      -5.5658      2.00000
      3      -4.0549      2.00000
      4       0.4113      2.00000
      5       1.9162      2.00000
      6       2.0183      2.00000
      7       4.2244      2.00000
      8       4.3169      2.00000
      9       5.9478      2.00000
     10       6.7729      0.00000
     11       7.8688      0.00000
     12       8.3746      0.00000
     13      10.7477      0.00000
     14      11.3047      0.00000

 k-point    41 :       0.2222    0.2222    0.5000
  band No.  band energies     occupation 
      1      -6.0103      2.00000
      2      -5.8572      2.00000
      3      -3.6842      2.00000
      4       1.0558      2.00000
      5       1.5048      2.00000
      6       1.8643      2.00000
      7       4.4738      2.00000
      8       4.8245      2.00000
      9       5.6026      2.00000
     10       6.8490      0.00000
     11       8.0161      0.00000
     12       8.0542      0.00000
     13      10.8780      0.00000
     14      11.7410      0.00000

 k-point    42 :       0.3333    0.2222    0.5000
  band No.  band energies     occupation 
      1      -5.8259      2.00000
      2      -5.6233      2.00000
      3      -4.0464      2.00000
      4       0.6807      2.00000
      5       1.2693      2.00000
      6       1.4617      2.00000
      7       4.8692      2.00000
      8       5.2617      2.00000
      9       5.8660      2.00000
     10       6.8567      0.00000
     11       7.4360      0.00000
     12       7.7893      0.00000
     13      11.2531      0.00000
     14      11.9093      0.00000

 k-point    43 :       0.3333    0.3333    0.5000
  band No.  band energies     occupation 
      1      -5.6508      2.00000
      2      -5.6508      2.00000
      3      -4.1480      2.00000
      4       0.8917      2.00000
      5       0.9921      2.00000
      6       0.9921      2.00000
      7       5.2141      2.00000
      8       6.1113      1.97919
      9       6.1113      1.97919
     10       6.2651      0.04162
     11       7.2812      0.00000
     12       7.2812      0.00000
     13      12.0251      0.00000
     14      12.5223      0.00000


--------------------------------------------------------------------------------------------------------


 soft charge-density along one line, spin component           1
         0         1         2         3         4         5         6         7         8         9
 total charge-density along one line
 
 pseudopotential strength for first ion, spin component:           1
 51.601  56.143  -0.000  -0.000  -0.046  -0.000  -0.000  -0.067
 56.143  61.089  -0.000  -0.000  -0.051  -0.000  -0.000  -0.073
 -0.000  -0.000  12.707   0.009   0.000  18.316   0.013   0.000
 -0.000  -0.000   0.009  12.722   0.000   0.013  18.337   0.000
 -0.046  -0.051   0.000   0.000  12.721   0.000   0.000  18.337
 -0.000  -0.000  18.316   0.013   0.000  26.410   0.019   0.000
 -0.000  -0.000   0.013  18.337   0.000   0.019  26.441   0.000
 -0.067  -0.073   0.000   0.000  18.337   0.000   0.000  26.441
  0.000   0.000  -0.009   0.000  -0.000  -0.013   0.000  -0.000
  0.014   0.015   0.000  -0.000   0.000   0.000  -0.000   0.000
  0.007   0.007   0.000  -0.000   0.006   0.000  -0.000   0.008
  0.000   0.000   0.000  -0.008  -0.000   0.000  -0.012  -0.000
  0.011   0.012   0.000  -0.000  -0.009   0.000  -0.000  -0.013
 total augmentation occupancy for first ion, spin component:           1
 13.728 -10.077   0.000   0.000   2.005   0.000   0.000  -0.512   0.000  -0.162  -0.095   0.000  -0.119
-10.077   8.662   0.000  -0.000  -1.683   0.000  -0.000   0.438   0.000   0.146   0.085   0.000   0.107
  0.000   0.000   2.561   0.203   0.000  -0.508  -0.179   0.000  -0.050   0.000   0.000  -0.048   0.000
  0.000   0.000   0.203   2.889   0.000  -0.179  -0.797  -0.000  -0.046   0.000   0.000  -0.113  -0.000
  2.005  -1.683   0.000   0.000   2.795  -0.000  -0.000  -0.745   0.000  -0.052  -0.013   0.000  -0.050
  0.000   0.000  -0.508  -0.179   0.000   0.185   0.066   0.000   0.012   0.000   0.000   0.017   0.000
 -0.000  -0.000  -0.179  -0.797  -0.000   0.066   0.291   0.000   0.017  -0.000   0.000   0.033  -0.000
 -0.512   0.438   0.000  -0.000  -0.745   0.000   0.000   0.263   0.000   0.015   0.003  -0.000   0.012
  0.000   0.000  -0.050  -0.046   0.000   0.012   0.017   0.000   0.010   0.000   0.000   0.011   0.000
 -0.162   0.146   0.000   0.000  -0.052   0.000   0.000   0.015   0.000   0.015   0.004   0.000   0.004
 -0.095   0.085   0.000   0.000  -0.013   0.000   0.000   0.003   0.000   0.004   0.007   0.000  -0.001
  0.000   0.000  -0.048  -0.113   0.000   0.017   0.033   0.000   0.011   0.000   0.000   0.027   0.000
 -0.119   0.107   0.000   0.000  -0.050  -0.000   0.000   0.012   0.000   0.004  -0.001   0.000   0.010


------------------------ aborting loop because EDIFF is reached ----------------------------------------


    CHARGE:  cpu time    0.0253: real time    0.0254
    FORLOC:  cpu time    0.0009: real time    0.0009
    FORNL :  cpu time    0.0953: real time    0.0955
    STRESS:  cpu time    0.2170: real time    0.2177
    FORCOR:  cpu time    0.0180: real time    0.0180
    FORHAR:  cpu time    0.0039: real time    0.0039
    MIXING:  cpu time    0.0007: real time    0.0007
    OFIELD:  cpu time    0.0000: real time    0.0000

  Hirshfeld charges:
            ion         q(e)     
   ------------------------------
      1     Te         -0.000
      2     Te          0.000
      3     Te          0.000

  Tkatchenko/Scheffler method for vdW energy calculation
  ---------------------------------------------------------------------------------------------

  Parameters of vdW forcefield:
            C6ts              R0ts           ALPHAts        RELVOL
            (au)              (au)            (au)                
   ---------------------------------------------------------------
   Te        395.284          4.213         37.616          0.999
   Te        395.284          4.213         37.616          0.999
   Te        395.284          4.213         37.616          0.999

  Number of pair interactions contributing to vdW energy:   31359
  Edisp (eV):   -0.70347
    FORVDW:  cpu time    0.1430: real time    0.1434

  FORCE on cell =-STRESS in cart. coord.  units (eV):
  Direction    XX          YY          ZZ          XY          YZ          ZX
  --------------------------------------------------------------------------------------
  Alpha Z     2.32000     2.32000     2.32000
  Ewald    -237.58902  -237.58901  -203.60266    -0.00000    -0.00000     0.00000
  Hartree    11.09540    11.09540    19.60236     0.00000     0.00000    -0.00000
  E(xc)     -70.39546   -70.39546   -69.95486    -0.00000     0.00000    -0.00000
  Local    -111.57950  -111.57955  -145.76962    -0.00004     0.00000    -0.00000
  n-local   332.09024   332.93796   328.56908    -1.25377    -0.69175    -1.19582
  augment   -81.07905   -81.07901   -79.03743     0.00004    -0.00000    -0.00000
  Kinetic   151.90980   158.92428   148.83973    -7.69573     0.19347     1.72837
  Fock        0.00000     0.00000     0.00000     0.00000     0.00000     0.00000
  vdW        -0.72337    -0.72337    -0.88865     0.00000    -0.00000    -0.00000
  -------------------------------------------------------------------------------------
  Total      -0.01986    -0.01986     0.07797     0.00000     0.00000     0.00000
  in kB      -0.31574    -0.31574     1.23980     0.00000     0.00000     0.00000
  external pressure =        0.20 kB  Pullay stress =        0.00 kB


 VOLUME and BASIS-vectors are now :
 -----------------------------------------------------------------------------
  energy-cutoff  :      520.00
  volume of cell :      100.76
      direct lattice vectors                 reciprocal lattice vectors
     4.435325711  0.000000000  0.000000000     0.225462585  0.130170884 -0.000000000
    -2.217662856  3.841104740 -0.000000000    -0.000000000  0.260341768  0.000000000
     0.000000000 -0.000000000  5.914070072    -0.000000000  0.000000000  0.169088291

  length of vectors
     4.435325711  4.435325711  5.914070072     0.260341768  0.260341768  0.169088291


 FORCES acting on ions
    electron-ion (+dipol)            ewald-force                    non-local-force                 convergence-correction
 -----------------------------------------------------------------------------------------------
   -.104E+02 0.112E-04 -.990E-06   0.151E+02 0.160E-05 0.149E-05   -.470E+01 0.122E-18 0.833E-16   -.319E-03 -.143E-07 0.649E-09
   0.519E+01 -.899E+01 -.184E-04   -.757E+01 0.131E+02 -.814E-05   0.235E+01 -.407E+01 -.555E-16   0.160E-03 -.277E-03 -.142E-08
   0.519E+01 0.899E+01 0.191E-04   -.757E+01 -.131E+02 0.665E-05   0.235E+01 0.407E+01 0.000E+00   0.160E-03 0.277E-03 0.803E-09
 -----------------------------------------------------------------------------------------------
   0.258E-04 -.819E-05 -.314E-06   0.888E-15 0.000E+00 0.348E-17   0.444E-15 0.000E+00 0.278E-16   -.468E-08 -.107E-07 0.323E-10
 
 
 POSITION                                       TOTAL-FORCE (eV/Angst)
 -----------------------------------------------------------------------------------
      1.22187     -0.00000      1.97136         0.033633     -0.000000      0.000000
     -0.61094      1.05817      3.94271        -0.016816      0.029127     -0.000000
      1.60673      2.78293      0.00000        -0.016816     -0.029127     -0.000000
 -----------------------------------------------------------------------------------
    total drift:                                0.000026     -0.000008     -0.000000


--------------------------------------------------------------------------------------------------------



  FREE ENERGIE OF THE ION-ELECTRON SYSTEM (eV)
  ---------------------------------------------------
  free  energy   TOTEN  =       -10.11671972 eV

  energy  without entropy=      -10.11667377  energy(sigma->0) =      -10.11669675
 
 d Force =-0.6535170E-03[-0.915E-03,-0.392E-03]  d Energy =-0.3335116E-03-0.320E-03
 d Force =-0.4038323E+00[-0.412E+00,-0.396E+00]  d Ewald  =-0.1744521E+01 0.134E+01


--------------------------------------------------------------------------------------------------------


    POTLOK:  cpu time    0.0198: real time    0.0198


--------------------------------------------------------------------------------------------------------




--------------------------------------------------------------------------------------------------------


    WAVPRE:  cpu time    0.0037: real time    0.0066
    FEWALD:  cpu time    0.0002: real time    0.0001
    GENKIN:  cpu time    0.0059: real time    0.0059
    ORTHCH:  cpu time    0.0188: real time    0.0189
     LOOP+:  cpu time    2.3728: real time    2.3894


--------------------------------------- Iteration     11(   1)  ---------------------------------------


    POTLOK:  cpu time    0.0170: real time    0.0190
    SETDIJ:  cpu time    0.0024: real time    0.0024
     EDDAV:  cpu time    0.3244: real time    0.3255
       DOS:  cpu time    0.0005: real time    0.0005
    CHARGE:  cpu time    0.0251: real time    0.0252
    MIXING:  cpu time    0.0005: real time    0.0005
    --------------------------------------------
      LOOP:  cpu time    0.3700: real time    0.3731

 eigenvalue-minimisations  :  1204
 total energy-change (2. order) : 0.2156499E-02  (-0.7663485E-02)
 number of electron      18.0000001 magnetization 
 augmentation part       -3.6092717 magnetization 

 Broyden mixing:
  rms(total) = 0.14773E-01    rms(broyden)= 0.14773E-01
  rms(prec ) = 0.24055E-01
  weight for this iteration     100.00

 Free energy of the ion-electron system (eV)
  ---------------------------------------------------
  alpha Z        PSCENC =         2.32994403
  Ewald energy   TEWEN  =      -680.03925613
  -Hartree energ DENC   =       -41.65609831
  -exchange      EXHF   =         0.00000000
  -V(xc)+E(xc)   XCENC  =       -83.93591821
  PAW double counting   =      1541.19889975    -1425.83851312
  entropy T*S    EENTRO =        -0.00004762
  eigenvalues    EBANDS =         8.71558864
  atomic energy  EATOM  =       669.81430600
  Solvation  Ediel_sol  =         0.00000000
  ---------------------------------------------------
  free energy    TOTEN  =        -9.41109495 eV

  energy without entropy =       -9.41104734  energy(sigma->0) =       -9.41107114


--------------------------------------------------------------------------------------------------------




--------------------------------------- Iteration     11(   2)  ---------------------------------------


    POTLOK:  cpu time    0.0174: real time    0.0174
    SETDIJ:  cpu time    0.0022: real time    0.0023
     EDDAV:  cpu time    0.3604: real time    0.3617
       DOS:  cpu time    0.0005: real time    0.0005
    CHARGE:  cpu time    0.0253: real time    0.0253
    MIXING:  cpu time    0.0006: real time    0.0006
    --------------------------------------------
      LOOP:  cpu time    0.4064: real time    0.4079

 eigenvalue-minimisations  :  1408
 total energy-change (2. order) : 0.2236608E-03  (-0.3216068E-03)
 number of electron      18.0000001 magnetization 
 augmentation part       -3.6082201 magnetization 

 Broyden mixing:
  rms(total) = 0.94443E-02    rms(broyden)= 0.94443E-02
  rms(prec ) = 0.15160E-01
  weight for this iteration     100.00

 eigenvalues of (default mixing * dielectric matrix)
  average eigenvalue GAMMA=   0.8091
  0.8091

 Free energy of the ion-electron system (eV)
  ---------------------------------------------------
  alpha Z        PSCENC =         2.32994403
  Ewald energy   TEWEN  =      -680.03925613
  -Hartree energ DENC   =       -41.52172774
  -exchange      EXHF   =         0.00000000
  -V(xc)+E(xc)   XCENC  =       -83.93228758
  PAW double counting   =      1540.23376711    -1424.87154638
  entropy T*S    EENTRO =        -0.00004548
  eigenvalues    EBANDS =         8.57597487
  atomic energy  EATOM  =       669.81430600
  Solvation  Ediel_sol  =         0.00000000
  ---------------------------------------------------
  free energy    TOTEN  =        -9.41087129 eV

  energy without entropy =       -9.41082581  energy(sigma->0) =       -9.41084855


--------------------------------------------------------------------------------------------------------




--------------------------------------- Iteration     11(   3)  ---------------------------------------


    POTLOK:  cpu time    0.0174: real time    0.0175
    SETDIJ:  cpu time    0.0023: real time    0.0023
     EDDAV:  cpu time    0.3480: real time    0.3491
       DOS:  cpu time    0.0005: real time    0.0005
    CHARGE:  cpu time    0.0255: real time    0.0256
    MIXING:  cpu time    0.0007: real time    0.0007
    --------------------------------------------
      LOOP:  cpu time    0.3943: real time    0.3956

 eigenvalue-minimisations  :  1336
 total energy-change (2. order) : 0.2267449E-03  (-0.2572424E-04)
 number of electron      18.0000001 magnetization 
 augmentation part       -3.6104072 magnetization 

 Broyden mixing:
  rms(total) = 0.41572E-02    rms(broyden)= 0.41572E-02
  rms(prec ) = 0.68536E-02
  weight for this iteration     100.00

 eigenvalues of (default mixing * dielectric matrix)
  average eigenvalue GAMMA=   1.2185
  0.7725  1.6646

 Free energy of the ion-electron system (eV)
  ---------------------------------------------------
  alpha Z        PSCENC =         2.32994403
  Ewald energy   TEWEN  =      -680.03925613
  -Hartree energ DENC   =       -41.42680796
  -exchange      EXHF   =         0.00000000
  -V(xc)+E(xc)   XCENC  =       -83.92727047
  PAW double counting   =      1541.73777260    -1426.37455299
  entropy T*S    EENTRO =        -0.00004551
  eigenvalues    EBANDS =         8.47526589
  atomic energy  EATOM  =       669.81430600
  Solvation  Ediel_sol  =         0.00000000
  ---------------------------------------------------
  free energy    TOTEN  =        -9.41064455 eV

  energy without entropy =       -9.41059903  energy(sigma->0) =       -9.41062179


--------------------------------------------------------------------------------------------------------




--------------------------------------- Iteration     11(   4)  ---------------------------------------


    POTLOK:  cpu time    0.0175: real time    0.0175
    SETDIJ:  cpu time    0.0023: real time    0.0023
     EDDAV:  cpu time    0.3421: real time    0.3432
       DOS:  cpu time    0.0005: real time    0.0005
    CHARGE:  cpu time    0.0256: real time    0.0257
    MIXING:  cpu time    0.0007: real time    0.0007
    --------------------------------------------
      LOOP:  cpu time    0.3887: real time    0.3900

 eigenvalue-minimisations  :  1306
 total energy-change (2. order) : 0.6109369E-04  (-0.1346308E-04)
 number of electron      18.0000001 magnetization 
 augmentation part       -3.6122582 magnetization 

 Broyden mixing:
  rms(total) = 0.76201E-02    rms(broyden)= 0.76201E-02
  rms(prec ) = 0.76416E-02
  weight for this iteration     100.00

 eigenvalues of (default mixing * dielectric matrix)
  average eigenvalue GAMMA=   1.4859
  1.1737  1.6420  1.6420

 Free energy of the ion-electron system (eV)
  ---------------------------------------------------
  alpha Z        PSCENC =         2.32994403
  Ewald energy   TEWEN  =      -680.03925613
  -Hartree energ DENC   =       -41.35343898
  -exchange      EXHF   =         0.00000000
  -V(xc)+E(xc)   XCENC  =       -83.92287490
  PAW double counting   =      1543.37801034    -1428.01527535
  entropy T*S    EENTRO =        -0.00004541
  eigenvalues    EBANDS =         8.39804694
  atomic energy  EATOM  =       669.81430600
  Solvation  Ediel_sol  =         0.00000000
  ---------------------------------------------------
  free energy    TOTEN  =        -9.41058345 eV

  energy without entropy =       -9.41053804  energy(sigma->0) =       -9.41056075


--------------------------------------------------------------------------------------------------------




--------------------------------------- Iteration     11(   5)  ---------------------------------------


    POTLOK:  cpu time    0.0172: real time    0.0173
    SETDIJ:  cpu time    0.0024: real time    0.0024
     EDDAV:  cpu time    0.2237: real time    0.2245
       DOS:  cpu time    0.0005: real time    0.0005
    --------------------------------------------
      LOOP:  cpu time    0.2439: real time    0.2447

 eigenvalue-minimisations  :   638
 total energy-change (2. order) : 0.1028755E-05  (-0.3695536E-06)
 number of electron      18.0000001 magnetization 
 augmentation part       -3.6122582 magnetization 

 Free energy of the ion-electron system (eV)
  ---------------------------------------------------
  alpha Z        PSCENC =         2.32994403
  Ewald energy   TEWEN  =      -680.03925613
  -Hartree energ DENC   =       -41.35122401
  -exchange      EXHF   =         0.00000000
  -V(xc)+E(xc)   XCENC  =       -83.92252949
  PAW double counting   =      1544.43258756    -1429.07146999
  entropy T*S    EENTRO =        -0.00004532
  eigenvalues    EBANDS =         8.39710493
  atomic energy  EATOM  =       669.81430600
  Solvation  Ediel_sol  =         0.00000000
  ---------------------------------------------------
  free energy    TOTEN  =        -9.41058242 eV

  energy without entropy =       -9.41053711  energy(sigma->0) =       -9.41055976


--------------------------------------------------------------------------------------------------------




 average (electrostatic) potential at core
  the test charge radii are     1.1897
  (the norm of the test charge is              1.0000)
       1 -88.8682       2 -88.8682       3 -88.8682
 
 
 
 E-fermi :   6.2566     XC(G=0):  -9.1472     alpha+bet :-10.7188


 k-point     1 :       0.0000    0.0000    0.0000
  band No.  band energies     occupation 
      1      -7.5089      2.00000
      2      -4.1949      2.00000
      3      -4.1949      2.00000
      4       3.1035      2.00000
      5       3.4548      2.00000
      6       3.4548      2.00000
      7       4.4100      2.00000
      8       4.4100      2.00000
      9       5.1345      2.00000
     10       7.1404      0.00000
     11       7.1404      0.00000
     12       7.7008      0.00000
     13      11.1190      0.00000
     14      11.1190      0.00000

 k-point     2 :       0.1111    0.0000    0.0000
  band No.  band energies     occupation 
      1      -7.4204      2.00000
      2      -4.2189      2.00000
      3      -4.1722      2.00000
      4       2.4413      2.00000
      5       2.9803      2.00000
      6       3.1951      2.00000
      7       4.7438      2.00000
      8       4.9941      2.00000
      9       5.4731      2.00000
     10       6.8008      0.00000
     11       7.0545      0.00000
     12       7.5419      0.00000
     13      10.7998      0.00000
     14      11.0716      0.00000

 k-point     3 :       0.2222    0.0000    0.0000
  band No.  band energies     occupation 
      1      -7.1647      2.00000
      2      -4.3379      2.00000
      3      -4.1085      2.00000
      4       1.6239      2.00000
      5       2.3692      2.00000
      6       2.7807      2.00000
      7       4.8787      2.00000
      8       5.1811      2.00000
      9       5.3179      2.00000
     10       6.9125      0.00000
     11       7.1206      0.00000
     12       7.6780      0.00000
     13       9.9840      0.00000
     14      11.2999      0.00000

 k-point     4 :       0.3333   -0.0000    0.0000
  band No.  band energies     occupation 
      1      -6.7834      2.00000
      2      -4.6203      2.00000
      3      -4.0265      2.00000
      4       1.2591      2.00000
      5       1.8961      2.00000
      6       2.4508      2.00000
      7       3.7266      2.00000
      8       5.2969      2.00000
      9       5.3610      2.00000
     10       6.8593      0.00000
     11       7.0206      0.00000
     12       8.8759      0.00000
     13       9.3120      0.00000
     14      12.1009      0.00000

 k-point     5 :       0.4444    0.0000    0.0000
  band No.  band energies     occupation 
      1      -6.4121      2.00000
      2      -4.9634      2.00000
      3      -3.9676      2.00000
      4       1.2741      2.00000
      5       1.7003      2.00000
      6       2.3413      2.00000
      7       2.7586      2.00000
      8       5.2434      2.00000
      9       5.3853      2.00000
     10       6.8592      0.00000
     11       6.9081      0.00000
     12       8.9552      0.00000
     13       9.7556      0.00000
     14      13.2775      0.00000

 k-point     6 :       0.1111    0.1111    0.0000
  band No.  band energies     occupation 
      1      -7.2479      2.00000
      2      -4.2720      2.00000
      3      -4.1488      2.00000
      4       1.8953      2.00000
      5       2.2160      2.00000
      6       3.2865      2.00000
      7       4.4731      2.00000
      8       5.4362      2.00000
      9       5.4434      2.00000
     10       6.7805      0.00000
     11       7.1091      0.00000
     12       7.6347      0.00000
     13      10.5653      0.00000
     14      10.6265      0.00000

 k-point     7 :       0.2222    0.1111    0.0000
  band No.  band energies     occupation 
      1      -6.9265      2.00000
      2      -4.4442      2.00000
      3      -4.1178      2.00000
      4       1.4067      2.00000
      5       1.7756      2.00000
      6       2.9422      2.00000
      7       4.2849      2.00000
      8       4.5947      2.00000
      9       5.1333      2.00000
     10       7.2496      0.00000
     11       7.6497      0.00000
     12       8.1669      0.00000
     13       9.9108      0.00000
     14      10.9484      0.00000

 k-point     8 :       0.3333    0.1111    0.0000
  band No.  band energies     occupation 
      1      -6.5304      2.00000
      2      -4.7657      2.00000
      3      -4.0814      2.00000
      4       1.2986      2.00000
      5       1.6414      2.00000
      6       2.5307      2.00000
      7       3.2528      2.00000
      8       4.5841      2.00000
      9       4.8490      2.00000
     10       7.4159      0.00000
     11       7.6484      0.00000
     12       9.2866      0.00000
     13       9.4683      0.00000
     14      11.9162      0.00000

 k-point     9 :       0.4444    0.1111    0.0000
  band No.  band energies     occupation 
      1      -6.3018      2.00000
      2      -4.9801      2.00000
      3      -4.0650      2.00000
      4       1.3609      2.00000
      5       1.6832      2.00000
      6       2.5018      2.00000
      7       2.5636      2.00000
      8       4.6588      2.00000
      9       4.6854      2.00000
     10       7.4455      0.00000
     11       7.6364      0.00000
     12       9.3075      0.00000
     13       9.7922      0.00000
     14      12.9831      0.00000

 k-point    10 :       0.2222    0.2222    0.0000
  band No.  band energies     occupation 
      1      -6.5789      2.00000
      2      -4.5897      2.00000
      3      -4.2310      2.00000
      4       1.4051      2.00000
      5       1.4818      2.00000
      6       2.9158      2.00000
      7       3.7354      2.00000
      8       4.0827      2.00000
      9       4.1019      2.00000
     10       8.1568      0.00000
     11       8.3994      0.00000
     12       8.5349      0.00000
     13      10.3469      0.00000
     14      10.6573      0.00000

 k-point    11 :       0.3333    0.2222    0.0000
  band No.  band energies     occupation 
      1      -6.2578      2.00000
      2      -4.7926      2.00000
      3      -4.3250      2.00000
      4       1.5103      2.00000
      5       1.6276      2.00000
      6       2.6752      2.00000
      7       2.9969      2.00000
      8       3.7380      2.00000
      9       3.8144      2.00000
     10       8.3851      0.00000
     11       8.6364      0.00000
     12       9.3844      0.00000
     13      10.2591      0.00000
     14      11.6263      0.00000

 k-point    12 :       0.3333    0.3333    0.0000
  band No.  band energies     occupation 
      1      -6.1313      2.00000
      2      -4.6278      2.00000
      3      -4.6278      2.00000
      4       1.6929      2.00000
      5       1.6929      2.00000
      6       2.9747      2.00000
      7       2.9747      2.00000
      8       3.1029      2.00000
      9       3.2706      2.00000
     10       9.0511      0.00000
     11       9.0511      0.00000
     12       9.2785      0.00000
     13      10.9922      0.00000
     14      11.8429      0.00000

 k-point    13 :       0.0000    0.0000    0.2500
  band No.  band energies     occupation 
      1      -7.2827      2.00000
      2      -5.5522      2.00000
      3      -2.8039      2.00000
      4       2.7577      2.00000
      5       3.2164      2.00000
      6       3.6184      2.00000
      7       4.6164      2.00000
      8       4.7286      2.00000
      9       5.1739      2.00000
     10       6.7331      0.00000
     11       6.8102      0.00000
     12       7.1520      0.00000
     13      10.4380      0.00000
     14      11.5243      0.00000

 k-point    14 :       0.1111    0.0000    0.2500
  band No.  band energies     occupation 
      1      -7.1978      2.00000
      2      -5.4970      2.00000
      3      -2.9174      2.00000
      4       2.4250      2.00000
      5       3.0870      2.00000
      6       3.5138      2.00000
      7       4.2891      2.00000
      8       4.7771      2.00000
      9       4.8624      2.00000
     10       6.9778      0.00000
     11       7.2088      0.00000
     12       7.5765      0.00000
     13      10.5237      0.00000
     14      11.5303      0.00000

 k-point    15 :       0.2222    0.0000    0.2500
  band No.  band energies     occupation 
      1      -6.9578      2.00000
      2      -5.3361      2.00000
      3      -3.2805      2.00000
      4       2.0698      2.00000
      5       2.6833      2.00000
      6       3.1770      2.00000
      7       3.6526      2.00000
      8       4.2722      2.00000
      9       4.7106      2.00000
     10       7.5222      0.00000
     11       7.9856      0.00000
     12       8.3788      0.00000
     13      10.8440      0.00000
     14      11.2703      0.00000

 k-point    16 :       0.3333   -0.0000    0.2500
  band No.  band energies     occupation 
      1      -6.6108      2.00000
      2      -5.1274      2.00000
      3      -3.7923      2.00000
      4       1.7295      2.00000
      5       2.1029      2.00000
      6       2.7916      2.00000
      7       3.1777      2.00000
      8       4.2939      2.00000
      9       4.6346      2.00000
     10       7.5703      0.00000
     11       8.1426      0.00000
     12       9.2865      0.00000
     13      10.3360      0.00000
     14      11.7835      0.00000

 k-point    17 :       0.4444    0.0000    0.2500
  band No.  band energies     occupation 
      1      -6.2761      2.00000
      2      -5.1029      2.00000
      3      -4.0690      2.00000
      4       1.0579      2.00000
      5       1.8009      2.00000
      6       2.5063      2.00000
      7       3.6477      2.00000
      8       4.3424      2.00000
      9       4.5949      2.00000
     10       7.4330      0.00000
     11       8.0910      0.00000
     12       9.1224      0.00000
     13       9.8401      0.00000
     14      12.2996      0.00000

 k-point    18 :      -0.4444   -0.0000    0.2500
  band No.  band energies     occupation 
      1      -6.2314      2.00000
      2      -5.2832      2.00000
      3      -3.8505      2.00000
      4       0.6901      2.00000
      5       1.6882      2.00000
      6       2.4681      2.00000
      7       4.4137      2.00000
      8       4.4833      2.00000
      9       4.7401      2.00000
     10       7.2658      0.00000
     11       7.8938      0.00000
     12       8.3157      0.00000
     13       9.5298      0.00000
     14      12.9055      0.00000

 k-point    19 :      -0.3333    0.0000    0.2500
  band No.  band energies     occupation 
      1      -6.5704      2.00000
      2      -5.3270      2.00000
      3      -3.4744      2.00000
      4       0.8875      2.00000
      5       1.7733      2.00000
      6       2.6198      2.00000
      7       4.6918      2.00000
      8       4.7735      2.00000
      9       5.6075      2.00000
     10       6.9483      0.00000
     11       7.4094      0.00000
     12       7.6337      0.00000
     13       9.4392      0.00000
     14      12.8891      0.00000

 k-point    20 :      -0.2222   -0.0000    0.2500
  band No.  band energies     occupation 
      1      -6.9450      2.00000
      2      -5.4034      2.00000
      3      -3.1303      2.00000
      4       1.6341      2.00000
      5       2.0690      2.00000
      6       2.9238      2.00000
      7       4.9603      2.00000
      8       5.0850      2.00000
      9       5.7004      2.00000
     10       6.6855      0.00000
     11       7.0804      0.00000
     12       7.3223      0.00000
     13       9.6731      0.00000
     14      12.2814      0.00000

 k-point    21 :      -0.1111   -0.0000    0.2500
  band No.  band energies     occupation 
      1      -7.1962      2.00000
      2      -5.5054      2.00000
      3      -2.8938      2.00000
      4       2.4632      2.00000
      5       2.7190      2.00000
      6       3.3350      2.00000
      7       4.7643      2.00000
      8       5.0631      2.00000
      9       5.2877      2.00000
     10       6.6187      0.00000
     11       6.6694      0.00000
     12       7.6017      0.00000
     13      10.2008      0.00000
     14      11.6011      0.00000

 k-point    22 :       0.1111    0.1111    0.2500
  band No.  band energies     occupation 
      1      -7.0311      2.00000
      2      -5.4097      2.00000
      3      -3.1077      2.00000
      4       2.0605      2.00000
      5       2.3477      2.00000
      6       3.1982      2.00000
      7       4.2550      2.00000
      8       4.8105      2.00000
      9       5.2032      2.00000
     10       7.0251      0.00000
     11       7.5509      0.00000
     12       7.6987      0.00000
     13      10.2266      0.00000
     14      11.6672      0.00000

 k-point    23 :       0.2222    0.1111    0.2500
  band No.  band energies     occupation 
      1      -6.7325      2.00000
      2      -5.2292      2.00000
      3      -3.5514      2.00000
      4       1.6787      2.00000
      5       2.1216      2.00000
      6       3.0004      2.00000
      7       3.2574      2.00000
      8       4.3163      2.00000
      9       5.3662      2.00000
     10       7.2232      0.00000
     11       7.8990      0.00000
     12       8.8768      0.00000
     13      10.6453      0.00000
     14      11.0715      0.00000

 k-point    24 :       0.3333    0.1111    0.2500
  band No.  band energies     occupation 
      1      -6.3768      2.00000
      2      -5.0754      2.00000
      3      -4.0096      2.00000
      4       1.3622      2.00000
      5       1.6191      2.00000
      6       2.7009      2.00000
      7       3.3083      2.00000
      8       3.9438      2.00000
      9       5.4381      2.00000
     10       7.0765      0.00000
     11       8.2901      0.00000
     12       9.2835      0.00000
     13      10.2107      0.00000
     14      11.8506      0.00000

 k-point    25 :       0.4444    0.1111    0.2500
  band No.  band energies     occupation 
      1      -6.1533      2.00000
      2      -5.1788      2.00000
      3      -4.0553      2.00000
      4       0.8589      2.00000
      5       1.5095      2.00000
      6       2.5991      2.00000
      7       3.5132      2.00000
      8       4.1817      2.00000
      9       5.4819      2.00000
     10       6.9430      0.00000
     11       8.3630      0.00000
     12       8.7334      0.00000
     13       9.9300      0.00000
     14      12.6705      0.00000

 k-point    26 :      -0.4444    0.1111    0.2500
  band No.  band energies     occupation 
      1      -6.3347      2.00000
      2      -5.2670      2.00000
      3      -3.7585      2.00000
      4       0.7566      2.00000
      5       1.6734      2.00000
      6       2.5902      2.00000
      7       3.5667      2.00000
      8       5.0590      2.00000
      9       5.5388      2.00000
     10       6.8274      0.00000
     11       7.7419      0.00000
     12       8.3509      0.00000
     13       9.8121      0.00000
     14      12.5176      0.00000

 k-point    27 :      -0.3333    0.1111    0.2500
  band No.  band energies     occupation 
      1      -6.7168      2.00000
      2      -5.3099      2.00000
      3      -3.4062      2.00000
      4       1.2310      2.00000
      5       1.9455      2.00000
      6       2.7905      2.00000
      7       3.8189      2.00000
      8       5.2593      2.00000
      9       5.8983      2.00000
     10       6.6439      0.00000
     11       7.2370      0.00000
     12       8.1415      0.00000
     13       9.8651      0.00000
     14      11.8466      0.00000

 k-point    28 :       0.2222    0.2222    0.2500
  band No.  band energies     occupation 
      1      -6.3980      2.00000
      2      -5.1641      2.00000
      3      -3.8480      2.00000
      4       1.0366      2.00000
      5       1.8046      2.00000
      6       2.5630      2.00000
      7       3.0976      2.00000
      8       4.7417      2.00000
      9       5.7400      2.00000
     10       6.9765      0.00000
     11       7.7678      0.00000
     12       9.0053      0.00000
     13      10.5755      0.00000
     14      11.1526      0.00000

 k-point    29 :       0.3333    0.2222    0.2500
  band No.  band energies     occupation 
      1      -6.1103      2.00000
      2      -5.0906      2.00000
      3      -4.1765      2.00000
      4       1.0317      2.00000
      5       1.3632      2.00000
      6       2.2136      2.00000
      7       3.4300      2.00000
      8       4.2870      2.00000
      9       5.4958      2.00000
     10       7.2229      0.00000
     11       8.4211      0.00000
     12       8.9810      0.00000
     13      10.6187      0.00000
     14      11.7498      0.00000

 k-point    30 :       0.4444    0.2222    0.2500
  band No.  band energies     occupation 
      1      -6.0959      2.00000
      2      -5.1507      2.00000
      3      -4.1116      2.00000
      4       0.8587      2.00000
      5       1.4583      2.00000
      6       2.2322      2.00000
      7       3.3385      2.00000
      8       4.6813      2.00000
      9       5.3039      2.00000
     10       7.3971      0.00000
     11       8.1148      0.00000
     12       8.8685      0.00000
     13      10.5227      0.00000
     14      12.0052      0.00000

 k-point    31 :       0.3333    0.3333    0.2500
  band No.  band energies     occupation 
      1      -5.9839      2.00000
      2      -5.0907      2.00000
      3      -4.2751      2.00000
      4       0.9864      2.00000
      5       1.3596      2.00000
      6       1.8061      2.00000
      7       3.6636      2.00000
      8       4.5582      2.00000
      9       4.9280      2.00000
     10       7.9817      0.00000
     11       8.4517      0.00000
     12       8.5428      0.00000
     13      11.4342      0.00000
     14      11.7188      0.00000

 k-point    32 :       0.0000    0.0000    0.5000
  band No.  band energies     occupation 
      1      -6.6159      2.00000
      2      -6.6159      2.00000
      3      -2.0909      2.00000
      4       2.2659      2.00000
      5       3.4546      2.00000
      6       3.4546      2.00000
      7       4.8300      2.00000
      8       5.1654      2.00000
      9       5.1654      2.00000
     10       6.4832      0.00000
     11       6.4832      0.00000
     12       6.4987      0.00000
     13      10.0967      0.00000
     14      11.2668      0.00000

 k-point    33 :       0.1111    0.0000    0.5000
  band No.  band energies     occupation 
      1      -6.5487      2.00000
      2      -6.5329      2.00000
      3      -2.2831      2.00000
      4       2.2328      2.00000
      5       3.2800      2.00000
      6       3.3915      2.00000
      7       4.2339      2.00000
      8       4.6795      2.00000
      9       4.9129      2.00000
     10       6.7739      0.00000
     11       6.9839      0.00000
     12       7.4673      0.00000
     13      10.3285      0.00000
     14      10.9869      0.00000

 k-point    34 :       0.2222    0.0000    0.5000
  band No.  band energies     occupation 
      1      -6.3668      2.00000
      2      -6.2921      2.00000
      3      -2.7806      2.00000
      4       1.8572      2.00000
      5       2.6924      2.00000
      6       3.1144      2.00000
      7       4.0359      2.00000
      8       4.2150      2.00000
      9       4.6506      2.00000
     10       7.3346      0.00000
     11       7.7750      0.00000
     12       8.3145      0.00000
     13      10.4584      0.00000
     14      11.3170      0.00000

 k-point    35 :       0.3333   -0.0000    0.5000
  band No.  band energies     occupation 
      1      -6.1345      2.00000
      2      -5.9288      2.00000
      3      -3.4089      2.00000
      4       1.0077      2.00000
      5       2.4925      2.00000
      6       2.8144      2.00000
      7       3.7714      2.00000
      8       4.0274      2.00000
      9       5.0156      2.00000
     10       7.6843      0.00000
     11       8.0874      0.00000
     12       8.4099      0.00000
     13      10.4913      0.00000
     14      11.6581      0.00000

 k-point    36 :       0.4444    0.0000    0.5000
  band No.  band energies     occupation 
      1      -5.9635      2.00000
      2      -5.5698      2.00000
      3      -3.9287      2.00000
      4       0.4429      2.00000
      5       2.4804      2.00000
      6       2.5896      2.00000
      7       3.5878      2.00000
      8       3.8998      2.00000
      9       5.7544      2.00000
     10       7.0464      0.00000
     11       8.1205      0.00000
     12       8.6868      0.00000
     13      10.6149      0.00000
     14      11.2991      0.00000

 k-point    37 :       0.1111    0.1111    0.5000
  band No.  band energies     occupation 
      1      -6.4196      2.00000
      2      -6.3751      2.00000
      3      -2.6244      2.00000
      4       2.0629      2.00000
      5       2.9025      2.00000
      6       3.0024      2.00000
      7       3.9716      2.00000
      8       4.1679      2.00000
      9       5.2384      2.00000
     10       6.6358      0.00000
     11       7.9844      0.00000
     12       8.0780      0.00000
     13      10.7446      0.00000
     14      10.7453      0.00000

 k-point    38 :       0.2222    0.1111    0.5000
  band No.  band energies     occupation 
      1      -6.1993      2.00000
      2      -6.0819      2.00000
      3      -3.1740      2.00000
      4       1.4570      2.00000
      5       2.2947      2.00000
      6       2.5081      2.00000
      7       3.9935      2.00000
      8       4.4336      2.00000
      9       5.1637      2.00000
     10       7.0665      0.00000
     11       8.2675      0.00000
     12       8.3968      0.00000
     13      10.5869      0.00000
     14      11.4874      0.00000

 k-point    39 :       0.3333    0.1111    0.5000
  band No.  band energies     occupation 
      1      -5.9801      2.00000
      2      -5.7163      2.00000
      3      -3.7442      2.00000
      4       0.7275      2.00000
      5       2.0234      2.00000
      6       2.1879      2.00000
      7       4.1087      2.00000
      8       4.5540      2.00000
      9       5.4332      2.00000
     10       7.3821      0.00000
     11       7.8160      0.00000
     12       8.4587      0.00000
     13      10.6560      0.00000
     14      11.6546      0.00000

 k-point    40 :       0.4444    0.1111    0.5000
  band No.  band energies     occupation 
      1      -5.8850      2.00000
      2      -5.5037      2.00000
      3      -4.0333      2.00000
      4       0.4373      2.00000
      5       1.9536      2.00000
      6       2.0618      2.00000
      7       4.2660      2.00000
      8       4.3590      2.00000
      9       6.0113      2.00000
     10       6.8196      0.00000
     11       7.9360      0.00000
     12       8.4308      0.00000
     13      10.7972      0.00000
     14      11.3361      0.00000

 k-point    41 :       0.2222    0.2222    0.5000
  band No.  band energies     occupation 
      1      -5.9595      2.00000
      2      -5.8054      2.00000
      3      -3.6514      2.00000
      4       1.0964      2.00000
      5       1.5321      2.00000
      6       1.8999      2.00000
      7       4.5226      2.00000
      8       4.8740      2.00000
      9       5.6645      2.00000
     10       6.8916      0.00000
     11       8.0763      0.00000
     12       8.1103      0.00000
     13      10.9238      0.00000
     14      11.7882      0.00000

 k-point    42 :       0.3333    0.2222    0.5000
  band No.  band energies     occupation 
      1      -5.7712      2.00000
      2      -5.5637      2.00000
      3      -4.0232      2.00000
      4       0.7101      2.00000
      5       1.2980      2.00000
      6       1.4944      2.00000
      7       4.9291      2.00000
      8       5.3195      2.00000
      9       5.9216      2.00000
     10       6.9202      0.00000
     11       7.4763      0.00000
     12       7.8353      0.00000
     13      11.3041      0.00000
     14      11.9540      0.00000

 k-point    43 :       0.3333    0.3333    0.5000
  band No.  band energies     occupation 
      1      -5.5914      2.00000
      2      -5.5914      2.00000
      3      -4.1279      2.00000
      4       0.9278      2.00000
      5       1.0158      2.00000
      6       1.0158      2.00000
      7       5.2897      2.00000
      8       6.1747      1.97952
      9       6.1747      1.97952
     10       6.3289      0.04096
     11       7.3104      0.00000
     12       7.3104      0.00000
     13      12.0876      0.00000
     14      12.5678      0.00000


--------------------------------------------------------------------------------------------------------


 soft charge-density along one line, spin component           1
         0         1         2         3         4         5         6         7         8         9
 total charge-density along one line
 
 pseudopotential strength for first ion, spin component:           1
 51.580  56.121  -0.000  -0.000  -0.046  -0.000  -0.000  -0.066
 56.121  61.064  -0.000  -0.000  -0.050  -0.000  -0.000  -0.072
 -0.000  -0.000  12.702   0.009   0.000  18.310   0.013   0.000
 -0.000  -0.000   0.009  12.717   0.000   0.013  18.330   0.000
 -0.046  -0.050   0.000   0.000  12.717   0.000   0.000  18.330
 -0.000  -0.000  18.310   0.013   0.000  26.401   0.019   0.000
 -0.000  -0.000   0.013  18.330   0.000   0.019  26.431   0.000
 -0.066  -0.072   0.000   0.000  18.330   0.000   0.000  26.432
  0.000   0.000  -0.009   0.000  -0.000  -0.013   0.000  -0.000
  0.014   0.015   0.000  -0.000   0.000   0.000  -0.000   0.000
  0.006   0.007   0.000  -0.000   0.005   0.000  -0.000   0.008
  0.000   0.000   0.000  -0.008  -0.000   0.000  -0.012  -0.000
  0.011   0.012   0.000  -0.000  -0.009   0.000  -0.000  -0.013
 total augmentation occupancy for first ion, spin component:           1
 13.759 -10.116   0.000  -0.000   1.961   0.000   0.000  -0.498   0.000  -0.161  -0.094   0.000  -0.119
-10.116   8.707   0.000   0.000  -1.646   0.000  -0.000   0.426   0.000   0.145   0.084   0.000   0.106
  0.000   0.000   2.570   0.197   0.000  -0.514  -0.175   0.000  -0.049   0.000   0.000  -0.047   0.000
 -0.000  -0.000   0.197   2.888   0.000  -0.175  -0.796  -0.000  -0.046  -0.000   0.000  -0.110  -0.000
  1.961  -1.646   0.000   0.000   2.800   0.000  -0.000  -0.747   0.000  -0.051  -0.013   0.000  -0.049
  0.000   0.000  -0.514  -0.175  -0.000   0.188   0.064   0.000   0.012   0.000   0.000   0.017   0.000
  0.000   0.000  -0.175  -0.796  -0.000   0.064   0.290   0.000   0.017   0.000   0.000   0.032   0.000
 -0.498   0.426  -0.000  -0.000  -0.747   0.000   0.000   0.264   0.000   0.015   0.003  -0.000   0.012
  0.000   0.000  -0.049  -0.046   0.000   0.012   0.017   0.000   0.010   0.000   0.000   0.011   0.000
 -0.161   0.145   0.000   0.000  -0.051   0.000   0.000   0.015   0.000   0.015   0.004   0.000   0.005
 -0.094   0.084   0.000   0.000  -0.013   0.000   0.000   0.003   0.000   0.004   0.007   0.000  -0.001
  0.000   0.000  -0.047  -0.110   0.000   0.017   0.032   0.000   0.011   0.000   0.000   0.027   0.000
 -0.119   0.106   0.000  -0.000  -0.049   0.000   0.000   0.012   0.000   0.005  -0.001   0.000   0.010


------------------------ aborting loop because EDIFF is reached ----------------------------------------


    CHARGE:  cpu time    0.0249: real time    0.0250
    FORLOC:  cpu time    0.0009: real time    0.0009
    FORNL :  cpu time    0.0957: real time    0.0959
    STRESS:  cpu time    0.2193: real time    0.2199
    FORCOR:  cpu time    0.0177: real time    0.0177
    FORHAR:  cpu time    0.0037: real time    0.0037
    MIXING:  cpu time    0.0007: real time    0.0007
    OFIELD:  cpu time    0.0000: real time    0.0000

  Hirshfeld charges:
            ion         q(e)     
   ------------------------------
      1     Te         -0.000
      2     Te          0.000
      3     Te          0.000

  Tkatchenko/Scheffler method for vdW energy calculation
  ---------------------------------------------------------------------------------------------

  Parameters of vdW forcefield:
            C6ts              R0ts           ALPHAts        RELVOL
            (au)              (au)            (au)                
   ---------------------------------------------------------------
   Te        395.278          4.213         37.616          0.999
   Te        395.278          4.213         37.616          0.999
   Te        395.278          4.213         37.616          0.999

  Number of pair interactions contributing to vdW energy:   31443
  Edisp (eV):   -0.70653
    FORVDW:  cpu time    0.1433: real time    0.1437

  FORCE on cell =-STRESS in cart. coord.  units (eV):
  Direction    XX          YY          ZZ          XY          YZ          ZX
  --------------------------------------------------------------------------------------
  Alpha Z     2.32994     2.32994     2.32994
  Ewald    -237.64445  -237.64444  -204.75097    -0.00000    -0.00000     0.00000
  Hartree    11.04771    11.04771    19.25021     0.00000     0.00000    -0.00000
  E(xc)     -70.40505   -70.40505   -69.97182    -0.00000     0.00000    -0.00000
  Local    -111.41967  -111.41971  -144.41774    -0.00004     0.00000    -0.00000
  n-local   332.07649   332.92796   328.61258    -1.25551    -0.68471    -1.18501
  augment   -81.06365   -81.06360   -79.06698     0.00004    -0.00000     0.00000
  Kinetic   151.82801   158.92482   149.03754    -7.75913     0.19966     1.76865
  Fock        0.00000     0.00000     0.00000     0.00000     0.00000     0.00000
  vdW        -0.71885    -0.71885    -0.89491     0.00000    -0.00000    -0.00000
  -------------------------------------------------------------------------------------
  Total       0.00463     0.00463     0.12786     0.00000     0.00000     0.00000
  in kB       0.07396     0.07396     2.04183     0.00000     0.00000     0.00000
  external pressure =        0.73 kB  Pullay stress =        0.00 kB


 VOLUME and BASIS-vectors are now :
 -----------------------------------------------------------------------------
  energy-cutoff  :      520.00
  volume of cell :      100.33
      direct lattice vectors                 reciprocal lattice vectors
     4.429102223  0.000000000  0.000000000     0.225779390  0.130353792 -0.000000000
    -2.214551111  3.835715041 -0.000000000    -0.000000000  0.260707584  0.000000000
     0.000000000 -0.000000000  5.905395334    -0.000000000  0.000000000  0.169336673

  length of vectors
     4.429102223  4.429102223  5.905395334     0.260707584  0.260707584  0.169336673


 FORCES acting on ions
    electron-ion (+dipol)            ewald-force                    non-local-force                 convergence-correction
 -----------------------------------------------------------------------------------------------
   -.101E+02 0.112E-04 -.953E-06   0.147E+02 0.161E-05 0.145E-05   -.462E+01 0.279E-16 -.278E-16   0.531E-03 0.154E-07 -.691E-09
   0.503E+01 -.872E+01 -.184E-04   -.736E+01 0.128E+02 -.810E-05   0.231E+01 -.400E+01 0.555E-16   -.265E-03 0.459E-03 0.124E-08
   0.503E+01 0.872E+01 0.191E-04   -.736E+01 -.128E+02 0.664E-05   0.231E+01 0.400E+01 0.000E+00   -.265E-03 -.459E-03 -.580E-09
 -----------------------------------------------------------------------------------------------
   0.258E-04 -.835E-05 -.311E-06   -.888E-15 0.178E-14 0.348E-17   -.444E-15 0.888E-15 0.278E-16   0.508E-08 0.110E-07 -.262E-10
 
 
 POSITION                                       TOTAL-FORCE (eV/Angst)
 -----------------------------------------------------------------------------------
      1.22668     -0.00000      1.96847         0.020351     -0.000000      0.000000
     -0.61334      1.06233      3.93693        -0.010175      0.017624     -0.000000
      1.60121      2.77338      0.00000        -0.010175     -0.017624     -0.000000
 -----------------------------------------------------------------------------------
    total drift:                                0.000026     -0.000008     -0.000000


--------------------------------------------------------------------------------------------------------



  FREE ENERGIE OF THE ION-ELECTRON SYSTEM (eV)
  ---------------------------------------------------
  free  energy   TOTEN  =       -10.11711186 eV

  energy  without entropy=      -10.11706654  energy(sigma->0) =      -10.11708920
 
 d Force = 0.5278188E-03[ 0.398E-03, 0.658E-03]  d Energy = 0.3921461E-03 0.136E-03
 d Force = 0.2919645E+00[ 0.288E+00, 0.296E+00]  d Ewald  = 0.1259175E+01-0.967E+00


--------------------------------------------------------------------------------------------------------


    POTLOK:  cpu time    0.0197: real time    0.0198


--------------------------------------------------------------------------------------------------------




--------------------------------------------------------------------------------------------------------


    WAVPRE:  cpu time    0.1478: real time    0.2239
    FEWALD:  cpu time    0.0003: real time    0.0003
    GENKIN:  cpu time    0.0062: real time    0.0062
    ORTHCH:  cpu time    0.0193: real time    0.0195
     LOOP+:  cpu time    2.5129: real time    2.6021


--------------------------------------- Iteration     12(   1)  ---------------------------------------


    POTLOK:  cpu time    0.0182: real time    0.0263
    SETDIJ:  cpu time    0.0024: real time    0.0024
     EDDAV:  cpu time    0.3247: real time    0.3257
       DOS:  cpu time    0.0005: real time    0.0005
    CHARGE:  cpu time    0.0250: real time    0.0251
    MIXING:  cpu time    0.0005: real time    0.0005
    --------------------------------------------
      LOOP:  cpu time    0.3714: real time    0.3806

 eigenvalue-minimisations  :  1210
 total energy-change (2. order) : 0.5166010E-03  (-0.2407820E-03)
 number of electron      18.0000001 magnetization 
 augmentation part       -3.6120813 magnetization 

 Broyden mixing:
  rms(total) = 0.26697E-02    rms(broyden)= 0.26696E-02
  rms(prec ) = 0.42252E-02
  weight for this iteration     100.00

 Free energy of the ion-electron system (eV)
  ---------------------------------------------------
  alpha Z        PSCENC =         2.33172813
  Ewald energy   TEWEN  =      -680.26397831
  -Hartree energ DENC   =       -41.32161192
  -exchange      EXHF   =         0.00000000
  -V(xc)+E(xc)   XCENC  =       -83.92130232
  PAW double counting   =      1545.46282338    -1430.10304132
  entropy T*S    EENTRO =        -0.00004563
  eigenvalues    EBANDS =         8.59105515
  atomic energy  EATOM  =       669.81430600
  Solvation  Ediel_sol  =         0.00000000
  ---------------------------------------------------
  free energy    TOTEN  =        -9.41006685 eV

  energy without entropy =       -9.41002122  energy(sigma->0) =       -9.41004403


--------------------------------------------------------------------------------------------------------




--------------------------------------- Iteration     12(   2)  ---------------------------------------


    POTLOK:  cpu time    0.0172: real time    0.0173
    SETDIJ:  cpu time    0.0023: real time    0.0023
     EDDAV:  cpu time    0.3666: real time    0.3678
       DOS:  cpu time    0.0005: real time    0.0005
    --------------------------------------------
      LOOP:  cpu time    0.3866: real time    0.3878

 eigenvalue-minimisations  :  1444
 total energy-change (2. order) : 0.6544769E-05  (-0.9933963E-05)
 number of electron      18.0000001 magnetization 
 augmentation part       -3.6120813 magnetization 

 Free energy of the ion-electron system (eV)
  ---------------------------------------------------
  alpha Z        PSCENC =         2.33172813
  Ewald energy   TEWEN  =      -680.26397831
  -Hartree energ DENC   =       -41.29837760
  -exchange      EXHF   =         0.00000000
  -V(xc)+E(xc)   XCENC  =       -83.92075413
  PAW double counting   =      1545.39049343    -1430.03032871
  entropy T*S    EENTRO =        -0.00004527
  eigenvalues    EBANDS =         8.56689616
  atomic energy  EATOM  =       669.81430600
  Solvation  Ediel_sol  =         0.00000000
  ---------------------------------------------------
  free energy    TOTEN  =        -9.41006031 eV

  energy without entropy =       -9.41001504  energy(sigma->0) =       -9.41003767


--------------------------------------------------------------------------------------------------------




 average (electrostatic) potential at core
  the test charge radii are     1.1897
  (the norm of the test charge is              1.0000)
       1 -88.8539       2 -88.8539       3 -88.8539
 
 
 
 E-fermi :   6.2696     XC(G=0):  -9.1503     alpha+bet :-10.7271


 k-point     1 :       0.0000    0.0000    0.0000
  band No.  band energies     occupation 
      1      -7.5007      2.00000
      2      -4.1842      2.00000
      3      -4.1842      2.00000
      4       3.1144      2.00000
      5       3.4677      2.00000
      6       3.4677      2.00000
      7       4.4184      2.00000
      8       4.4184      2.00000
      9       5.1395      2.00000
     10       7.1525      0.00000
     11       7.1525      0.00000
     12       7.7112      0.00000
     13      11.1294      0.00000
     14      11.1294      0.00000

 k-point     2 :       0.1111    0.0000    0.0000
  band No.  band energies     occupation 
      1      -7.4120      2.00000
      2      -4.2081      2.00000
      3      -4.1614      2.00000
      4       2.4504      2.00000
      5       2.9912      2.00000
      6       3.2048      2.00000
      7       4.7548      2.00000
      8       5.0033      2.00000
      9       5.4843      2.00000
     10       6.8102      0.00000
     11       7.0658      0.00000
     12       7.5510      0.00000
     13      10.8074      0.00000
     14      11.0813      0.00000

 k-point     3 :       0.2222    0.0000    0.0000
  band No.  band energies     occupation 
      1      -7.1556      2.00000
      2      -4.3273      2.00000
      3      -4.0976      2.00000
      4       1.6315      2.00000
      5       2.3786      2.00000
      6       2.7885      2.00000
      7       4.8909      2.00000
      8       5.1929      2.00000
      9       5.3295      2.00000
     10       6.9219      0.00000
     11       7.1307      0.00000
     12       7.6865      0.00000
     13       9.9890      0.00000
     14      11.3093      0.00000

 k-point     4 :       0.3333   -0.0000    0.0000
  band No.  band energies     occupation 
      1      -6.7731      2.00000
      2      -4.6108      2.00000
      3      -4.0153      2.00000
      4       1.2668      2.00000
      5       1.9044      2.00000
      6       2.4575      2.00000
      7       3.7354      2.00000
      8       5.3118      2.00000
      9       5.3730      2.00000
     10       6.8669      0.00000
     11       7.0285      0.00000
     12       8.8885      0.00000
     13       9.3158      0.00000
     14      12.1112      0.00000

 k-point     5 :       0.4444    0.0000    0.0000
  band No.  band energies     occupation 
      1      -6.3998      2.00000
      2      -4.9560      2.00000
      3      -3.9562      2.00000
      4       1.2832      2.00000
      5       1.7085      2.00000
      6       2.3470      2.00000
      7       2.7649      2.00000
      8       5.2582      2.00000
      9       5.3984      2.00000
     10       6.8663      0.00000
     11       6.9152      0.00000
     12       8.9585      0.00000
     13       9.7701      0.00000
     14      13.2904      0.00000

 k-point     6 :       0.1111    0.1111    0.0000
  band No.  band energies     occupation 
      1      -7.2391      2.00000
      2      -4.2611      2.00000
      3      -4.1380      2.00000
      4       1.9036      2.00000
      5       2.2238      2.00000
      6       3.2977      2.00000
      7       4.4808      2.00000
      8       5.4494      2.00000
      9       5.4575      2.00000
     10       6.7889      0.00000
     11       7.1172      0.00000
     12       7.6450      0.00000
     13      10.5725      0.00000
     14      10.6328      0.00000

 k-point     7 :       0.2222    0.1111    0.0000
  band No.  band energies     occupation 
      1      -6.9167      2.00000
      2      -4.4339      2.00000
      3      -4.1071      2.00000
      4       1.4142      2.00000
      5       1.7830      2.00000
      6       2.9515      2.00000
      7       4.2946      2.00000
      8       4.6038      2.00000
      9       5.1458      2.00000
     10       7.2587      0.00000
     11       7.6615      0.00000
     12       8.1776      0.00000
     13       9.9157      0.00000
     14      10.9556      0.00000

 k-point     8 :       0.3333    0.1111    0.0000
  band No.  band energies     occupation 
      1      -6.5189      2.00000
      2      -4.7571      2.00000
      3      -4.0706      2.00000
      4       1.3070      2.00000
      5       1.6492      2.00000
      6       2.5378      2.00000
      7       3.2604      2.00000
      8       4.5939      2.00000
      9       4.8605      2.00000
     10       7.4261      0.00000
     11       7.6586      0.00000
     12       9.2998      0.00000
     13       9.4729      0.00000
     14      11.9250      0.00000

 k-point     9 :       0.4444    0.1111    0.0000
  band No.  band energies     occupation 
      1      -6.2888      2.00000
      2      -4.9732      2.00000
      3      -4.0541      2.00000
      4       1.3703      2.00000
      5       1.6922      2.00000
      6       2.5075      2.00000
      7       2.5693      2.00000
      8       4.6703      2.00000
      9       4.6953      2.00000
     10       7.4563      0.00000
     11       7.6458      0.00000
     12       9.3115      0.00000
     13       9.8068      0.00000
     14      12.9952      0.00000

 k-point    10 :       0.2222    0.2222    0.0000
  band No.  band energies     occupation 
      1      -6.5678      2.00000
      2      -4.5800      2.00000
      3      -4.2211      2.00000
      4       1.4132      2.00000
      5       1.4893      2.00000
      6       2.9254      2.00000
      7       3.7434      2.00000
      8       4.0904      2.00000
      9       4.1112      2.00000
     10       8.1702      0.00000
     11       8.4119      0.00000
     12       8.5458      0.00000
     13      10.3539      0.00000
     14      10.6623      0.00000

 k-point    11 :       0.3333    0.2222    0.0000
  band No.  band energies     occupation 
      1      -6.2447      2.00000
      2      -4.7847      2.00000
      3      -4.3155      2.00000
      4       1.5200      2.00000
      5       1.6370      2.00000
      6       2.6821      2.00000
      7       3.0037      2.00000
      8       3.7453      2.00000
      9       3.8225      2.00000
     10       8.3984      0.00000
     11       8.6484      0.00000
     12       9.3982      0.00000
     13      10.2652      0.00000
     14      11.6340      0.00000

 k-point    12 :       0.3333    0.3333    0.0000
  band No.  band energies     occupation 
      1      -6.1173      2.00000
      2      -4.6197      2.00000
      3      -4.6197      2.00000
      4       1.7038      2.00000
      5       1.7038      2.00000
      6       2.9818      2.00000
      7       2.9818      2.00000
      8       3.1096      2.00000
      9       3.2749      2.00000
     10       9.0655      0.00000
     11       9.0656      0.00000
     12       9.2911      0.00000
     13      11.0018      0.00000
     14      11.8489      0.00000

 k-point    13 :       0.0000    0.0000    0.2500
  band No.  band energies     occupation 
      1      -7.2743      2.00000
      2      -5.5426      2.00000
      3      -2.7918      2.00000
      4       2.7710      2.00000
      5       3.2269      2.00000
      6       3.6280      2.00000
      7       4.6257      2.00000
      8       4.7405      2.00000
      9       5.1810      2.00000
     10       6.7425      0.00000
     11       6.8201      0.00000
     12       7.1611      0.00000
     13      10.4452      0.00000
     14      11.5315      0.00000

 k-point    14 :       0.1111    0.0000    0.2500
  band No.  band energies     occupation 
      1      -7.1892      2.00000
      2      -5.4873      2.00000
      3      -2.9057      2.00000
      4       2.4360      2.00000
      5       3.0984      2.00000
      6       3.5246      2.00000
      7       4.2968      2.00000
      8       4.7835      2.00000
      9       4.8740      2.00000
     10       6.9860      0.00000
     11       7.2209      0.00000
     12       7.5876      0.00000
     13      10.5308      0.00000
     14      11.5377      0.00000

 k-point    15 :       0.2222    0.0000    0.2500
  band No.  band energies     occupation 
      1      -6.9487      2.00000
      2      -5.3257      2.00000
      3      -3.2700      2.00000
      4       2.0808      2.00000
      5       2.6945      2.00000
      6       3.1857      2.00000
      7       3.6602      2.00000
      8       4.2809      2.00000
      9       4.7170      2.00000
     10       7.5360      0.00000
     11       7.9976      0.00000
     12       8.3907      0.00000
     13      10.8522      0.00000
     14      11.2782      0.00000

 k-point    16 :       0.3333   -0.0000    0.2500
  band No.  band energies     occupation 
      1      -6.6006      2.00000
      2      -5.1160      2.00000
      3      -3.7839      2.00000
      4       1.7399      2.00000
      5       2.1132      2.00000
      6       2.7986      2.00000
      7       3.1843      2.00000
      8       4.3034      2.00000
      9       4.6416      2.00000
     10       7.5841      0.00000
     11       8.1545      0.00000
     12       9.3007      0.00000
     13      10.3417      0.00000
     14      11.7933      0.00000

 k-point    17 :       0.4444    0.0000    0.2500
  band No.  band energies     occupation 
      1      -6.2642      2.00000
      2      -5.0918      2.00000
      3      -4.0616      2.00000
      4       1.0648      2.00000
      5       1.8113      2.00000
      6       2.5133      2.00000
      7       3.6558      2.00000
      8       4.3522      2.00000
      9       4.6028      2.00000
     10       7.4457      0.00000
     11       8.1026      0.00000
     12       9.1361      0.00000
     13       9.8444      0.00000
     14      12.3125      0.00000

 k-point    18 :      -0.4444   -0.0000    0.2500
  band No.  band energies     occupation 
      1      -6.2190      2.00000
      2      -5.2740      2.00000
      3      -3.8413      2.00000
      4       0.6955      2.00000
      5       1.6980      2.00000
      6       2.4750      2.00000
      7       4.4244      2.00000
      8       4.4935      2.00000
      9       4.7488      2.00000
     10       7.2774      0.00000
     11       7.9051      0.00000
     12       8.3273      0.00000
     13       9.5334      0.00000
     14      12.9209      0.00000

 k-point    19 :      -0.3333    0.0000    0.2500
  band No.  band energies     occupation 
      1      -6.5599      2.00000
      2      -5.3171      2.00000
      3      -3.4638      2.00000
      4       0.8930      2.00000
      5       1.7828      2.00000
      6       2.6268      2.00000
      7       4.7025      2.00000
      8       4.7854      2.00000
      9       5.6195      2.00000
     10       6.9596      0.00000
     11       7.4178      0.00000
     12       7.6434      0.00000
     13       9.4428      0.00000
     14      12.9027      0.00000

 k-point    20 :      -0.2222   -0.0000    0.2500
  band No.  band energies     occupation 
      1      -6.9358      2.00000
      2      -5.3934      2.00000
      3      -3.1189      2.00000
      4       1.6414      2.00000
      5       2.0788      2.00000
      6       2.9313      2.00000
      7       4.9726      2.00000
      8       5.0976      2.00000
      9       5.7126      2.00000
     10       6.6949      0.00000
     11       7.0888      0.00000
     12       7.3304      0.00000
     13       9.6775      0.00000
     14      12.2930      0.00000

 k-point    21 :      -0.1111   -0.0000    0.2500
  band No.  band energies     occupation 
      1      -7.1877      2.00000
      2      -5.4957      2.00000
      3      -2.8818      2.00000
      4       2.4749      2.00000
      5       2.7283      2.00000
      6       3.3436      2.00000
      7       4.7730      2.00000
      8       5.0765      2.00000
      9       5.2995      2.00000
     10       6.6256      0.00000
     11       6.6767      0.00000
     12       7.6136      0.00000
     13      10.2067      0.00000
     14      11.6095      0.00000

 k-point    22 :       0.1111    0.1111    0.2500
  band No.  band energies     occupation 
      1      -7.0222      2.00000
      2      -5.3997      2.00000
      3      -3.0964      2.00000
      4       2.0704      2.00000
      5       2.3569      2.00000
      6       3.2070      2.00000
      7       4.2648      2.00000
      8       4.8202      2.00000
      9       5.2130      2.00000
     10       7.0361      0.00000
     11       7.5621      0.00000
     12       7.7086      0.00000
     13      10.2323      0.00000
     14      11.6776      0.00000

 k-point    23 :       0.2222    0.1111    0.2500
  band No.  band energies     occupation 
      1      -6.7227      2.00000
      2      -5.2184      2.00000
      3      -3.5419      2.00000
      4       1.6876      2.00000
      5       2.1320      2.00000
      6       3.0084      2.00000
      7       3.2650      2.00000
      8       4.3237      2.00000
      9       5.3771      2.00000
     10       7.2352      0.00000
     11       7.9102      0.00000
     12       8.8901      0.00000
     13      10.6531      0.00000
     14      11.0779      0.00000

 k-point    24 :       0.3333    0.1111    0.2500
  band No.  band energies     occupation 
      1      -6.3655      2.00000
      2      -5.0638      2.00000
      3      -4.0022      2.00000
      4       1.3707      2.00000
      5       1.6273      2.00000
      6       2.7100      2.00000
      7       3.3164      2.00000
      8       3.9499      2.00000
      9       5.4500      2.00000
     10       7.0867      0.00000
     11       8.3029      0.00000
     12       9.2976      0.00000
     13      10.2165      0.00000
     14      11.8598      0.00000

 k-point    25 :       0.4444    0.1111    0.2500
  band No.  band energies     occupation 
      1      -6.1406      2.00000
      2      -5.1688      2.00000
      3      -4.0474      2.00000
      4       0.8652      2.00000
      5       1.5179      2.00000
      6       2.6083      2.00000
      7       3.5206      2.00000
      8       4.1900      2.00000
      9       5.4948      2.00000
     10       6.9518      0.00000
     11       8.3759      0.00000
     12       8.7460      0.00000
     13       9.9351      0.00000
     14      12.6838      0.00000

 k-point    26 :      -0.4444    0.1111    0.2500
  band No.  band energies     occupation 
      1      -6.3230      2.00000
      2      -5.2572      2.00000
      3      -3.7490      2.00000
      4       0.7621      2.00000
      5       1.6827      2.00000
      6       2.5982      2.00000
      7       3.5743      2.00000
      8       5.0709      2.00000
      9       5.5515      2.00000
     10       6.8358      0.00000
     11       7.7522      0.00000
     12       8.3629      0.00000
     13       9.8170      0.00000
     14      12.5282      0.00000

 k-point    27 :      -0.3333    0.1111    0.2500
  band No.  band energies     occupation 
      1      -6.7068      2.00000
      2      -5.2996      2.00000
      3      -3.3957      2.00000
      4       1.2375      2.00000
      5       1.9555      2.00000
      6       2.7980      2.00000
      7       3.8275      2.00000
      8       5.2721      2.00000
      9       5.9118      2.00000
     10       6.6537      0.00000
     11       7.2439      0.00000
     12       8.1531      0.00000
     13       9.8699      0.00000
     14      11.8561      0.00000

 k-point    28 :       0.2222    0.2222    0.2500
  band No.  band energies     occupation 
      1      -6.3869      2.00000
      2      -5.1533      2.00000
      3      -3.8394      2.00000
      4       1.0430      2.00000
      5       1.8148      2.00000
      6       2.5703      2.00000
      7       3.1046      2.00000
      8       4.7516      2.00000
      9       5.7528      2.00000
     10       6.9866      0.00000
     11       7.7778      0.00000
     12       9.0190      0.00000
     13      10.5825      0.00000
     14      11.1596      0.00000

 k-point    29 :       0.3333    0.2222    0.2500
  band No.  band energies     occupation 
      1      -6.0976      2.00000
      2      -5.0796      2.00000
      3      -4.1697      2.00000
      4       1.0388      2.00000
      5       1.3708      2.00000
      6       2.2206      2.00000
      7       3.4400      2.00000
      8       4.2947      2.00000
      9       5.5074      2.00000
     10       7.2331      0.00000
     11       8.4340      0.00000
     12       8.9943      0.00000
     13      10.6257      0.00000
     14      11.7581      0.00000

 k-point    30 :       0.4444    0.2222    0.2500
  band No.  band energies     occupation 
      1      -6.0829      2.00000
      2      -5.1405      2.00000
      3      -4.1041      2.00000
      4       0.8650      2.00000
      5       1.4666      2.00000
      6       2.2392      2.00000
      7       3.3473      2.00000
      8       4.6917      2.00000
      9       5.3141      2.00000
     10       7.4086      0.00000
     11       8.1258      0.00000
     12       8.8818      0.00000
     13      10.5292      0.00000
     14      12.0142      0.00000

 k-point    31 :       0.3333    0.3333    0.2500
  band No.  band energies     occupation 
      1      -5.9702      2.00000
      2      -5.0801      2.00000
      3      -4.2688      2.00000
      4       0.9938      2.00000
      5       1.3678      2.00000
      6       1.8107      2.00000
      7       3.6755      2.00000
      8       4.5676      2.00000
      9       4.9357      2.00000
     10       7.9965      0.00000
     11       8.4630      0.00000
     12       8.5542      0.00000
     13      11.4435      0.00000
     14      11.7279      0.00000

 k-point    32 :       0.0000    0.0000    0.5000
  band No.  band energies     occupation 
      1      -6.6071      2.00000
      2      -6.6071      2.00000
      3      -2.0779      2.00000
      4       2.2786      2.00000
      5       3.4640      2.00000
      6       3.4640      2.00000
      7       4.8412      2.00000
      8       5.1778      2.00000
      9       5.1778      2.00000
     10       6.4896      0.00000
     11       6.4896      0.00000
     12       6.5057      0.00000
     13      10.1045      0.00000
     14      11.2724      0.00000

 k-point    33 :       0.1111    0.0000    0.5000
  band No.  band energies     occupation 
      1      -6.5397      2.00000
      2      -6.5239      2.00000
      3      -2.2707      2.00000
      4       2.2458      2.00000
      5       3.2897      2.00000
      6       3.4019      2.00000
      7       4.2412      2.00000
      8       4.6894      2.00000
      9       4.9226      2.00000
     10       6.7825      0.00000
     11       6.9929      0.00000
     12       7.4785      0.00000
     13      10.3364      0.00000
     14      10.9930      0.00000

 k-point    34 :       0.2222    0.0000    0.5000
  band No.  band energies     occupation 
      1      -6.3572      2.00000
      2      -6.2825      2.00000
      3      -2.7697      2.00000
      4       1.8684      2.00000
      5       2.7017      2.00000
      6       3.1249      2.00000
      7       4.0437      2.00000
      8       4.2228      2.00000
      9       4.6580      2.00000
     10       7.3466      0.00000
     11       7.7861      0.00000
     12       8.3278      0.00000
     13      10.4639      0.00000
     14      11.3269      0.00000

 k-point    35 :       0.3333   -0.0000    0.5000
  band No.  band energies     occupation 
      1      -6.1241      2.00000
      2      -5.9180      2.00000
      3      -3.4001      2.00000
      4       1.0151      2.00000
      5       2.5033      2.00000
      6       2.8252      2.00000
      7       3.7782      2.00000
      8       4.0337      2.00000
      9       5.0247      2.00000
     10       7.6994      0.00000
     11       8.0989      0.00000
     12       8.4224      0.00000
     13      10.4972      0.00000
     14      11.6691      0.00000

 k-point    36 :       0.4444    0.0000    0.5000
  band No.  band energies     occupation 
      1      -5.9525      2.00000
      2      -5.5571      2.00000
      3      -3.9223      2.00000
      4       0.4485      2.00000
      5       2.4914      2.00000
      6       2.6007      2.00000
      7       3.5940      2.00000
      8       3.9053      2.00000
      9       5.7661      2.00000
     10       7.0574      0.00000
     11       8.1349      0.00000
     12       8.6999      0.00000
     13      10.6229      0.00000
     14      11.3054      0.00000

 k-point    37 :       0.1111    0.1111    0.5000
  band No.  band energies     occupation 
      1      -6.4102      2.00000
      2      -6.3657      2.00000
      3      -2.6131      2.00000
      4       2.0755      2.00000
      5       2.9117      2.00000
      6       3.0122      2.00000
      7       3.9781      2.00000
      8       4.1750      2.00000
      9       5.2506      2.00000
     10       6.6428      0.00000
     11       7.9980      0.00000
     12       8.0901      0.00000
     13      10.7507      0.00000
     14      10.7534      0.00000

 k-point    38 :       0.2222    0.1111    0.5000
  band No.  band energies     occupation 
      1      -6.1892      2.00000
      2      -6.0717      2.00000
      3      -3.1643      2.00000
      4       1.4663      2.00000
      5       2.3032      2.00000
      6       2.5168      2.00000
      7       4.0007      2.00000
      8       4.4432      2.00000
      9       5.1740      2.00000
     10       7.0765      0.00000
     11       8.2812      0.00000
     12       8.4098      0.00000
     13      10.5934      0.00000
     14      11.4967      0.00000

 k-point    39 :       0.3333    0.1111    0.5000
  band No.  band energies     occupation 
      1      -5.9691      2.00000
      2      -5.7045      2.00000
      3      -3.7367      2.00000
      4       0.7340      2.00000
      5       2.0317      2.00000
      6       2.1966      2.00000
      7       4.1167      2.00000
      8       4.5641      2.00000
      9       5.4432      2.00000
     10       7.3958      0.00000
     11       7.8266      0.00000
     12       8.4715      0.00000
     13      10.6633      0.00000
     14      11.6634      0.00000

 k-point    40 :       0.4444    0.1111    0.5000
  band No.  band energies     occupation 
      1      -5.8737      2.00000
      2      -5.4905      2.00000
      3      -4.0274      2.00000
      4       0.4428      2.00000
      5       1.9614      2.00000
      6       2.0708      2.00000
      7       4.2748      2.00000
      8       4.3679      2.00000
      9       6.0242      2.00000
     10       6.8294      0.00000
     11       7.9498      0.00000
     12       8.4425      0.00000
     13      10.8063      0.00000
     14      11.3420      0.00000

 k-point    41 :       0.2222    0.2222    0.5000
  band No.  band energies     occupation 
      1      -5.9484      2.00000
      2      -5.7941      2.00000
      3      -3.6433      2.00000
      4       1.1047      2.00000
      5       1.5380      2.00000
      6       1.9074      2.00000
      7       4.5327      2.00000
      8       4.8844      2.00000
      9       5.6772      2.00000
     10       6.9006      0.00000
     11       8.0888      0.00000
     12       8.1219      0.00000
     13      10.9321      0.00000
     14      11.7971      0.00000

 k-point    42 :       0.3333    0.2222    0.5000
  band No.  band energies     occupation 
      1      -5.7594      2.00000
      2      -5.5510      2.00000
      3      -4.0170      2.00000
      4       0.7162      2.00000
      5       1.3041      2.00000
      6       1.5014      2.00000
      7       4.9413      2.00000
      8       5.3314      2.00000
      9       5.9331      2.00000
     10       6.9331      0.00000
     11       7.4850      0.00000
     12       7.8451      0.00000
     13      11.3134      0.00000
     14      11.9623      0.00000

 k-point    43 :       0.3333    0.3333    0.5000
  band No.  band energies     occupation 
      1      -5.5787      2.00000
      2      -5.5787      2.00000
      3      -4.1224      2.00000
      4       0.9353      2.00000
      5       1.0210      2.00000
      6       1.0210      2.00000
      7       5.3048      2.00000
      8       6.1876      1.97954
      9       6.1876      1.97954
     10       6.3419      0.04091
     11       7.3171      0.00000
     12       7.3171      0.00000
     13      12.0992      0.00000
     14      12.5762      0.00000


--------------------------------------------------------------------------------------------------------


 soft charge-density along one line, spin component           1
         0         1         2         3         4         5         6         7         8         9
 total charge-density along one line
 
 pseudopotential strength for first ion, spin component:           1
 51.574  56.114  -0.000  -0.000  -0.045  -0.000  -0.000  -0.066
 56.114  61.057  -0.000  -0.000  -0.049  -0.000  -0.000  -0.072
 -0.000  -0.000  12.701   0.009   0.000  18.308   0.013   0.000
 -0.000  -0.000   0.009  12.716   0.000   0.013  18.329   0.000
 -0.045  -0.049   0.000   0.000  12.716   0.000   0.000  18.329
 -0.000  -0.000  18.308   0.013   0.000  26.399   0.019   0.000
 -0.000  -0.000   0.013  18.329   0.000   0.019  26.429   0.000
 -0.066  -0.072   0.000   0.000  18.329   0.000   0.000  26.429
  0.000   0.000  -0.009   0.000  -0.000  -0.013   0.000  -0.000
  0.014   0.015   0.000  -0.000   0.000   0.000  -0.000   0.000
  0.006   0.007   0.000  -0.000   0.005   0.000  -0.000   0.008
  0.000   0.000   0.000  -0.008  -0.000   0.000  -0.012  -0.000
  0.011   0.012   0.000  -0.000  -0.009   0.000  -0.000  -0.013
 total augmentation occupancy for first ion, spin component:           1
 13.788 -10.136  -0.000  -0.000   1.952   0.000  -0.000  -0.497   0.000  -0.160  -0.094   0.000  -0.119
-10.136   8.720   0.000  -0.000  -1.633   0.000   0.000   0.421   0.000   0.144   0.083  -0.000   0.106
  0.000   0.000   2.573   0.192   0.000  -0.516  -0.172   0.000  -0.049   0.000   0.000  -0.047   0.000
  0.000  -0.000   0.192   2.883   0.000  -0.172  -0.793  -0.000  -0.045   0.000   0.000  -0.109   0.000
  1.952  -1.633   0.000   0.000   2.793   0.000  -0.000  -0.744   0.000  -0.051  -0.013   0.000  -0.049
  0.000   0.000  -0.516  -0.172   0.000   0.188   0.063   0.000   0.012   0.000   0.000   0.017   0.000
 -0.000  -0.000  -0.172  -0.793  -0.000   0.063   0.289   0.000   0.017   0.000   0.000   0.032   0.000
 -0.497   0.421   0.000  -0.000  -0.744   0.000   0.000   0.263   0.000   0.015   0.003  -0.000   0.012
  0.000   0.000  -0.049  -0.045   0.000   0.012   0.017   0.000   0.010   0.000   0.000   0.011   0.000
 -0.160   0.144   0.000   0.000  -0.051   0.000   0.000   0.015   0.000   0.015   0.004   0.000   0.005
 -0.094   0.083   0.000   0.000  -0.013   0.000   0.000   0.003   0.000   0.004   0.007  -0.000  -0.001
  0.000  -0.000  -0.047  -0.109   0.000   0.017   0.032   0.000   0.011   0.000   0.000   0.027   0.000
 -0.119   0.106   0.000   0.000  -0.049   0.000   0.000   0.012   0.000   0.005  -0.001   0.000   0.010


------------------------ aborting loop because EDIFF is reached ----------------------------------------


    CHARGE:  cpu time    0.0252: real time    0.0253
    FORLOC:  cpu time    0.0009: real time    0.0009
    FORNL :  cpu time    0.0958: real time    0.0961
    STRESS:  cpu time    0.2188: real time    0.2195
    FORCOR:  cpu time    0.0177: real time    0.0177
    FORHAR:  cpu time    0.0038: real time    0.0038
    MIXING:  cpu time    0.0006: real time    0.0006
    OFIELD:  cpu time    0.0000: real time    0.0000

  Hirshfeld charges:
            ion         q(e)     
   ------------------------------
      1     Te         -0.000
      2     Te          0.000
      3     Te          0.000

  Tkatchenko/Scheffler method for vdW energy calculation
  ---------------------------------------------------------------------------------------------

  Parameters of vdW forcefield:
            C6ts              R0ts           ALPHAts        RELVOL
            (au)              (au)            (au)                
   ---------------------------------------------------------------
   Te        395.352          4.213         37.619          0.999
   Te        395.351          4.213         37.619          0.999
   Te        395.351          4.213         37.619          0.999

  Number of pair interactions contributing to vdW energy:   31449
  Edisp (eV):   -0.70715
    FORVDW:  cpu time    0.1436: real time    0.1440

  FORCE on cell =-STRESS in cart. coord.  units (eV):
  Direction    XX          YY          ZZ          XY          YZ          ZX
  --------------------------------------------------------------------------------------
  Alpha Z     2.33173     2.33173     2.33173
  Ewald    -237.65526  -237.65525  -204.95408    -0.00000    -0.00000     0.00000
  Hartree    11.03582    11.03582    19.18207     0.00000     0.00000    -0.00000
  E(xc)     -70.41189   -70.41189   -69.98014    -0.00000     0.00000    -0.00000
  Local    -111.37208  -111.37213  -144.15691    -0.00004     0.00000    -0.00000
  n-local   332.02677   332.87937   328.57529    -1.25635    -0.68325    -1.18284
  augment   -81.04550   -81.04546   -79.05730     0.00004    -0.00000     0.00000
  Kinetic   151.79417   158.90732   149.05745    -7.77182     0.20118     1.77667
  Fock        0.00000     0.00000     0.00000     0.00000     0.00000     0.00000
  vdW        -0.71788    -0.71788    -0.89602     0.00000    -0.00000    -0.00000
  -------------------------------------------------------------------------------------
  Total      -0.03125    -0.03125     0.10209     0.00000     0.00000    -0.00000
  in kB      -0.49942    -0.49942     1.63165     0.00000     0.00000    -0.00000
  external pressure =        0.21 kB  Pullay stress =        0.00 kB


 VOLUME and BASIS-vectors are now :
 -----------------------------------------------------------------------------
  energy-cutoff  :      520.00
  volume of cell :      100.25
      direct lattice vectors                 reciprocal lattice vectors
     4.427989161  0.000000000  0.000000000     0.225836144  0.130386559 -0.000000000
    -2.213994581  3.834751102 -0.000000000    -0.000000000  0.260773118  0.000000000
     0.000000000 -0.000000000  5.903843871    -0.000000000  0.000000000  0.169381173

  length of vectors
     4.427989161  4.427989161  5.903843871     0.260773118  0.260773118  0.169381173


 FORCES acting on ions
    electron-ion (+dipol)            ewald-force                    non-local-force                 convergence-correction
 -----------------------------------------------------------------------------------------------
   -.100E+02 0.112E-04 -.946E-06   0.147E+02 0.161E-05 0.145E-05   -.461E+01 -.276E-16 0.278E-16   -.310E-02 0.462E-07 -.185E-08
   0.500E+01 -.867E+01 -.184E-04   -.733E+01 0.127E+02 -.809E-05   0.231E+01 -.399E+01 0.000E+00   0.155E-02 -.268E-02 0.128E-08
   0.500E+01 0.867E+01 0.190E-04   -.733E+01 -.127E+02 0.664E-05   0.231E+01 0.399E+01 0.000E+00   0.155E-02 0.268E-02 0.542E-09
 -----------------------------------------------------------------------------------------------
   0.258E-04 -.837E-05 -.310E-06   0.888E-15 0.000E+00 0.348E-17   0.000E+00 0.000E+00 0.278E-16   0.110E-07 0.196E-07 -.277E-10
 
 
 POSITION                                       TOTAL-FORCE (eV/Angst)
 -----------------------------------------------------------------------------------
      1.22754     -0.00000      1.96795         0.018143      0.000000      0.000000
     -0.61377      1.06308      3.93590        -0.009072      0.015713     -0.000000
      1.60023      2.77167      0.00000        -0.009072     -0.015713     -0.000000
 -----------------------------------------------------------------------------------
    total drift:                                0.000026     -0.000008     -0.000000


--------------------------------------------------------------------------------------------------------



  FREE ENERGIE OF THE ION-ELECTRON SYSTEM (eV)
  ---------------------------------------------------
  free  energy   TOTEN  =       -10.11721221 eV

  energy  without entropy=      -10.11716694  energy(sigma->0) =      -10.11718957
 
 d Force = 0.6739117E-04[ 0.635E-04, 0.713E-04]  d Energy = 0.1003451E-03-0.330E-04
 d Force = 0.5142919E-01[ 0.513E-01, 0.516E-01]  d Ewald  = 0.2247222E+00-0.173E+00


--------------------------------------------------------------------------------------------------------


    POTLOK:  cpu time    0.0197: real time    0.0198


--------------------------------------------------------------------------------------------------------




--------------------------------------------------------------------------------------------------------


    WAVPRE:  cpu time    0.0050: real time    0.8772
    FEWALD:  cpu time    0.0001: real time    0.0001
    GENKIN:  cpu time    0.0079: real time    0.0080
    ORTHCH:  cpu time    0.0227: real time    0.0228
     LOOP+:  cpu time    1.3303: real time    2.2615


--------------------------------------- Iteration     13(   1)  ---------------------------------------


    POTLOK:  cpu time    0.0192: real time    0.0204
    SETDIJ:  cpu time    0.0025: real time    0.0025
     EDDAV:  cpu time    0.3259: real time    0.3269
       DOS:  cpu time    0.0005: real time    0.0005
    CHARGE:  cpu time    0.0255: real time    0.0256
    MIXING:  cpu time    0.0006: real time    0.0006
    --------------------------------------------
      LOOP:  cpu time    0.3742: real time    0.3765

 eigenvalue-minimisations  :  1210
 total energy-change (2. order) : 0.3645487E-03  (-0.8163167E-04)
 number of electron      18.0000001 magnetization 
 augmentation part       -3.6124725 magnetization 

 Broyden mixing:
  rms(total) = 0.27456E-02    rms(broyden)= 0.27455E-02
  rms(prec ) = 0.31234E-02
  weight for this iteration     100.00

 Free energy of the ion-electron system (eV)
  ---------------------------------------------------
  alpha Z        PSCENC =         2.33288414
  Ewald energy   TEWEN  =      -680.40938477
  -Hartree energ DENC   =       -41.23823908
  -exchange      EXHF   =         0.00000000
  -V(xc)+E(xc)   XCENC  =       -83.91853959
  PAW double counting   =      1545.82979566    -1430.46938548
  entropy T*S    EENTRO =        -0.00004565
  eigenvalues    EBANDS =         8.64890648
  atomic energy  EATOM  =       669.81430600
  Solvation  Ediel_sol  =         0.00000000
  ---------------------------------------------------
  free energy    TOTEN  =        -9.40970230 eV

  energy without entropy =       -9.40965665  energy(sigma->0) =       -9.40967947


--------------------------------------------------------------------------------------------------------




--------------------------------------- Iteration     13(   2)  ---------------------------------------


    POTLOK:  cpu time    0.0174: real time    0.0174
    SETDIJ:  cpu time    0.0023: real time    0.0023
     EDDAV:  cpu time    0.3760: real time    0.3772
       DOS:  cpu time    0.0005: real time    0.0005
    --------------------------------------------
      LOOP:  cpu time    0.3961: real time    0.3974

 eigenvalue-minimisations  :  1504
 total energy-change (2. order) : 0.1801877E-06  (-0.3334192E-05)
 number of electron      18.0000001 magnetization 
 augmentation part       -3.6124725 magnetization 

 Free energy of the ion-electron system (eV)
  ---------------------------------------------------
  alpha Z        PSCENC =         2.33288414
  Ewald energy   TEWEN  =      -680.40938477
  -Hartree energ DENC   =       -41.22893701
  -exchange      EXHF   =         0.00000000
  -V(xc)+E(xc)   XCENC  =       -83.91815098
  PAW double counting   =      1546.09213484    -1430.73180624
  entropy T*S    EENTRO =        -0.00004528
  eigenvalues    EBANDS =         8.63929720
  atomic energy  EATOM  =       669.81430600
  Solvation  Ediel_sol  =         0.00000000
  ---------------------------------------------------
  free energy    TOTEN  =        -9.40970212 eV

  energy without entropy =       -9.40965685  energy(sigma->0) =       -9.40967948


--------------------------------------------------------------------------------------------------------




 average (electrostatic) potential at core
  the test charge radii are     1.1897
  (the norm of the test charge is              1.0000)
       1 -88.8521       2 -88.8521       3 -88.8521
 
 
 
 E-fermi :   6.2758     XC(G=0):  -9.1532     alpha+bet :-10.7324


 k-point     1 :       0.0000    0.0000    0.0000
  band No.  band energies     occupation 
      1      -7.4979      2.00000
      2      -4.1801      2.00000
      3      -4.1801      2.00000
      4       3.1196      2.00000
      5       3.4740      2.00000
      6       3.4740      2.00000
      7       4.4220      2.00000
      8       4.4220      2.00000
      9       5.1409      2.00000
     10       7.1582      0.00000
     11       7.1582      0.00000
     12       7.7160      0.00000
     13      11.1355      0.00000
     14      11.1355      0.00000

 k-point     2 :       0.1111    0.0000    0.0000
  band No.  band energies     occupation 
      1      -7.4090      2.00000
      2      -4.2040      2.00000
      3      -4.1573      2.00000
      4       2.4547      2.00000
      5       2.9963      2.00000
      6       3.2092      2.00000
      7       4.7600      2.00000
      8       5.0073      2.00000
      9       5.4896      2.00000
     10       6.8144      0.00000
     11       7.0710      0.00000
     12       7.5550      0.00000
     13      10.8119      0.00000
     14      11.0870      0.00000

 k-point     3 :       0.2222    0.0000    0.0000
  band No.  band energies     occupation 
      1      -7.1523      2.00000
      2      -4.3233      2.00000
      3      -4.0935      2.00000
      4       1.6349      2.00000
      5       2.3828      2.00000
      6       2.7919      2.00000
      7       4.8968      2.00000
      8       5.1984      2.00000
      9       5.3351      2.00000
     10       6.9260      0.00000
     11       7.1351      0.00000
     12       7.6900      0.00000
     13       9.9919      0.00000
     14      11.3149      0.00000

 k-point     4 :       0.3333   -0.0000    0.0000
  band No.  band energies     occupation 
      1      -6.7690      2.00000
      2      -4.6075      2.00000
      3      -4.0112      2.00000
      4       1.2703      2.00000
      5       1.9080      2.00000
      6       2.4602      2.00000
      7       3.7394      2.00000
      8       5.3194      2.00000
      9       5.3788      2.00000
     10       6.8700      0.00000
     11       7.0317      0.00000
     12       8.8942      0.00000
     13       9.3180      0.00000
     14      12.1172      0.00000

 k-point     5 :       0.4444    0.0000    0.0000
  band No.  band energies     occupation 
      1      -6.3946      2.00000
      2      -4.9539      2.00000
      3      -3.9520      2.00000
      4       1.2875      2.00000
      5       1.7123      2.00000
      6       2.3491      2.00000
      7       2.7675      2.00000
      8       5.2659      2.00000
      9       5.4049      2.00000
     10       6.8691      0.00000
     11       6.9180      0.00000
     12       8.9604      0.00000
     13       9.7768      0.00000
     14      13.2978      0.00000

 k-point     6 :       0.1111    0.1111    0.0000
  band No.  band energies     occupation 
      1      -7.2359      2.00000
      2      -4.2570      2.00000
      3      -4.1340      2.00000
      4       1.9073      2.00000
      5       2.2272      2.00000
      6       3.3030      2.00000
      7       4.4839      2.00000
      8       5.4559      2.00000
      9       5.4646      2.00000
     10       6.7923      0.00000
     11       7.1205      0.00000
     12       7.6497      0.00000
     13      10.5767      0.00000
     14      10.6365      0.00000

 k-point     7 :       0.2222    0.1111    0.0000
  band No.  band energies     occupation 
      1      -6.9129      2.00000
      2      -4.4301      2.00000
      3      -4.1031      2.00000
      4       1.4176      2.00000
      5       1.7862      2.00000
      6       2.9557      2.00000
      7       4.2991      2.00000
      8       4.6080      2.00000
      9       5.1520      2.00000
     10       7.2626      0.00000
     11       7.6671      0.00000
     12       8.1822      0.00000
     13       9.9186      0.00000
     14      10.9599      0.00000

 k-point     8 :       0.3333    0.1111    0.0000
  band No.  band energies     occupation 
      1      -6.5142      2.00000
      2      -4.7543      2.00000
      3      -4.0666      2.00000
      4       1.3110      2.00000
      5       1.6527      2.00000
      6       2.5408      2.00000
      7       3.2638      2.00000
      8       4.5985      2.00000
      9       4.8661      2.00000
     10       7.4308      0.00000
     11       7.6632      0.00000
     12       9.3059      0.00000
     13       9.4755      0.00000
     14      11.9301      0.00000

 k-point     9 :       0.4444    0.1111    0.0000
  band No.  band energies     occupation 
      1      -6.2833      2.00000
      2      -4.9713      2.00000
      3      -4.0502      2.00000
      4       1.3749      2.00000
      5       1.6965      2.00000
      6       2.5096      2.00000
      7       2.5715      2.00000
      8       4.6761      2.00000
      9       4.6998      2.00000
     10       7.4614      0.00000
     11       7.6499      0.00000
     12       9.3137      0.00000
     13       9.8136      0.00000
     14      13.0022      0.00000

 k-point    10 :       0.2222    0.2222    0.0000
  band No.  band energies     occupation 
      1      -6.5633      2.00000
      2      -4.5765      2.00000
      3      -4.2177      2.00000
      4       1.4170      2.00000
      5       1.4927      2.00000
      6       2.9299      2.00000
      7       3.7468      2.00000
      8       4.0938      2.00000
      9       4.1155      2.00000
     10       8.1766      0.00000
     11       8.4177      0.00000
     12       8.5507      0.00000
     13      10.3580      0.00000
     14      10.6650      0.00000

 k-point    11 :       0.3333    0.2222    0.0000
  band No.  band energies     occupation 
      1      -6.2391      2.00000
      2      -4.7824      2.00000
      3      -4.3123      2.00000
      4       1.5246      2.00000
      5       1.6415      2.00000
      6       2.6850      2.00000
      7       3.0066      2.00000
      8       3.7484      2.00000
      9       3.8262      2.00000
     10       8.4050      0.00000
     11       8.6539      0.00000
     12       9.4047      0.00000
     13      10.2686      0.00000
     14      11.6383      0.00000

 k-point    12 :       0.3333    0.3333    0.0000
  band No.  band energies     occupation 
      1      -6.1111      2.00000
      2      -4.6172      2.00000
      3      -4.6172      2.00000
      4       1.7093      2.00000
      5       1.7093      2.00000
      6       2.9849      2.00000
      7       2.9849      2.00000
      8       3.1123      2.00000
      9       3.2763      2.00000
     10       9.0725      0.00000
     11       9.0725      0.00000
     12       9.2968      0.00000
     13      11.0075      0.00000
     14      11.8521      0.00000

 k-point    13 :       0.0000    0.0000    0.2500
  band No.  band energies     occupation 
      1      -7.2714      2.00000
      2      -5.5390      2.00000
      3      -2.7872      2.00000
      4       2.7775      2.00000
      5       3.2318      2.00000
      6       3.6323      2.00000
      7       4.6299      2.00000
      8       4.7464      2.00000
      9       5.1837      2.00000
     10       6.7466      0.00000
     11       6.8246      0.00000
     12       7.1653      0.00000
     13      10.4493      0.00000
     14      11.5357      0.00000

 k-point    14 :       0.1111    0.0000    0.2500
  band No.  band energies     occupation 
      1      -7.1862      2.00000
      2      -5.4836      2.00000
      3      -2.9012      2.00000
      4       2.4413      2.00000
      5       3.1040      2.00000
      6       3.5297      2.00000
      7       4.3000      2.00000
      8       4.7857      2.00000
      9       4.8798      2.00000
     10       6.9893      0.00000
     11       7.2267      0.00000
     12       7.5928      0.00000
     13      10.5349      0.00000
     14      11.5421      0.00000

 k-point    15 :       0.2222    0.0000    0.2500
  band No.  band energies     occupation 
      1      -6.9453      2.00000
      2      -5.3218      2.00000
      3      -3.2663      2.00000
      4       2.0861      2.00000
      5       2.6999      2.00000
      6       3.1897      2.00000
      7       3.6636      2.00000
      8       4.2846      2.00000
      9       4.7193      2.00000
     10       7.5428      0.00000
     11       8.0032      0.00000
     12       8.3961      0.00000
     13      10.8570      0.00000
     14      11.2828      0.00000

 k-point    16 :       0.3333   -0.0000    0.2500
  band No.  band energies     occupation 
      1      -6.5966      2.00000
      2      -5.1115      2.00000
      3      -3.7815      2.00000
      4       1.7449      2.00000
      5       2.1182      2.00000
      6       2.8016      2.00000
      7       3.1870      2.00000
      8       4.3077      2.00000
      9       4.6444      2.00000
     10       7.5909      0.00000
     11       8.1601      0.00000
     12       9.3074      0.00000
     13      10.3450      0.00000
     14      11.7991      0.00000

 k-point    17 :       0.4444    0.0000    0.2500
  band No.  band energies     occupation 
      1      -6.2594      2.00000
      2      -5.0875      2.00000
      3      -4.0596      2.00000
      4       1.0680      2.00000
      5       1.8163      2.00000
      6       2.5162      2.00000
      7       3.6594      2.00000
      8       4.3568      2.00000
      9       4.6063      2.00000
     10       7.4521      0.00000
     11       8.1079      0.00000
     12       9.1426      0.00000
     13       9.8466      0.00000
     14      12.3201      0.00000

 k-point    18 :      -0.4444   -0.0000    0.2500
  band No.  band energies     occupation 
      1      -6.2138      2.00000
      2      -5.2708      2.00000
      3      -3.8382      2.00000
      4       0.6978      2.00000
      5       1.7027      2.00000
      6       2.4778      2.00000
      7       4.4296      2.00000
      8       4.4983      2.00000
      9       4.7527      2.00000
     10       7.2831      0.00000
     11       7.9103      0.00000
     12       8.3325      0.00000
     13       9.5353      0.00000
     14      12.9299      0.00000

 k-point    19 :      -0.3333    0.0000    0.2500
  band No.  band energies     occupation 
      1      -6.5557      2.00000
      2      -5.3135      2.00000
      3      -3.4600      2.00000
      4       0.8953      2.00000
      5       1.7873      2.00000
      6       2.6297      2.00000
      7       4.7075      2.00000
      8       4.7912      2.00000
      9       5.6254      2.00000
     10       6.9649      0.00000
     11       7.4214      0.00000
     12       7.6475      0.00000
     13       9.4448      0.00000
     14      12.9107      0.00000

 k-point    20 :      -0.2222   -0.0000    0.2500
  band No.  band energies     occupation 
      1      -6.9324      2.00000
      2      -5.3897      2.00000
      3      -3.1147      2.00000
      4       1.6447      2.00000
      5       2.0835      2.00000
      6       2.9343      2.00000
      7       4.9787      2.00000
      8       5.1038      2.00000
      9       5.7184      2.00000
     10       6.6990      0.00000
     11       7.0922      0.00000
     12       7.3338      0.00000
     13       9.6802      0.00000
     14      12.2998      0.00000

 k-point    21 :      -0.1111   -0.0000    0.2500
  band No.  band energies     occupation 
      1      -7.1846      2.00000
      2      -5.4921      2.00000
      3      -2.8773      2.00000
      4       2.4805      2.00000
      5       2.7327      2.00000
      6       3.3474      2.00000
      7       4.7767      2.00000
      8       5.0831      2.00000
      9       5.3052      2.00000
     10       6.6283      0.00000
     11       6.6796      0.00000
     12       7.6192      0.00000
     13      10.2102      0.00000
     14      11.6144      0.00000

 k-point    22 :       0.1111    0.1111    0.2500
  band No.  band energies     occupation 
      1      -7.0189      2.00000
      2      -5.3959      2.00000
      3      -3.0922      2.00000
      4       2.0751      2.00000
      5       2.3612      2.00000
      6       3.2110      2.00000
      7       4.2695      2.00000
      8       4.8246      2.00000
      9       5.2173      2.00000
     10       7.0413      0.00000
     11       7.5672      0.00000
     12       7.7130      0.00000
     13      10.2357      0.00000
     14      11.6836      0.00000

 k-point    23 :       0.2222    0.1111    0.2500
  band No.  band energies     occupation 
      1      -6.7189      2.00000
      2      -5.2142      2.00000
      3      -3.5387      2.00000
      4       1.6918      2.00000
      5       2.1370      2.00000
      6       3.0119      2.00000
      7       3.2684      2.00000
      8       4.3267      2.00000
      9       5.3820      2.00000
     10       7.2410      0.00000
     11       7.9154      0.00000
     12       8.8963      0.00000
     13      10.6576      0.00000
     14      11.0815      0.00000

 k-point    24 :       0.3333    0.1111    0.2500
  band No.  band energies     occupation 
      1      -6.3610      2.00000
      2      -5.0592      2.00000
      3      -4.0003      2.00000
      4       1.3746      2.00000
      5       1.6310      2.00000
      6       2.7142      2.00000
      7       3.3199      2.00000
      8       3.9522      2.00000
      9       5.4557      2.00000
     10       7.0914      0.00000
     11       8.3091      0.00000
     12       9.3043      0.00000
     13      10.2197      0.00000
     14      11.8652      0.00000

 k-point    25 :       0.4444    0.1111    0.2500
  band No.  band energies     occupation 
      1      -6.1353      2.00000
      2      -5.1652      2.00000
      3      -4.0451      2.00000
      4       0.8678      2.00000
      5       1.5217      2.00000
      6       2.6126      2.00000
      7       3.5237      2.00000
      8       4.1936      2.00000
      9       5.5011      2.00000
     10       6.9556      0.00000
     11       8.3823      0.00000
     12       8.7518      0.00000
     13       9.9377      0.00000
     14      12.6916      0.00000

 k-point    26 :      -0.4444    0.1111    0.2500
  band No.  band energies     occupation 
      1      -6.3182      2.00000
      2      -5.2538      2.00000
      3      -3.7458      2.00000
      4       0.7644      2.00000
      5       1.6870      2.00000
      6       2.6018      2.00000
      7       3.5776      2.00000
      8       5.0768      2.00000
      9       5.5577      2.00000
     10       6.8393      0.00000
     11       7.7568      0.00000
     12       8.3688      0.00000
     13       9.8195      0.00000
     14      12.5344      0.00000

 k-point    27 :      -0.3333    0.1111    0.2500
  band No.  band energies     occupation 
      1      -6.7030      2.00000
      2      -5.2958      2.00000
      3      -3.3919      2.00000
      4       1.2403      2.00000
      5       1.9602      2.00000
      6       2.8011      2.00000
      7       3.8315      2.00000
      8       5.2783      2.00000
      9       5.9184      2.00000
     10       6.6580      0.00000
     11       7.2464      0.00000
     12       8.1586      0.00000
     13       9.8726      0.00000
     14      11.8617      0.00000

 k-point    28 :       0.2222    0.2222    0.2500
  band No.  band energies     occupation 
      1      -6.3824      2.00000
      2      -5.1492      2.00000
      3      -3.8368      2.00000
      4       1.0458      2.00000
      5       1.8198      2.00000
      6       2.5734      2.00000
      7       3.1076      2.00000
      8       4.7561      2.00000
      9       5.7591      2.00000
     10       6.9910      0.00000
     11       7.7822      0.00000
     12       9.0255      0.00000
     13      10.5865      0.00000
     14      11.1638      0.00000

 k-point    29 :       0.3333    0.2222    0.2500
  band No.  band energies     occupation 
      1      -6.0922      2.00000
      2      -5.0754      2.00000
      3      -4.1681      2.00000
      4       1.0421      2.00000
      5       1.3743      2.00000
      6       2.2236      2.00000
      7       3.4447      2.00000
      8       4.2979      2.00000
      9       5.5130      2.00000
     10       7.2375      0.00000
     11       8.4401      0.00000
     12       9.0005      0.00000
     13      10.6297      0.00000
     14      11.7629      0.00000

 k-point    30 :       0.4444    0.2222    0.2500
  band No.  band energies     occupation 
      1      -6.0773      2.00000
      2      -5.1368      2.00000
      3      -4.1021      2.00000
      4       0.8677      2.00000
      5       1.4704      2.00000
      6       2.2422      2.00000
      7       3.3513      2.00000
      8       4.6966      2.00000
      9       5.3187      2.00000
     10       7.4138      0.00000
     11       8.1308      0.00000
     12       8.8883      0.00000
     13      10.5328      0.00000
     14      12.0195      0.00000

 k-point    31 :       0.3333    0.3333    0.2500
  band No.  band energies     occupation 
      1      -5.9642      2.00000
      2      -5.0760      2.00000
      3      -4.2676      2.00000
      4       0.9972      2.00000
      5       1.3716      2.00000
      6       1.8124      2.00000
      7       3.6814      2.00000
      8       4.5719      2.00000
      9       4.9389      2.00000
     10       8.0037      0.00000
     11       8.4681      0.00000
     12       8.5593      0.00000
     13      11.4490      0.00000
     14      11.7332      0.00000

 k-point    32 :       0.0000    0.0000    0.5000
  band No.  band energies     occupation 
      1      -6.6039      2.00000
      2      -6.6039      2.00000
      3      -2.0730      2.00000
      4       2.2849      2.00000
      5       3.4682      2.00000
      6       3.4682      2.00000
      7       4.8466      2.00000
      8       5.1839      2.00000
      9       5.1839      2.00000
     10       6.4921      0.00000
     11       6.4921      0.00000
     12       6.5085      0.00000
     13      10.1092      0.00000
     14      11.2757      0.00000

 k-point    33 :       0.1111    0.0000    0.5000
  band No.  band energies     occupation 
      1      -6.5364      2.00000
      2      -6.5206      2.00000
      3      -2.2661      2.00000
      4       2.2523      2.00000
      5       3.2941      2.00000
      6       3.4067      2.00000
      7       4.2443      2.00000
      8       4.6940      2.00000
      9       4.9270      2.00000
     10       6.7862      0.00000
     11       6.9969      0.00000
     12       7.4837      0.00000
     13      10.3411      0.00000
     14      10.9966      0.00000

 k-point    34 :       0.2222    0.0000    0.5000
  band No.  band energies     occupation 
      1      -6.3536      2.00000
      2      -6.2789      2.00000
      3      -2.7659      2.00000
      4       1.8739      2.00000
      5       2.7060      2.00000
      6       3.1299      2.00000
      7       4.0469      2.00000
      8       4.2262      2.00000
      9       4.6611      2.00000
     10       7.3522      0.00000
     11       7.7913      0.00000
     12       8.3342      0.00000
     13      10.4672      0.00000
     14      11.3327      0.00000

 k-point    35 :       0.3333   -0.0000    0.5000
  band No.  band energies     occupation 
      1      -6.1202      2.00000
      2      -5.9138      2.00000
      3      -3.3974      2.00000
      4       1.0185      2.00000
      5       2.5084      2.00000
      6       2.8304      2.00000
      7       3.7810      2.00000
      8       4.0362      2.00000
      9       5.0287      2.00000
     10       7.7070      0.00000
     11       8.1042      0.00000
     12       8.4283      0.00000
     13      10.5005      0.00000
     14      11.6755      0.00000

 k-point    36 :       0.4444    0.0000    0.5000
  band No.  band energies     occupation 
      1      -5.9481      2.00000
      2      -5.5517      2.00000
      3      -3.9209      2.00000
      4       0.4509      2.00000
      5       2.4967      2.00000
      6       2.6060      2.00000
      7       3.5964      2.00000
      8       3.9072      2.00000
      9       5.7717      2.00000
     10       7.0625      0.00000
     11       8.1421      0.00000
     12       8.7062      0.00000
     13      10.6275      0.00000
     14      11.3089      0.00000

 k-point    37 :       0.1111    0.1111    0.5000
  band No.  band energies     occupation 
      1      -6.4067      2.00000
      2      -6.3622      2.00000
      3      -2.6090      2.00000
      4       2.0819      2.00000
      5       2.9158      2.00000
      6       3.0169      2.00000
      7       3.9806      2.00000
      8       4.1778      2.00000
      9       5.2566      2.00000
     10       6.6455      0.00000
     11       8.0046      0.00000
     12       8.0957      0.00000
     13      10.7544      0.00000
     14      10.7580      0.00000

 k-point    38 :       0.2222    0.1111    0.5000
  band No.  band energies     occupation 
      1      -6.1853      2.00000
      2      -6.0678      2.00000
      3      -3.1612      2.00000
      4       1.4708      2.00000
      5       2.3071      2.00000
      6       2.5209      2.00000
      7       4.0036      2.00000
      8       4.4474      2.00000
      9       5.1787      2.00000
     10       7.0809      0.00000
     11       8.2878      0.00000
     12       8.4159      0.00000
     13      10.5973      0.00000
     14      11.5020      0.00000

 k-point    39 :       0.3333    0.1111    0.5000
  band No.  band energies     occupation 
      1      -5.9648      2.00000
      2      -5.6998      2.00000
      3      -3.7347      2.00000
      4       0.7368      2.00000
      5       2.0355      2.00000
      6       2.2006      2.00000
      7       4.1201      2.00000
      8       4.5688      2.00000
      9       5.4478      2.00000
     10       7.4025      0.00000
     11       7.8315      0.00000
     12       8.4777      0.00000
     13      10.6677      0.00000
     14      11.6685      0.00000

 k-point    40 :       0.4444    0.1111    0.5000
  band No.  band energies     occupation 
      1      -5.8692      2.00000
      2      -5.4848      2.00000
      3      -4.0264      2.00000
      4       0.4451      2.00000
      5       1.9649      2.00000
      6       2.0750      2.00000
      7       4.2787      2.00000
      8       4.3719      2.00000
      9       6.0305      2.00000
     10       6.8338      0.00000
     11       7.9565      0.00000
     12       8.4479      0.00000
     13      10.8117      0.00000
     14      11.3453      0.00000

 k-point    41 :       0.2222    0.2222    0.5000
  band No.  band energies     occupation 
      1      -5.9440      2.00000
      2      -5.7897      2.00000
      3      -3.6411      2.00000
      4       1.1086      2.00000
      5       1.5405      2.00000
      6       1.9107      2.00000
      7       4.5374      2.00000
      8       4.8891      2.00000
      9       5.6833      2.00000
     10       6.9044      0.00000
     11       8.0947      0.00000
     12       8.1274      0.00000
     13      10.9371      0.00000
     14      11.8022      0.00000

 k-point    42 :       0.3333    0.2222    0.5000
  band No.  band energies     occupation 
      1      -5.7546      2.00000
      2      -5.5457      2.00000
      3      -4.0158      2.00000
      4       0.7189      2.00000
      5       1.3067      2.00000
      6       1.5044      2.00000
      7       4.9472      2.00000
      8       5.3370      2.00000
      9       5.9384      2.00000
     10       6.9394      0.00000
     11       7.4887      0.00000
     12       7.8494      0.00000
     13      11.3189      0.00000
     14      11.9671      0.00000

 k-point    43 :       0.3333    0.3333    0.5000
  band No.  band energies     occupation 
      1      -5.5733      2.00000
      2      -5.5733      2.00000
      3      -4.1215      2.00000
      4       0.9387      2.00000
      5       1.0231      2.00000
      6       1.0231      2.00000
      7       5.3125      2.00000
      8       6.1939      1.97954
      9       6.1939      1.97954
     10       6.3481      0.04092
     11       7.3195      0.00000
     12       7.3195      0.00000
     13      12.1060      0.00000
     14      12.5811      0.00000


--------------------------------------------------------------------------------------------------------


 soft charge-density along one line, spin component           1
         0         1         2         3         4         5         6         7         8         9
 total charge-density along one line
 
 pseudopotential strength for first ion, spin component:           1
 51.574  56.114  -0.000  -0.000  -0.045  -0.000  -0.000  -0.066
 56.114  61.056  -0.000  -0.000  -0.049  -0.000  -0.000  -0.071
 -0.000  -0.000  12.701   0.009   0.000  18.308   0.013   0.000
 -0.000  -0.000   0.009  12.716   0.000   0.013  18.328   0.000
 -0.045  -0.049   0.000   0.000  12.716   0.000   0.000  18.328
 -0.000  -0.000  18.308   0.013   0.000  26.399   0.019   0.000
 -0.000  -0.000   0.013  18.328   0.000   0.019  26.429   0.000
 -0.066  -0.071   0.000   0.000  18.328   0.000   0.000  26.429
  0.000   0.000  -0.009   0.000  -0.000  -0.013   0.000  -0.000
  0.014   0.015   0.000  -0.000   0.000   0.000  -0.000   0.000
  0.006   0.007   0.000  -0.000   0.005   0.000  -0.000   0.008
  0.000   0.000   0.000  -0.008  -0.000   0.000  -0.012  -0.000
  0.011   0.012   0.000  -0.000  -0.009   0.000  -0.000  -0.013
 total augmentation occupancy for first ion, spin component:           1
 13.804 -10.149   0.000   0.000   1.948   0.000   0.000  -0.495   0.000  -0.160  -0.093   0.000  -0.119
-10.149   8.730   0.000   0.000  -1.632   0.000  -0.000   0.421   0.000   0.144   0.083   0.000   0.106
  0.000   0.000   2.572   0.193   0.000  -0.515  -0.172   0.000  -0.049   0.000   0.000  -0.047   0.000
 -0.000   0.000   0.193   2.883   0.000  -0.172  -0.793  -0.000  -0.045   0.000   0.000  -0.109   0.000
  1.948  -1.632   0.000   0.000   2.796   0.000  -0.000  -0.745   0.000  -0.051  -0.013   0.000  -0.049
  0.000   0.000  -0.515  -0.172   0.000   0.188   0.063   0.000   0.012   0.000   0.000   0.017   0.000
  0.000  -0.000  -0.172  -0.793  -0.000   0.063   0.289   0.000   0.017  -0.000  -0.000   0.032  -0.000
 -0.495   0.421   0.000  -0.000  -0.745   0.000   0.000   0.263   0.000   0.015   0.003  -0.000   0.012
  0.000   0.000  -0.049  -0.045   0.000   0.012   0.017   0.000   0.010   0.000   0.000   0.011   0.000
 -0.160   0.144   0.000   0.000  -0.051   0.000   0.000   0.015   0.000   0.015   0.004   0.000   0.005
 -0.093   0.083   0.000   0.000  -0.013   0.000   0.000   0.003   0.000   0.004   0.007   0.000  -0.001
  0.000   0.000  -0.047  -0.109   0.000   0.017   0.032  -0.000   0.011   0.000  -0.000   0.027   0.000
 -0.119   0.106   0.000   0.000  -0.049  -0.000   0.000   0.012   0.000   0.005  -0.001   0.000   0.010


------------------------ aborting loop because EDIFF is reached ----------------------------------------


    CHARGE:  cpu time    0.0247: real time    0.0248
    FORLOC:  cpu time    0.0009: real time    0.0009
    FORNL :  cpu time    0.0957: real time    0.0959
    STRESS:  cpu time    0.2171: real time    0.2177
    FORCOR:  cpu time    0.0176: real time    0.0176
    FORHAR:  cpu time    0.0040: real time    0.0040
    MIXING:  cpu time    0.0006: real time    0.0006
    OFIELD:  cpu time    0.0000: real time    0.0000

  Hirshfeld charges:
            ion         q(e)     
   ------------------------------
      1     Te         -0.000
      2     Te          0.000
      3     Te          0.000

  Tkatchenko/Scheffler method for vdW energy calculation
  ---------------------------------------------------------------------------------------------

  Parameters of vdW forcefield:
            C6ts              R0ts           ALPHAts        RELVOL
            (au)              (au)            (au)                
   ---------------------------------------------------------------
   Te        395.303          4.213         37.617          0.999
   Te        395.303          4.213         37.617          0.999
   Te        395.303          4.213         37.617          0.999

  Number of pair interactions contributing to vdW energy:   31467
  Edisp (eV):   -0.70746
    FORVDW:  cpu time    0.1435: real time    0.1438

  FORCE on cell =-STRESS in cart. coord.  units (eV):
  Direction    XX          YY          ZZ          XY          YZ          ZX
  --------------------------------------------------------------------------------------
  Alpha Z     2.33288     2.33288     2.33288
  Ewald    -237.66240  -237.66240  -205.08519    -0.00000    -0.00000     0.00000
  Hartree    11.03236    11.03236    19.14595     0.00000     0.00000    -0.00000
  E(xc)     -70.40854   -70.40854   -69.97755    -0.00000     0.00000    -0.00000
  Local    -111.36186  -111.36191  -144.01465    -0.00004     0.00000    -0.00000
  n-local   332.05720   332.91004   328.61116    -1.25646    -0.68249    -1.18169
  augment   -81.05723   -81.05719   -79.07397     0.00004    -0.00000     0.00000
  Kinetic   151.79987   158.92162   149.09291    -7.77833     0.20160     1.78092
  Fock        0.00000     0.00000     0.00000     0.00000     0.00000     0.00000
  vdW        -0.71742    -0.71742    -0.89671     0.00000    -0.00000    -0.00000
  -------------------------------------------------------------------------------------
  Total       0.00215     0.00215     0.13482     0.00000    -0.00000    -0.00000
  in kB       0.03434     0.03434     2.15574     0.00000    -0.00000    -0.00000
  external pressure =        0.74 kB  Pullay stress =        0.00 kB


 VOLUME and BASIS-vectors are now :
 -----------------------------------------------------------------------------
  energy-cutoff  :      520.00
  volume of cell :      100.20
      direct lattice vectors                 reciprocal lattice vectors
     4.427268554  0.000000000  0.000000000     0.225872903  0.130407781 -0.000000000
    -2.213634277  3.834127037 -0.000000000    -0.000000000  0.260815563  0.000000000
     0.000000000 -0.000000000  5.902839436    -0.000000000  0.000000000  0.169409995

  length of vectors
     4.427268554  4.427268554  5.902839436     0.260815563  0.260815563  0.169409995


 FORCES acting on ions
    electron-ion (+dipol)            ewald-force                    non-local-force                 convergence-correction
 -----------------------------------------------------------------------------------------------
   -.997E+01 0.112E-04 -.942E-06   0.146E+02 0.161E-05 0.144E-05   -.460E+01 0.279E-16 -.833E-16   -.540E-03 0.286E-07 -.119E-08
   0.499E+01 -.864E+01 -.184E-04   -.730E+01 0.126E+02 -.808E-05   0.230E+01 -.398E+01 0.555E-16   0.270E-03 -.467E-03 0.121E-08
   0.499E+01 0.864E+01 0.190E-04   -.730E+01 -.126E+02 0.664E-05   0.230E+01 0.398E+01 0.000E+00   0.270E-03 0.467E-03 -.390E-10
 -----------------------------------------------------------------------------------------------
   0.258E-04 -.838E-05 -.309E-06   0.888E-15 0.000E+00 0.348E-17   0.888E-15 0.444E-15 -.278E-16   0.696E-08 0.131E-07 -.182E-10
 
 
 POSITION                                       TOTAL-FORCE (eV/Angst)
 -----------------------------------------------------------------------------------
      1.22809     -0.00000      1.96761         0.016647     -0.000000      0.000000
     -0.61405      1.06356      3.93523        -0.008324      0.014417     -0.000000
      1.59959      2.77057      0.00000        -0.008324     -0.014417     -0.000000
 -----------------------------------------------------------------------------------
    total drift:                                0.000026     -0.000008     -0.000000


--------------------------------------------------------------------------------------------------------



  FREE ENERGIE OF THE ION-ELECTRON SYSTEM (eV)
  ---------------------------------------------------
  free  energy   TOTEN  =       -10.11716297 eV

  energy  without entropy=      -10.11711769  energy(sigma->0) =      -10.11714033
 
 d Force = 0.3943544E-04[ 0.377E-04, 0.411E-04]  d Energy =-0.4924176E-04 0.887E-04
 d Force = 0.3316127E-01[ 0.331E-01, 0.332E-01]  d Ewald  = 0.1454065E+00-0.112E+00


--------------------------------------------------------------------------------------------------------


    POTLOK:  cpu time    0.0196: real time    0.0196


--------------------------------------------------------------------------------------------------------




--------------------------------------------------------------------------------------------------------


    WAVPRE:  cpu time    0.0037: real time    0.0070
    FEWALD:  cpu time    0.0001: real time    0.0001
    GENKIN:  cpu time    0.0058: real time    0.0058
    ORTHCH:  cpu time    0.0192: real time    0.0193
     LOOP+:  cpu time    1.3318: real time    1.3438


--------------------------------------- Iteration     14(   1)  ---------------------------------------


    POTLOK:  cpu time    0.0180: real time    0.0193
    SETDIJ:  cpu time    0.0022: real time    0.0022
     EDDAV:  cpu time    0.3214: real time    0.3225
       DOS:  cpu time    0.0006: real time    0.0006
    CHARGE:  cpu time    0.0250: real time    0.0251
    MIXING:  cpu time    0.0005: real time    0.0005
    --------------------------------------------
      LOOP:  cpu time    0.3678: real time    0.3702

 eigenvalue-minimisations  :  1216
 total energy-change (2. order) : 0.9963181E-04  (-0.5871198E-05)
 number of electron      18.0000001 magnetization 
 augmentation part       -3.6126625 magnetization 

 Broyden mixing:
  rms(total) = 0.15984E-02    rms(broyden)= 0.15984E-02
  rms(prec ) = 0.16267E-02
  weight for this iteration     100.00

 Free energy of the ion-electron system (eV)
  ---------------------------------------------------
  alpha Z        PSCENC =         2.33320274
  Ewald energy   TEWEN  =      -680.44943232
  -Hartree energ DENC   =       -41.20641508
  -exchange      EXHF   =         0.00000000
  -V(xc)+E(xc)   XCENC  =       -83.91694339
  PAW double counting   =      1546.66477479    -1431.30450692
  entropy T*S    EENTRO =        -0.00004527
  eigenvalues    EBANDS =         8.65545678
  atomic energy  EATOM  =       669.81430600
  Solvation  Ediel_sol  =         0.00000000
  ---------------------------------------------------
  free energy    TOTEN  =        -9.40960267 eV

  energy without entropy =       -9.40955740  energy(sigma->0) =       -9.40958003


--------------------------------------------------------------------------------------------------------




--------------------------------------- Iteration     14(   2)  ---------------------------------------


    POTLOK:  cpu time    0.0181: real time    0.0183
    SETDIJ:  cpu time    0.0023: real time    0.0023
     EDDAV:  cpu time    0.2188: real time    0.2195
       DOS:  cpu time    0.0005: real time    0.0005
    --------------------------------------------
      LOOP:  cpu time    0.2398: real time    0.2407

 eigenvalue-minimisations  :   602
 total energy-change (2. order) :-0.2807428E-07  (-0.2186502E-06)
 number of electron      18.0000001 magnetization 
 augmentation part       -3.6126625 magnetization 

 Free energy of the ion-electron system (eV)
  ---------------------------------------------------
  alpha Z        PSCENC =         2.33320274
  Ewald energy   TEWEN  =      -680.44943232
  -Hartree energ DENC   =       -41.20473590
  -exchange      EXHF   =         0.00000000
  -V(xc)+E(xc)   XCENC  =       -83.91683874
  PAW double counting   =      1546.88271451    -1431.52257929
  entropy T*S    EENTRO =        -0.00004519
  eigenvalues    EBANDS =         8.65380549
  atomic energy  EATOM  =       669.81430600
  Solvation  Ediel_sol  =         0.00000000
  ---------------------------------------------------
  free energy    TOTEN  =        -9.40960270 eV

  energy without entropy =       -9.40955751  energy(sigma->0) =       -9.40958010


--------------------------------------------------------------------------------------------------------




 average (electrostatic) potential at core
  the test charge radii are     1.1897
  (the norm of the test charge is              1.0000)
       1 -88.8529       2 -88.8529       3 -88.8529
 
 
 
 E-fermi :   6.2773     XC(G=0):  -9.1541     alpha+bet :-10.7338


 k-point     1 :       0.0000    0.0000    0.0000
  band No.  band energies     occupation 
      1      -7.4975      2.00000
      2      -4.1795      2.00000
      3      -4.1795      2.00000
      4       3.1208      2.00000
      5       3.4754      2.00000
      6       3.4754      2.00000
      7       4.4227      2.00000
      8       4.4227      2.00000
      9       5.1410      2.00000
     10       7.1594      0.00000
     11       7.1594      0.00000
     12       7.7171      0.00000
     13      11.1371      0.00000
     14      11.1371      0.00000

 k-point     2 :       0.1111    0.0000    0.0000
  band No.  band energies     occupation 
      1      -7.4085      2.00000
      2      -4.2033      2.00000
      3      -4.1567      2.00000
      4       2.4556      2.00000
      5       2.9975      2.00000
      6       3.2102      2.00000
      7       4.7611      2.00000
      8       5.0081      2.00000
      9       5.4907      2.00000
     10       6.8152      0.00000
     11       7.0722      0.00000
     12       7.5558      0.00000
     13      10.8131      0.00000
     14      11.0886      0.00000

 k-point     3 :       0.2222    0.0000    0.0000
  band No.  band energies     occupation 
      1      -7.1518      2.00000
      2      -4.3227      2.00000
      3      -4.0928      2.00000
      4       1.6357      2.00000
      5       2.3838      2.00000
      6       2.7925      2.00000
      7       4.8982      2.00000
      8       5.1997      2.00000
      9       5.3363      2.00000
     10       6.9269      0.00000
     11       7.1361      0.00000
     12       7.6906      0.00000
     13       9.9928      0.00000
     14      11.3164      0.00000

 k-point     4 :       0.3333   -0.0000    0.0000
  band No.  band energies     occupation 
      1      -6.7683      2.00000
      2      -4.6071      2.00000
      3      -4.0105      2.00000
      4       1.2711      2.00000
      5       1.9088      2.00000
      6       2.4608      2.00000
      7       3.7403      2.00000
      8       5.3212      2.00000
      9       5.3801      2.00000
     10       6.8706      0.00000
     11       7.0324      0.00000
     12       8.8955      0.00000
     13       9.3187      0.00000
     14      12.1188      0.00000

 k-point     5 :       0.4444    0.0000    0.0000
  band No.  band energies     occupation 
      1      -6.3936      2.00000
      2      -4.9538      2.00000
      3      -3.9513      2.00000
      4       1.2885      2.00000
      5       1.7131      2.00000
      6       2.3495      2.00000
      7       2.7680      2.00000
      8       5.2677      2.00000
      9       5.4063      2.00000
     10       6.8696      0.00000
     11       6.9185      0.00000
     12       8.9610      0.00000
     13       9.7783      0.00000
     14      13.2998      0.00000

 k-point     6 :       0.1111    0.1111    0.0000
  band No.  band energies     occupation 
      1      -7.2354      2.00000
      2      -4.2564      2.00000
      3      -4.1334      2.00000
      4       1.9082      2.00000
      5       2.2280      2.00000
      6       3.3042      2.00000
      7       4.4845      2.00000
      8       5.4575      2.00000
      9       5.4662      2.00000
     10       6.7929      0.00000
     11       7.1211      0.00000
     12       7.6507      0.00000
     13      10.5779      0.00000
     14      10.6375      0.00000

 k-point     7 :       0.2222    0.1111    0.0000
  band No.  band energies     occupation 
      1      -6.9123      2.00000
      2      -4.4295      2.00000
      3      -4.1025      2.00000
      4       1.4184      2.00000
      5       1.7869      2.00000
      6       2.9566      2.00000
      7       4.3001      2.00000
      8       4.6088      2.00000
      9       5.1535      2.00000
     10       7.2633      0.00000
     11       7.6683      0.00000
     12       8.1832      0.00000
     13       9.9194      0.00000
     14      10.9610      0.00000

 k-point     8 :       0.3333    0.1111    0.0000
  band No.  band energies     occupation 
      1      -6.5133      2.00000
      2      -4.7540      2.00000
      3      -4.0660      2.00000
      4       1.3120      2.00000
      5       1.6534      2.00000
      6       2.5413      2.00000
      7       3.2645      2.00000
      8       4.5995      2.00000
      9       4.8674      2.00000
     10       7.4318      0.00000
     11       7.6642      0.00000
     12       9.3072      0.00000
     13       9.4762      0.00000
     14      11.9315      0.00000

 k-point     9 :       0.4444    0.1111    0.0000
  band No.  band energies     occupation 
      1      -6.2821      2.00000
      2      -4.9713      2.00000
      3      -4.0496      2.00000
      4       1.3760      2.00000
      5       1.6975      2.00000
      6       2.5100      2.00000
      7       2.5719      2.00000
      8       4.6774      2.00000
      9       4.7008      2.00000
     10       7.4626      0.00000
     11       7.6507      0.00000
     12       9.3143      0.00000
     13       9.8151      0.00000
     14      13.0040      0.00000

 k-point    10 :       0.2222    0.2222    0.0000
  band No.  band energies     occupation 
      1      -6.5624      2.00000
      2      -4.5761      2.00000
      3      -4.2172      2.00000
      4       1.4179      2.00000
      5       1.4935      2.00000
      6       2.9309      2.00000
      7       3.7475      2.00000
      8       4.0945      2.00000
      9       4.1165      2.00000
     10       8.1781      0.00000
     11       8.4189      0.00000
     12       8.5517      0.00000
     13      10.3591      0.00000
     14      10.6658      0.00000

 k-point    11 :       0.3333    0.2222    0.0000
  band No.  band energies     occupation 
      1      -6.2380      2.00000
      2      -4.7822      2.00000
      3      -4.3119      2.00000
      4       1.5258      2.00000
      5       1.6426      2.00000
      6       2.6856      2.00000
      7       3.0072      2.00000
      8       3.7490      2.00000
      9       3.8269      2.00000
     10       8.4065      0.00000
     11       8.6550      0.00000
     12       9.4061      0.00000
     13      10.2695      0.00000
     14      11.6395      0.00000

 k-point    12 :       0.3333    0.3333    0.0000
  band No.  band energies     occupation 
      1      -6.1098      2.00000
      2      -4.6170      2.00000
      3      -4.6170      2.00000
      4       1.7106      2.00000
      5       1.7106      2.00000
      6       2.9856      2.00000
      7       2.9856      2.00000
      8       3.1128      2.00000
      9       3.2765      2.00000
     10       9.0741      0.00000
     11       9.0741      0.00000
     12       9.2980      0.00000
     13      11.0090      0.00000
     14      11.8530      0.00000

 k-point    13 :       0.0000    0.0000    0.2500
  band No.  band energies     occupation 
      1      -7.2709      2.00000
      2      -5.5384      2.00000
      3      -2.7865      2.00000
      4       2.7790      2.00000
      5       3.2329      2.00000
      6       3.6332      2.00000
      7       4.6308      2.00000
      8       4.7477      2.00000
      9       5.1841      2.00000
     10       6.7475      0.00000
     11       6.8255      0.00000
     12       7.1662      0.00000
     13      10.4505      0.00000
     14      11.5368      0.00000

 k-point    14 :       0.1111    0.0000    0.2500
  band No.  band energies     occupation 
      1      -7.1857      2.00000
      2      -5.4830      2.00000
      3      -2.9005      2.00000
      4       2.4425      2.00000
      5       3.1053      2.00000
      6       3.5309      2.00000
      7       4.3006      2.00000
      8       4.7861      2.00000
      9       4.8811      2.00000
     10       6.9899      0.00000
     11       7.2280      0.00000
     12       7.5940      0.00000
     13      10.5360      0.00000
     14      11.5432      0.00000

 k-point    15 :       0.2222    0.0000    0.2500
  band No.  band energies     occupation 
      1      -6.9447      2.00000
      2      -5.3211      2.00000
      3      -3.2658      2.00000
      4       2.0873      2.00000
      5       2.7011      2.00000
      6       3.1905      2.00000
      7       3.6643      2.00000
      8       4.2854      2.00000
      9       4.7196      2.00000
     10       7.5444      0.00000
     11       8.0045      0.00000
     12       8.3972      0.00000
     13      10.8583      0.00000
     14      11.2840      0.00000

 k-point    16 :       0.3333   -0.0000    0.2500
  band No.  band energies     occupation 
      1      -6.5959      2.00000
      2      -5.1107      2.00000
      3      -3.7813      2.00000
      4       1.7461      2.00000
      5       2.1194      2.00000
      6       2.8022      2.00000
      7       3.1875      2.00000
      8       4.3086      2.00000
      9       4.6449      2.00000
     10       7.5926      0.00000
     11       8.1613      0.00000
     12       9.3089      0.00000
     13      10.3458      0.00000
     14      11.8007      0.00000

 k-point    17 :       0.4444    0.0000    0.2500
  band No.  band energies     occupation 
      1      -6.2584      2.00000
      2      -5.0868      2.00000
      3      -4.0596      2.00000
      4       1.0686      2.00000
      5       1.8175      2.00000
      6       2.5167      2.00000
      7       3.6602      2.00000
      8       4.3577      2.00000
      9       4.6069      2.00000
     10       7.4536      0.00000
     11       8.1091      0.00000
     12       9.1440      0.00000
     13       9.8472      0.00000
     14      12.3221      0.00000

 k-point    18 :      -0.4444   -0.0000    0.2500
  band No.  band energies     occupation 
      1      -6.2128      2.00000
      2      -5.2704      2.00000
      3      -3.8379      2.00000
      4       0.6983      2.00000
      5       1.7038      2.00000
      6       2.4784      2.00000
      7       4.4307      2.00000
      8       4.4994      2.00000
      9       4.7535      2.00000
     10       7.2844      0.00000
     11       7.9114      0.00000
     12       8.3336      0.00000
     13       9.5357      0.00000
     14      12.9324      0.00000

 k-point    19 :      -0.3333    0.0000    0.2500
  band No.  band energies     occupation 
      1      -6.5550      2.00000
      2      -5.3130      2.00000
      3      -3.4595      2.00000
      4       0.8958      2.00000
      5       1.7884      2.00000
      6       2.6302      2.00000
      7       4.7087      2.00000
      8       4.7926      2.00000
      9       5.6267      2.00000
     10       6.9660      0.00000
     11       7.4221      0.00000
     12       7.6484      0.00000
     13       9.4453      0.00000
     14      12.9129      0.00000

 k-point    20 :      -0.2222   -0.0000    0.2500
  band No.  band energies     occupation 
      1      -6.9318      2.00000
      2      -5.3891      2.00000
      3      -3.1140      2.00000
      4       1.6454      2.00000
      5       2.0845      2.00000
      6       2.9349      2.00000
      7       4.9801      2.00000
      8       5.1053      2.00000
      9       5.7196      2.00000
     10       6.6999      0.00000
     11       7.0929      0.00000
     12       7.3344      0.00000
     13       9.6809      0.00000
     14      12.3017      0.00000

 k-point    21 :      -0.1111   -0.0000    0.2500
  band No.  band energies     occupation 
      1      -7.1841      2.00000
      2      -5.4915      2.00000
      3      -2.8766      2.00000
      4       2.4818      2.00000
      5       2.7337      2.00000
      6       3.3482      2.00000
      7       4.7774      2.00000
      8       5.0847      2.00000
      9       5.3065      2.00000
     10       6.6288      0.00000
     11       6.6801      0.00000
     12       7.6205      0.00000
     13      10.2112      0.00000
     14      11.6157      0.00000

 k-point    22 :       0.1111    0.1111    0.2500
  band No.  band energies     occupation 
      1      -7.0184      2.00000
      2      -5.3953      2.00000
      3      -3.0916      2.00000
      4       2.0762      2.00000
      5       2.3621      2.00000
      6       3.2118      2.00000
      7       4.2706      2.00000
      8       4.8256      2.00000
      9       5.2181      2.00000
     10       7.0425      0.00000
     11       7.5684      0.00000
     12       7.7139      0.00000
     13      10.2367      0.00000
     14      11.6853      0.00000

 k-point    23 :       0.2222    0.1111    0.2500
  band No.  band energies     occupation 
      1      -6.7183      2.00000
      2      -5.2135      2.00000
      3      -3.5383      2.00000
      4       1.6927      2.00000
      5       2.1381      2.00000
      6       3.0127      2.00000
      7       3.2691      2.00000
      8       4.3273      2.00000
      9       5.3831      2.00000
     10       7.2423      0.00000
     11       7.9166      0.00000
     12       8.8977      0.00000
     13      10.6589      0.00000
     14      11.0825      0.00000

 k-point    24 :       0.3333    0.1111    0.2500
  band No.  band energies     occupation 
      1      -6.3602      2.00000
      2      -5.0584      2.00000
      3      -4.0002      2.00000
      4       1.3755      2.00000
      5       1.6319      2.00000
      6       2.7152      2.00000
      7       3.3207      2.00000
      8       3.9525      2.00000
      9       5.4570      2.00000
     10       7.0924      0.00000
     11       8.3105      0.00000
     12       9.3058      0.00000
     13      10.2206      0.00000
     14      11.8667      0.00000

 k-point    25 :       0.4444    0.1111    0.2500
  band No.  band energies     occupation 
      1      -6.1342      2.00000
      2      -5.1647      2.00000
      3      -4.0449      2.00000
      4       0.8684      2.00000
      5       1.5226      2.00000
      6       2.6136      2.00000
      7       3.5244      2.00000
      8       4.1944      2.00000
      9       5.5026      2.00000
     10       6.9563      0.00000
     11       8.3839      0.00000
     12       8.7531      0.00000
     13       9.9384      0.00000
     14      12.6937      0.00000

 k-point    26 :      -0.4444    0.1111    0.2500
  band No.  band energies     occupation 
      1      -6.3173      2.00000
      2      -5.2532      2.00000
      3      -3.7455      2.00000
      4       0.7648      2.00000
      5       1.6880      2.00000
      6       2.6025      2.00000
      7       3.5782      2.00000
      8       5.0781      2.00000
      9       5.5592      2.00000
     10       6.8400      0.00000
     11       7.7577      0.00000
     12       8.3701      0.00000
     13       9.8201      0.00000
     14      12.5361      0.00000

 k-point    27 :      -0.3333    0.1111    0.2500
  band No.  band energies     occupation 
      1      -6.7023      2.00000
      2      -5.2952      2.00000
      3      -3.3914      2.00000
      4       1.2409      2.00000
      5       1.9614      2.00000
      6       2.8018      2.00000
      7       3.8323      2.00000
      8       5.2798      2.00000
      9       5.9199      2.00000
     10       6.6590      0.00000
     11       7.2469      0.00000
     12       8.1598      0.00000
     13       9.8733      0.00000
     14      11.8632      0.00000

 k-point    28 :       0.2222    0.2222    0.2500
  band No.  band energies     occupation 
      1      -6.3815      2.00000
      2      -5.1485      2.00000
      3      -3.8365      2.00000
      4       1.0464      2.00000
      5       1.8209      2.00000
      6       2.5741      2.00000
      7       3.1083      2.00000
      8       4.7571      2.00000
      9       5.7606      2.00000
     10       6.9919      0.00000
     11       7.7831      0.00000
     12       9.0271      0.00000
     13      10.5875      0.00000
     14      11.1650      0.00000

 k-point    29 :       0.3333    0.2222    0.2500
  band No.  band energies     occupation 
      1      -6.0911      2.00000
      2      -5.0747      2.00000
      3      -4.1681      2.00000
      4       1.0428      2.00000
      5       1.3750      2.00000
      6       2.2242      2.00000
      7       3.4458      2.00000
      8       4.2985      2.00000
      9       5.5143      2.00000
     10       7.2385      0.00000
     11       8.4415      0.00000
     12       9.0018      0.00000
     13      10.6309      0.00000
     14      11.7642      0.00000

 k-point    30 :       0.4444    0.2222    0.2500
  band No.  band energies     occupation 
      1      -6.0762      2.00000
      2      -5.1362      2.00000
      3      -4.1020      2.00000
      4       0.8683      2.00000
      5       1.4713      2.00000
      6       2.2429      2.00000
      7       3.3521      2.00000
      8       4.6977      2.00000
      9       5.3197      2.00000
     10       7.4149      0.00000
     11       8.1318      0.00000
     12       8.8898      0.00000
     13      10.5338      0.00000
     14      12.0209      0.00000

 k-point    31 :       0.3333    0.3333    0.2500
  band No.  band energies     occupation 
      1      -5.9630      2.00000
      2      -5.0754      2.00000
      3      -4.2677      2.00000
      4       0.9980      2.00000
      5       1.3724      2.00000
      6       1.8127      2.00000
      7       3.6828      2.00000
      8       4.5728      2.00000
      9       4.9395      2.00000
     10       8.0054      0.00000
     11       8.4692      0.00000
     12       8.5604      0.00000
     13      11.4505      0.00000
     14      11.7346      0.00000

 k-point    32 :       0.0000    0.0000    0.5000
  band No.  band energies     occupation 
      1      -6.6034      2.00000
      2      -6.6034      2.00000
      3      -2.0722      2.00000
      4       2.2864      2.00000
      5       3.4691      2.00000
      6       3.4691      2.00000
      7       4.8478      2.00000
      8       5.1853      2.00000
      9       5.1853      2.00000
     10       6.4925      0.00000
     11       6.4925      0.00000
     12       6.5090      0.00000
     13      10.1104      0.00000
     14      11.2766      0.00000

 k-point    33 :       0.1111    0.0000    0.5000
  band No.  band energies     occupation 
      1      -6.5359      2.00000
      2      -6.5201      2.00000
      3      -2.2654      2.00000
      4       2.2538      2.00000
      5       3.2951      2.00000
      6       3.4077      2.00000
      7       4.2448      2.00000
      8       4.6950      2.00000
      9       4.9279      2.00000
     10       6.7870      0.00000
     11       6.9978      0.00000
     12       7.4848      0.00000
     13      10.3423      0.00000
     14      10.9976      0.00000

 k-point    34 :       0.2222    0.0000    0.5000
  band No.  band energies     occupation 
      1      -6.3531      2.00000
      2      -6.2783      2.00000
      3      -2.7654      2.00000
      4       1.8753      2.00000
      5       2.7070      2.00000
      6       3.1310      2.00000
      7       4.0476      2.00000
      8       4.2269      2.00000
      9       4.6616      2.00000
     10       7.3535      0.00000
     11       7.7924      0.00000
     12       8.3357      0.00000
     13      10.4681      0.00000
     14      11.3343      0.00000

 k-point    35 :       0.3333   -0.0000    0.5000
  band No.  band energies     occupation 
      1      -6.1195      2.00000
      2      -5.9130      2.00000
      3      -3.3972      2.00000
      4       1.0192      2.00000
      5       2.5096      2.00000
      6       2.8316      2.00000
      7       3.7815      2.00000
      8       4.0366      2.00000
      9       5.0295      2.00000
     10       7.7088      0.00000
     11       8.1054      0.00000
     12       8.4296      0.00000
     13      10.5014      0.00000
     14      11.6772      0.00000

 k-point    36 :       0.4444    0.0000    0.5000
  band No.  band energies     occupation 
      1      -5.9474      2.00000
      2      -5.5507      2.00000
      3      -3.9210      2.00000
      4       0.4514      2.00000
      5       2.4979      2.00000
      6       2.6073      2.00000
      7       3.5968      2.00000
      8       3.9075      2.00000
      9       5.7730      2.00000
     10       7.0637      0.00000
     11       8.1438      0.00000
     12       8.7077      0.00000
     13      10.6287      0.00000
     14      11.3098      0.00000

 k-point    37 :       0.1111    0.1111    0.5000
  band No.  band energies     occupation 
      1      -6.4062      2.00000
      2      -6.3617      2.00000
      3      -2.6085      2.00000
      4       2.0834      2.00000
      5       2.9168      2.00000
      6       3.0179      2.00000
      7       3.9810      2.00000
      8       4.1783      2.00000
      9       5.2580      2.00000
     10       6.6460      0.00000
     11       8.0062      0.00000
     12       8.0970      0.00000
     13      10.7554      0.00000
     14      10.7593      0.00000

 k-point    38 :       0.2222    0.1111    0.5000
  band No.  band energies     occupation 
      1      -6.1846      2.00000
      2      -6.0671      2.00000
      3      -3.1608      2.00000
      4       1.4718      2.00000
      5       2.3080      2.00000
      6       2.5218      2.00000
      7       4.0041      2.00000
      8       4.4483      2.00000
      9       5.1798      2.00000
     10       7.0818      0.00000
     11       8.2893      0.00000
     12       8.4173      0.00000
     13      10.5984      0.00000
     14      11.5035      0.00000

 k-point    39 :       0.3333    0.1111    0.5000
  band No.  band energies     occupation 
      1      -5.9640      2.00000
      2      -5.6988      2.00000
      3      -3.7347      2.00000
      4       0.7374      2.00000
      5       2.0363      2.00000
      6       2.2015      2.00000
      7       4.1208      2.00000
      8       4.5699      2.00000
      9       5.4487      2.00000
     10       7.4041      0.00000
     11       7.8326      0.00000
     12       8.4790      0.00000
     13      10.6689      0.00000
     14      11.6699      0.00000

 k-point    40 :       0.4444    0.1111    0.5000
  band No.  band energies     occupation 
      1      -5.8684      2.00000
      2      -5.4837      2.00000
      3      -4.0266      2.00000
      4       0.4456      2.00000
      5       1.9657      2.00000
      6       2.0759      2.00000
      7       4.2795      2.00000
      8       4.3727      2.00000
      9       6.0320      2.00000
     10       6.8347      0.00000
     11       7.9581      0.00000
     12       8.4491      0.00000
     13      10.8132      0.00000
     14      11.3462      0.00000

 k-point    41 :       0.2222    0.2222    0.5000
  band No.  band energies     occupation 
      1      -5.9433      2.00000
      2      -5.7888      2.00000
      3      -3.6410      2.00000
      4       1.1095      2.00000
      5       1.5409      2.00000
      6       1.9114      2.00000
      7       4.5384      2.00000
      8       4.8901      2.00000
      9       5.6847      2.00000
     10       6.9052      0.00000
     11       8.0961      0.00000
     12       8.1286      0.00000
     13      10.9385      0.00000
     14      11.8036      0.00000

 k-point    42 :       0.3333    0.2222    0.5000
  band No.  band energies     occupation 
      1      -5.7537      2.00000
      2      -5.5446      2.00000
      3      -4.0160      2.00000
      4       0.7195      2.00000
      5       1.3073      2.00000
      6       1.5050      2.00000
      7       4.9486      2.00000
      8       5.3383      2.00000
      9       5.9396      2.00000
     10       6.9408      0.00000
     11       7.4894      0.00000
     12       7.8504      0.00000
     13      11.3205      0.00000
     14      11.9685      0.00000

 k-point    43 :       0.3333    0.3333    0.5000
  band No.  band energies     occupation 
      1      -5.5723      2.00000
      2      -5.5723      2.00000
      3      -4.1218      2.00000
      4       0.9395      2.00000
      5       1.0235      2.00000
      6       1.0235      2.00000
      7       5.3144      2.00000
      8       6.1953      1.97959
      9       6.1953      1.97959
     10       6.3496      0.04083
     11       7.3199      0.00000
     12       7.3199      0.00000
     13      12.1079      0.00000
     14      12.5824      0.00000


--------------------------------------------------------------------------------------------------------


 soft charge-density along one line, spin component           1
         0         1         2         3         4         5         6         7         8         9
 total charge-density along one line
 
 pseudopotential strength for first ion, spin component:           1
 51.574  56.114  -0.000  -0.000  -0.045  -0.000  -0.000  -0.066
 56.114  61.057  -0.000  -0.000  -0.049  -0.000  -0.000  -0.071
 -0.000  -0.000  12.701   0.009   0.000  18.308   0.013   0.000
 -0.000  -0.000   0.009  12.716   0.000   0.013  18.329   0.000
 -0.045  -0.049   0.000   0.000  12.716   0.000   0.000  18.329
 -0.000  -0.000  18.308   0.013   0.000  26.399   0.019   0.000
 -0.000  -0.000   0.013  18.329   0.000   0.019  26.429   0.000
 -0.066  -0.071   0.000   0.000  18.329   0.000   0.000  26.429
  0.000   0.000  -0.009   0.000  -0.000  -0.013   0.000  -0.000
  0.014   0.015   0.000  -0.000   0.000   0.000  -0.000   0.000
  0.006   0.007   0.000  -0.000   0.005   0.000  -0.000   0.008
  0.000   0.000   0.000  -0.008  -0.000   0.000  -0.012  -0.000
  0.011   0.012   0.000  -0.000  -0.009   0.000  -0.000  -0.013
 total augmentation occupancy for first ion, spin component:           1
 13.811 -10.155  -0.000  -0.000   1.946   0.000  -0.000  -0.493   0.000  -0.160  -0.093   0.000  -0.119
-10.155   8.734   0.000   0.000  -1.633   0.000   0.000   0.421   0.000   0.144   0.083   0.000   0.106
 -0.000   0.000   2.571   0.194   0.000  -0.515  -0.173   0.000  -0.049   0.000   0.000  -0.047   0.000
 -0.000   0.000   0.194   2.885   0.000  -0.173  -0.794  -0.000  -0.046   0.000   0.000  -0.109   0.000
  1.946  -1.633   0.000   0.000   2.798   0.000  -0.000  -0.746   0.000  -0.051  -0.013   0.000  -0.049
  0.000   0.000  -0.515  -0.173   0.000   0.188   0.064   0.000   0.012   0.000   0.000   0.017   0.000
  0.000  -0.000  -0.173  -0.794  -0.000   0.064   0.290   0.000   0.017  -0.000   0.000   0.032   0.000
 -0.493   0.421   0.000  -0.000  -0.746   0.000   0.000   0.264   0.000   0.015   0.003  -0.000   0.012
  0.000   0.000  -0.049  -0.046   0.000   0.012   0.017   0.000   0.010   0.000   0.000   0.011   0.000
 -0.160   0.144   0.000  -0.000  -0.051   0.000   0.000   0.015   0.000   0.015   0.004   0.000   0.005
 -0.093   0.083   0.000   0.000  -0.013   0.000   0.000   0.003   0.000   0.004   0.007   0.000  -0.001
  0.000  -0.000  -0.047  -0.109   0.000   0.017   0.032   0.000   0.011   0.000   0.000   0.027   0.000
 -0.119   0.106   0.000   0.000  -0.049   0.000   0.000   0.012   0.000   0.005  -0.001   0.000   0.010


------------------------ aborting loop because EDIFF is reached ----------------------------------------


    CHARGE:  cpu time    0.0251: real time    0.0252
    FORLOC:  cpu time    0.0009: real time    0.0009
    FORNL :  cpu time    0.0952: real time    0.0954
    STRESS:  cpu time    0.2188: real time    0.2195
    FORCOR:  cpu time    0.0176: real time    0.0177
    FORHAR:  cpu time    0.0038: real time    0.0038
    MIXING:  cpu time    0.0006: real time    0.0006
    OFIELD:  cpu time    0.0000: real time    0.0000

  Hirshfeld charges:
            ion         q(e)     
   ------------------------------
      1     Te         -0.000
      2     Te          0.000
      3     Te          0.000

  Tkatchenko/Scheffler method for vdW energy calculation
  ---------------------------------------------------------------------------------------------

  Parameters of vdW forcefield:
            C6ts              R0ts           ALPHAts        RELVOL
            (au)              (au)            (au)                
   ---------------------------------------------------------------
   Te        395.272          4.213         37.615          0.999
   Te        395.272          4.213         37.615          0.999
   Te        395.272          4.213         37.615          0.999

  Number of pair interactions contributing to vdW energy:   31467
  Edisp (eV):   -0.70753
    FORVDW:  cpu time    0.1437: real time    0.1441

  FORCE on cell =-STRESS in cart. coord.  units (eV):
  Direction    XX          YY          ZZ          XY          YZ          ZX
  --------------------------------------------------------------------------------------
  Alpha Z     2.33320     2.33320     2.33320
  Ewald    -237.66439  -237.66438  -205.12126    -0.00000    -0.00000     0.00000
  Hartree    11.03219    11.03219    19.13708     0.00000     0.00000    -0.00000
  E(xc)     -70.40620   -70.40621   -69.97524    -0.00000     0.00000    -0.00000
  Local    -111.36255  -111.36260  -143.97801    -0.00004     0.00000    -0.00000
  n-local   332.07703   332.92987   328.63109    -1.25638    -0.68232    -1.18139
  augment   -81.06549   -81.06545   -79.08341     0.00004    -0.00000     0.00000
  Kinetic   151.80660   158.93038   149.10700    -7.77982     0.20164     1.78196
  Fock        0.00000     0.00000     0.00000     0.00000     0.00000     0.00000
  vdW        -0.71732    -0.71732    -0.89690     0.00000    -0.00000    -0.00000
  -------------------------------------------------------------------------------------
  Total       0.02137     0.02137     0.15356     0.00000     0.00000     0.00000
  in kB       0.34181     0.34181     2.45580     0.00000     0.00000     0.00000
  external pressure =        1.05 kB  Pullay stress =        0.00 kB


 VOLUME and BASIS-vectors are now :
 -----------------------------------------------------------------------------
  energy-cutoff  :      520.00
  volume of cell :      100.19
      direct lattice vectors                 reciprocal lattice vectors
     4.427070031  0.000000000  0.000000000     0.225883032  0.130413629 -0.000000000
    -2.213535016  3.833955111 -0.000000000    -0.000000000  0.260827258  0.000000000
     0.000000000 -0.000000000  5.902562722    -0.000000000  0.000000000  0.169417937

  length of vectors
     4.427070031  4.427070031  5.902562722     0.260827258  0.260827258  0.169417937


 FORCES acting on ions
    electron-ion (+dipol)            ewald-force                    non-local-force                 convergence-correction
 -----------------------------------------------------------------------------------------------
   -.996E+01 0.112E-04 -.941E-06   0.146E+02 0.161E-05 0.144E-05   -.460E+01 0.134E-18 -.555E-16   -.192E-03 0.733E-08 -.332E-09
   0.498E+01 -.863E+01 -.184E-04   -.730E+01 0.126E+02 -.808E-05   0.230E+01 -.398E+01 0.555E-16   0.962E-04 -.167E-03 0.418E-09
   0.498E+01 0.863E+01 0.190E-04   -.730E+01 -.126E+02 0.664E-05   0.230E+01 0.398E+01 0.000E+00   0.961E-04 0.167E-03 -.918E-10
 -----------------------------------------------------------------------------------------------
   0.258E-04 -.838E-05 -.309E-06   0.000E+00 0.000E+00 0.348E-17   -.444E-15 0.000E+00 0.000E+00   0.191E-08 0.372E-08 -.582E-11
 
 
 POSITION                                       TOTAL-FORCE (eV/Angst)
 -----------------------------------------------------------------------------------
      1.22824     -0.00000      1.96752         0.015853      0.000000      0.000000
     -0.61412      1.06369      3.93504        -0.007926      0.013729     -0.000000
      1.59941      2.77026      0.00000        -0.007926     -0.013729     -0.000000
 -----------------------------------------------------------------------------------
    total drift:                                0.000026     -0.000008     -0.000000


--------------------------------------------------------------------------------------------------------



  FREE ENERGIE OF THE ION-ELECTRON SYSTEM (eV)
  ---------------------------------------------------
  free  energy   TOTEN  =       -10.11713162 eV

  energy  without entropy=      -10.11708643  energy(sigma->0) =      -10.11710903
 
 d Force = 0.1015011E-04[ 0.990E-05, 0.104E-04]  d Energy =-0.3134372E-04 0.415E-04
 d Force = 0.9117773E-02[ 0.911E-02, 0.912E-02]  d Ewald  = 0.4004755E-01-0.309E-01


--------------------------------------------------------------------------------------------------------


    POTLOK:  cpu time    0.0197: real time    0.0198


--------------------------------------------------------------------------------------------------------




--------------------------------------------------------------------------------------------------------


    WAVPRE:  cpu time    0.0037: real time    0.0069
    FEWALD:  cpu time    0.0002: real time    0.0002
    GENKIN:  cpu time    0.0059: real time    0.0059
    ORTHCH:  cpu time    0.0186: real time    0.0187
     LOOP+:  cpu time    1.1702: real time    1.1824


--------------------------------------- Iteration     15(   1)  ---------------------------------------


    POTLOK:  cpu time    0.0179: real time    0.0199
    SETDIJ:  cpu time    0.0024: real time    0.0024
     EDDAV:  cpu time    0.3249: real time    0.3260
       DOS:  cpu time    0.0005: real time    0.0005
    CHARGE:  cpu time    0.0252: real time    0.0253
    MIXING:  cpu time    0.0006: real time    0.0006
    --------------------------------------------
      LOOP:  cpu time    0.3715: real time    0.3747

 eigenvalue-minimisations  :  1216
 total energy-change (2. order) :-0.3630905E-02  (-0.5775454E-02)
 number of electron      17.9999999 magnetization 
 augmentation part       -3.6129102 magnetization 

 Broyden mixing:
  rms(total) = 0.29233E-01    rms(broyden)= 0.29232E-01
  rms(prec ) = 0.32673E-01
  weight for this iteration     100.00

 Free energy of the ion-electron system (eV)
  ---------------------------------------------------
  alpha Z        PSCENC =         2.32451824
  Ewald energy   TEWEN  =      -679.87928588
  -Hartree energ DENC   =       -40.99990080
  -exchange      EXHF   =         0.00000000
  -V(xc)+E(xc)   XCENC  =       -83.93945754
  PAW double counting   =      1547.35380097    -1431.99383829
  entropy T*S    EENTRO =        -0.00006903
  eigenvalues    EBANDS =         7.90669275
  atomic energy  EATOM  =       669.81430600
  Solvation  Ediel_sol  =         0.00000000
  ---------------------------------------------------
  free energy    TOTEN  =        -9.41323358 eV

  energy without entropy =       -9.41316455  energy(sigma->0) =       -9.41319906


--------------------------------------------------------------------------------------------------------




--------------------------------------- Iteration     15(   2)  ---------------------------------------


    POTLOK:  cpu time    0.0176: real time    0.0177
    SETDIJ:  cpu time    0.0023: real time    0.0023
     EDDAV:  cpu time    0.3498: real time    0.3509
       DOS:  cpu time    0.0006: real time    0.0006
    CHARGE:  cpu time    0.0255: real time    0.0256
    MIXING:  cpu time    0.0007: real time    0.0007
    --------------------------------------------
      LOOP:  cpu time    0.3965: real time    0.3977

 eigenvalue-minimisations  :  1366
 total energy-change (2. order) :-0.2649125E-04  (-0.2754095E-03)
 number of electron      17.9999999 magnetization 
 augmentation part       -3.6152490 magnetization 

 Broyden mixing:
  rms(total) = 0.11089E-01    rms(broyden)= 0.11089E-01
  rms(prec ) = 0.14730E-01
  weight for this iteration     100.00

 eigenvalues of (default mixing * dielectric matrix)
  average eigenvalue GAMMA=   0.8532
  0.8532

 Free energy of the ion-electron system (eV)
  ---------------------------------------------------
  alpha Z        PSCENC =         2.32451824
  Ewald energy   TEWEN  =      -679.87928588
  -Hartree energ DENC   =       -41.07891281
  -exchange      EXHF   =         0.00000000
  -V(xc)+E(xc)   XCENC  =       -83.94315608
  PAW double counting   =      1537.14863606    -1421.78730452
  entropy T*S    EENTRO =        -0.00007002
  eigenvalues    EBANDS =         7.98800894
  atomic energy  EATOM  =       669.81430600
  Solvation  Ediel_sol  =         0.00000000
  ---------------------------------------------------
  free energy    TOTEN  =        -9.41326007 eV

  energy without entropy =       -9.41319004  energy(sigma->0) =       -9.41322505


--------------------------------------------------------------------------------------------------------




--------------------------------------- Iteration     15(   3)  ---------------------------------------


    POTLOK:  cpu time    0.0173: real time    0.0174
    SETDIJ:  cpu time    0.0023: real time    0.0023
     EDDAV:  cpu time    0.3671: real time    0.3682
       DOS:  cpu time    0.0005: real time    0.0005
    CHARGE:  cpu time    0.0256: real time    0.0257
    MIXING:  cpu time    0.0007: real time    0.0007
    --------------------------------------------
      LOOP:  cpu time    0.4135: real time    0.4149

 eigenvalue-minimisations  :  1456
 total energy-change (2. order) : 0.1069322E-03  (-0.9373997E-05)
 number of electron      17.9999999 magnetization 
 augmentation part       -3.6142443 magnetization 

 Broyden mixing:
  rms(total) = 0.54501E-02    rms(broyden)= 0.54501E-02
  rms(prec ) = 0.80130E-02
  weight for this iteration     100.00

 eigenvalues of (default mixing * dielectric matrix)
  average eigenvalue GAMMA=   1.4361
  0.9271  1.9450

 Free energy of the ion-electron system (eV)
  ---------------------------------------------------
  alpha Z        PSCENC =         2.32451824
  Ewald energy   TEWEN  =      -679.87928588
  -Hartree energ DENC   =       -41.12346592
  -exchange      EXHF   =         0.00000000
  -V(xc)+E(xc)   XCENC  =       -83.94676866
  PAW double counting   =      1535.48055293    -1420.11816876
  entropy T*S    EENTRO =        -0.00007173
  eigenvalues    EBANDS =         8.03523064
  atomic energy  EATOM  =       669.81430600
  Solvation  Ediel_sol  =         0.00000000
  ---------------------------------------------------
  free energy    TOTEN  =        -9.41315313 eV

  energy without entropy =       -9.41308140  energy(sigma->0) =       -9.41311727


--------------------------------------------------------------------------------------------------------




--------------------------------------- Iteration     15(   4)  ---------------------------------------


    POTLOK:  cpu time    0.0176: real time    0.0177
    SETDIJ:  cpu time    0.0023: real time    0.0023
     EDDAV:  cpu time    0.3280: real time    0.3291
       DOS:  cpu time    0.0006: real time    0.0006
    CHARGE:  cpu time    0.0253: real time    0.0254
    MIXING:  cpu time    0.0007: real time    0.0008
    --------------------------------------------
      LOOP:  cpu time    0.3744: real time    0.3757

 eigenvalue-minimisations  :  1240
 total energy-change (2. order) : 0.6622849E-04  (-0.1179361E-04)
 number of electron      17.9999999 magnetization 
 augmentation part       -3.6127237 magnetization 

 Broyden mixing:
  rms(total) = 0.43218E-02    rms(broyden)= 0.43218E-02
  rms(prec ) = 0.43656E-02
  weight for this iteration     100.00

 eigenvalues of (default mixing * dielectric matrix)
  average eigenvalue GAMMA=   1.4584
  1.3687  1.3687  1.6378

 Free energy of the ion-electron system (eV)
  ---------------------------------------------------
  alpha Z        PSCENC =         2.32451824
  Ewald energy   TEWEN  =      -679.87928588
  -Hartree energ DENC   =       -41.18444546
  -exchange      EXHF   =         0.00000000
  -V(xc)+E(xc)   XCENC  =       -83.95243563
  PAW double counting   =      1533.04602687    -1417.68094741
  entropy T*S    EENTRO =        -0.00007386
  eigenvalues    EBANDS =         8.09925022
  atomic energy  EATOM  =       669.81430600
  Solvation  Ediel_sol  =         0.00000000
  ---------------------------------------------------
  free energy    TOTEN  =        -9.41308691 eV

  energy without entropy =       -9.41301305  energy(sigma->0) =       -9.41304998


--------------------------------------------------------------------------------------------------------




--------------------------------------- Iteration     15(   5)  ---------------------------------------


    POTLOK:  cpu time    0.0174: real time    0.0174
    SETDIJ:  cpu time    0.0023: real time    0.0023
     EDDAV:  cpu time    0.2210: real time    0.2218
       DOS:  cpu time    0.0006: real time    0.0006
    --------------------------------------------
      LOOP:  cpu time    0.2412: real time    0.2420

 eigenvalue-minimisations  :   614
 total energy-change (2. order) : 0.1357826E-06  (-0.3930635E-06)
 number of electron      17.9999999 magnetization 
 augmentation part       -3.6127237 magnetization 

 Free energy of the ion-electron system (eV)
  ---------------------------------------------------
  alpha Z        PSCENC =         2.32451824
  Ewald energy   TEWEN  =      -679.87928588
  -Hartree energ DENC   =       -41.18573987
  -exchange      EXHF   =         0.00000000
  -V(xc)+E(xc)   XCENC  =       -83.95304123
  PAW double counting   =      1532.40236418    -1417.03599997
  entropy T*S    EENTRO =        -0.00007357
  eigenvalues    EBANDS =         8.09986533
  atomic energy  EATOM  =       669.81430600
  Solvation  Ediel_sol  =         0.00000000
  ---------------------------------------------------
  free energy    TOTEN  =        -9.41308677 eV

  energy without entropy =       -9.41301320  energy(sigma->0) =       -9.41304998


--------------------------------------------------------------------------------------------------------




 average (electrostatic) potential at core
  the test charge radii are     1.1897
  (the norm of the test charge is              1.0000)
       1 -88.8979       2 -88.8979       3 -88.8979
 
 
 
 E-fermi :   6.2157     XC(G=0):  -9.1405     alpha+bet :-10.6939


 k-point     1 :       0.0000    0.0000    0.0000
  band No.  band energies     occupation 
      1      -7.5054      2.00000
      2      -4.2220      2.00000
      3      -4.2220      2.00000
      4       3.1146      2.00000
      5       3.4529      2.00000
      6       3.4529      2.00000
      7       4.3881      2.00000
      8       4.3881      2.00000
      9       5.0902      2.00000
     10       7.1020      0.00000
     11       7.1020      0.00000
     12       7.6721      0.00000
     13      11.0974      0.00000
     14      11.0974      0.00000

 k-point     2 :       0.1111    0.0000    0.0000
  band No.  band energies     occupation 
      1      -7.4163      2.00000
      2      -4.2450      2.00000
      3      -4.1994      2.00000
      4       2.4395      2.00000
      5       2.9725      2.00000
      6       3.1909      2.00000
      7       4.7287      2.00000
      8       4.9709      2.00000
      9       5.4549      2.00000
     10       6.7505      0.00000
     11       7.0136      0.00000
     12       7.5053      0.00000
     13      10.7708      0.00000
     14      11.0519      0.00000

 k-point     3 :       0.2222    0.0000    0.0000
  band No.  band energies     occupation 
      1      -7.1591      2.00000
      2      -4.3622      2.00000
      3      -4.1358      2.00000
      4       1.6163      2.00000
      5       2.3561      2.00000
      6       2.7731      2.00000
      7       4.8632      2.00000
      8       5.1649      2.00000
      9       5.3013      2.00000
     10       6.8646      0.00000
     11       7.0755      0.00000
     12       7.6242      0.00000
     13       9.9493      0.00000
     14      11.2890      0.00000

 k-point     4 :       0.3333   -0.0000    0.0000
  band No.  band energies     occupation 
      1      -6.7740      2.00000
      2      -4.6444      2.00000
      3      -4.0537      2.00000
      4       1.2505      2.00000
      5       1.8797      2.00000
      6       2.4396      2.00000
      7       3.6998      2.00000
      8       5.2945      2.00000
      9       5.3444      2.00000
     10       6.8019      0.00000
     11       6.9676      0.00000
     12       8.8177      0.00000
     13       9.2746      0.00000
     14      12.0982      0.00000

 k-point     5 :       0.4444    0.0000    0.0000
  band No.  band energies     occupation 
      1      -6.3954      2.00000
      2      -4.9924      2.00000
      3      -3.9946      2.00000
      4       1.2687      2.00000
      5       1.6874      2.00000
      6       2.3211      2.00000
      7       2.7263      2.00000
      8       5.2440      2.00000
      9       5.3718      2.00000
     10       6.7989      0.00000
     11       6.8495      0.00000
     12       8.9165      0.00000
     13       9.6898      0.00000
     14      13.2790      0.00000

 k-point     6 :       0.1111    0.1111    0.0000
  band No.  band energies     occupation 
      1      -7.2429      2.00000
      2      -4.2964      2.00000
      3      -4.1764      2.00000
      4       1.8905      2.00000
      5       2.2028      2.00000
      6       3.2846      2.00000
      7       4.4433      2.00000
      8       5.4284      2.00000
      9       5.4346      2.00000
     10       6.7246      0.00000
     11       7.0520      0.00000
     12       7.5985      0.00000
     13      10.5433      0.00000
     14      10.5955      0.00000

 k-point     7 :       0.2222    0.1111    0.0000
  band No.  band energies     occupation 
      1      -6.9188      2.00000
      2      -4.4673      2.00000
      3      -4.1456      2.00000
      4       1.3980      2.00000
      5       1.7627      2.00000
      6       2.9329      2.00000
      7       4.2616      2.00000
      8       4.5672      2.00000
      9       5.1194      2.00000
     10       7.1951      0.00000
     11       7.6141      0.00000
     12       8.1130      0.00000
     13       9.8776      0.00000
     14      10.9298      0.00000

 k-point     8 :       0.3333    0.1111    0.0000
  band No.  band energies     occupation 
      1      -6.5171      2.00000
      2      -4.7914      2.00000
      3      -4.1089      2.00000
      4       1.2918      2.00000
      5       1.6288      2.00000
      6       2.5131      2.00000
      7       3.2233      2.00000
      8       4.5591      2.00000
      9       4.8307      2.00000
     10       7.3692      0.00000
     11       7.6044      0.00000
     12       9.2279      0.00000
     13       9.4292      0.00000
     14      11.9065      0.00000

 k-point     9 :       0.4444    0.1111    0.0000
  band No.  band energies     occupation 
      1      -6.2823      2.00000
      2      -5.0111      2.00000
      3      -4.0923      2.00000
      4       1.3565      2.00000
      5       1.6776      2.00000
      6       2.4777      2.00000
      7       2.5268      2.00000
      8       4.6418      2.00000
      9       4.6591      2.00000
     10       7.4065      0.00000
     11       7.5847      0.00000
     12       9.2674      0.00000
     13       9.7279      0.00000
     14      12.9859      0.00000

 k-point    10 :       0.2222    0.2222    0.0000
  band No.  band energies     occupation 
      1      -6.5669      2.00000
      2      -4.6126      2.00000
      3      -4.2602      2.00000
      4       1.3967      2.00000
      5       1.4717      2.00000
      6       2.9034      2.00000
      7       3.7083      2.00000
      8       4.0527      2.00000
      9       4.0706      2.00000
     10       8.1243      0.00000
     11       8.3507      0.00000
     12       8.4801      0.00000
     13      10.3271      0.00000
     14      10.6211      0.00000

 k-point    11 :       0.3333    0.2222    0.0000
  band No.  band energies     occupation 
      1      -6.2383      2.00000
      2      -4.8214      2.00000
      3      -4.3538      2.00000
      4       1.5078      2.00000
      5       1.6245      2.00000
      6       2.6485      2.00000
      7       2.9654      2.00000
      8       3.7040      2.00000
      9       3.7832      2.00000
     10       8.3520      0.00000
     11       8.5862      0.00000
     12       9.3289      0.00000
     13      10.2271      0.00000
     14      11.6088      0.00000

 k-point    12 :       0.3333    0.3333    0.0000
  band No.  band energies     occupation 
      1      -6.1078      2.00000
      2      -4.6582      2.00000
      3      -4.6582      2.00000
      4       1.6967      2.00000
      5       1.6967      2.00000
      6       2.9444      2.00000
      7       2.9444      2.00000
      8       3.0672      2.00000
      9       3.2251      2.00000
     10       9.0084      0.00000
     11       9.0084      0.00000
     12       9.2216      0.00000
     13      10.9930      0.00000
     14      11.8103      0.00000

 k-point    13 :       0.0000    0.0000    0.2500
  band No.  band energies     occupation 
      1      -7.2811      2.00000
      2      -5.5664      2.00000
      3      -2.8459      2.00000
      4       2.7486      2.00000
      5       3.2226      2.00000
      6       3.6104      2.00000
      7       4.5999      2.00000
      8       4.7240      2.00000
      9       5.1412      2.00000
     10       6.6934      0.00000
     11       6.7710      0.00000
     12       7.1219      0.00000
     13      10.4010      0.00000
     14      11.5067      0.00000

 k-point    14 :       0.1111    0.0000    0.2500
  band No.  band energies     occupation 
      1      -7.1958      2.00000
      2      -5.5108      2.00000
      3      -2.9583      2.00000
      4       2.4177      2.00000
      5       3.0938      2.00000
      6       3.5091      2.00000
      7       4.2608      2.00000
      8       4.7396      2.00000
      9       4.8548      2.00000
     10       6.9334      0.00000
     11       7.1740      0.00000
     12       7.5497      0.00000
     13      10.4936      0.00000
     14      11.5120      0.00000

 k-point    15 :       0.2222    0.0000    0.2500
  band No.  band energies     occupation 
      1      -6.9546      2.00000
      2      -5.3483      2.00000
      3      -3.3193      2.00000
      4       2.0680      2.00000
      5       2.6884      2.00000
      6       3.1626      2.00000
      7       3.6281      2.00000
      8       4.2427      2.00000
      9       4.6695      2.00000
     10       7.4891      0.00000
     11       7.9538      0.00000
     12       8.3380      0.00000
     13      10.8221      0.00000
     14      11.2430      0.00000

 k-point    16 :       0.3333   -0.0000    0.2500
  band No.  band energies     occupation 
      1      -6.6049      2.00000
      2      -5.1356      2.00000
      3      -3.8325      2.00000
      4       1.7304      2.00000
      5       2.1009      2.00000
      6       2.7766      2.00000
      7       3.1412      2.00000
      8       4.2673      2.00000
      9       4.5948      2.00000
     10       7.5382      0.00000
     11       8.1018      0.00000
     12       9.2338      0.00000
     13      10.2903      0.00000
     14      11.7578      0.00000

 k-point    17 :       0.4444    0.0000    0.2500
  band No.  band energies     occupation 
      1      -6.2649      2.00000
      2      -5.1114      2.00000
      3      -4.1109      2.00000
      4       1.0473      2.00000
      5       1.7972      2.00000
      6       2.4947      2.00000
      7       3.6116      2.00000
      8       4.3191      2.00000
      9       4.5589      2.00000
     10       7.4027      0.00000
     11       8.0441      0.00000
     12       9.0576      0.00000
     13       9.7854      0.00000
     14      12.2682      0.00000

 k-point    18 :      -0.4444   -0.0000    0.2500
  band No.  band energies     occupation 
      1      -6.2171      2.00000
      2      -5.3006      2.00000
      3      -3.8866      2.00000
      4       0.6758      2.00000
      5       1.6805      2.00000
      6       2.4573      2.00000
      7       4.3929      2.00000
      8       4.4647      2.00000
      9       4.6983      2.00000
     10       7.2340      0.00000
     11       7.8453      0.00000
     12       8.2478      0.00000
     13       9.4763      0.00000
     14      12.8808      0.00000

 k-point    19 :      -0.3333    0.0000    0.2500
  band No.  band energies     occupation 
      1      -6.5627      2.00000
      2      -5.3418      2.00000
      3      -3.5099      2.00000
      4       0.8746      2.00000
      5       1.7631      2.00000
      6       2.6089      2.00000
      7       4.6760      2.00000
      8       4.7628      2.00000
      9       5.5738      2.00000
     10       6.9072      0.00000
     11       7.3498      0.00000
     12       7.5816      0.00000
     13       9.3960      0.00000
     14      12.8821      0.00000

 k-point    20 :      -0.2222   -0.0000    0.2500
  band No.  band energies     occupation 
      1      -6.9413      2.00000
      2      -5.4172      2.00000
      3      -3.1685      2.00000
      4       1.6268      2.00000
      5       2.0580      2.00000
      6       2.9126      2.00000
      7       4.9534      2.00000
      8       5.0779      2.00000
      9       5.6712      2.00000
     10       6.6392      0.00000
     11       7.0323      0.00000
     12       7.2697      0.00000
     13       9.6417      0.00000
     14      12.2598      0.00000

 k-point    21 :      -0.1111   -0.0000    0.2500
  band No.  band energies     occupation 
      1      -7.1942      2.00000
      2      -5.5194      2.00000
      3      -2.9346      2.00000
      4       2.4545      2.00000
      5       2.7198      2.00000
      6       3.3245      2.00000
      7       4.7330      2.00000
      8       5.0633      2.00000
      9       5.2799      2.00000
     10       6.5687      0.00000
     11       6.6208      0.00000
     12       7.5700      0.00000
     13      10.1711      0.00000
     14      11.5732      0.00000

 k-point    22 :       0.1111    0.1111    0.2500
  band No.  band energies     occupation 
      1      -7.0282      2.00000
      2      -5.4230      2.00000
      3      -3.1467      2.00000
      4       2.0577      2.00000
      5       2.3389      2.00000
      6       3.1877      2.00000
      7       4.2388      2.00000
      8       4.7909      2.00000
      9       5.1699      2.00000
     10       6.9871      0.00000
     11       7.5128      0.00000
     12       7.6586      0.00000
     13      10.2004      0.00000
     14      11.6459      0.00000

 k-point    23 :       0.2222    0.1111    0.2500
  band No.  band energies     occupation 
      1      -6.7275      2.00000
      2      -5.2401      2.00000
      3      -3.5897      2.00000
      4       1.6770      2.00000
      5       2.1177      2.00000
      6       2.9819      2.00000
      7       3.2328      2.00000
      8       4.2849      2.00000
      9       5.3344      2.00000
     10       7.1795      0.00000
     11       7.8626      0.00000
     12       8.8339      0.00000
     13      10.6215      0.00000
     14      11.0381      0.00000

 k-point    24 :       0.3333    0.1111    0.2500
  band No.  band energies     occupation 
      1      -6.3677      2.00000
      2      -5.0824      2.00000
      3      -4.0517      2.00000
      4       1.3592      2.00000
      5       1.6102      2.00000
      6       2.6894      2.00000
      7       3.2791      2.00000
      8       3.9035      2.00000
      9       5.4133      2.00000
     10       7.0262      0.00000
     11       8.2538      0.00000
     12       9.2259      0.00000
     13      10.1691      0.00000
     14      11.8287      0.00000

 k-point    25 :       0.4444    0.1111    0.2500
  band No.  band energies     occupation 
      1      -6.1384      2.00000
      2      -5.1927      2.00000
      3      -4.0948      2.00000
      4       0.8471      2.00000
      5       1.5025      2.00000
      6       2.5915      2.00000
      7       3.4842      2.00000
      8       4.1405      2.00000
      9       5.4645      2.00000
     10       6.8886      0.00000
     11       8.3275      0.00000
     12       8.6698      0.00000
     13       9.8790      0.00000
     14      12.6462      0.00000

 k-point    26 :      -0.4444    0.1111    0.2500
  band No.  band energies     occupation 
      1      -6.3232      2.00000
      2      -5.2825      2.00000
      3      -3.7945      2.00000
      4       0.7438      2.00000
      5       1.6662      2.00000
      6       2.5789      2.00000
      7       3.5398      2.00000
      8       5.0326      2.00000
      9       5.5202      2.00000
     10       6.7736      0.00000
     11       7.6772      0.00000
     12       8.3160      0.00000
     13       9.7632      0.00000
     14      12.5076      0.00000

 k-point    27 :      -0.3333    0.1111    0.2500
  band No.  band energies     occupation 
      1      -6.7111      2.00000
      2      -5.3231      2.00000
      3      -3.4430      2.00000
      4       1.2218      2.00000
      5       1.9370      2.00000
      6       2.7774      2.00000
      7       3.7974      2.00000
      8       5.2498      2.00000
      9       5.8729      2.00000
     10       6.5911      0.00000
     11       7.1778      0.00000
     12       8.1044      0.00000
     13       9.8291      0.00000
     14      11.8261      0.00000

 k-point    28 :       0.2222    0.2222    0.2500
  band No.  band energies     occupation 
      1      -6.3888      2.00000
      2      -5.1753      2.00000
      3      -3.8865      2.00000
      4       1.0283      2.00000
      5       1.8031      2.00000
      6       2.5443      2.00000
      7       3.0668      2.00000
      8       4.7148      2.00000
      9       5.7134      2.00000
     10       6.9170      0.00000
     11       7.7227      0.00000
     12       8.9639      0.00000
     13      10.5462      0.00000
     14      11.1250      0.00000

 k-point    29 :       0.3333    0.2222    0.2500
  band No.  band energies     occupation 
      1      -6.0953      2.00000
      2      -5.1005      2.00000
      3      -4.2197      2.00000
      4       1.0271      2.00000
      5       1.3533      2.00000
      6       2.1946      2.00000
      7       3.4082      2.00000
      8       4.2461      2.00000
      9       5.4657      2.00000
     10       7.1666      0.00000
     11       8.3788      0.00000
     12       8.9239      0.00000
     13      10.5933      0.00000
     14      11.7310      0.00000

 k-point    30 :       0.4444    0.2222    0.2500
  band No.  band energies     occupation 
      1      -6.0796      2.00000
      2      -5.1645      2.00000
      3      -4.1521      2.00000
      4       0.8498      2.00000
      5       1.4523      2.00000
      6       2.2136      2.00000
      7       3.3129      2.00000
      8       4.6482      2.00000
      9       5.2685      2.00000
     10       7.3489      0.00000
     11       8.0548      0.00000
     12       8.8264      0.00000
     13      10.4892      0.00000
     14      11.9932      0.00000

 k-point    31 :       0.3333    0.3333    0.2500
  band No.  band energies     occupation 
      1      -5.9646      2.00000
      2      -5.1024      2.00000
      3      -4.3199      2.00000
      4       0.9843      2.00000
      5       1.3527      2.00000
      6       1.7781      2.00000
      7       3.6496      2.00000
      8       4.5207      2.00000
      9       4.8802      2.00000
     10       7.9353      0.00000
     11       8.3954      0.00000
     12       8.4897      0.00000
     13      11.4264      0.00000
     14      11.7086      0.00000

 k-point    32 :       0.0000    0.0000    0.5000
  band No.  band energies     occupation 
      1      -6.6203      2.00000
      2      -6.6203      2.00000
      3      -2.1425      2.00000
      4       2.2569      2.00000
      5       3.4496      2.00000
      6       3.4496      2.00000
      7       4.8210      2.00000
      8       5.1636      2.00000
      9       5.1636      2.00000
     10       6.4395      0.00000
     11       6.4395      0.00000
     12       6.4521      0.00000
     13      10.0642      0.00000
     14      11.2444      0.00000

 k-point    33 :       0.1111    0.0000    0.5000
  band No.  band energies     occupation 
      1      -6.5527      2.00000
      2      -6.5371      2.00000
      3      -2.3322      2.00000
      4       2.2295      2.00000
      5       3.2761      2.00000
      6       3.3878      2.00000
      7       4.2044      2.00000
      8       4.6653      2.00000
      9       4.8954      2.00000
     10       6.7343      0.00000
     11       6.9501      0.00000
     12       7.4378      0.00000
     13      10.2980      0.00000
     14      10.9634      0.00000

 k-point    34 :       0.2222    0.0000    0.5000
  band No.  band energies     occupation 
      1      -6.3696      2.00000
      2      -6.2951      2.00000
      3      -2.8251      2.00000
      4       1.8629      2.00000
      5       2.6767      2.00000
      6       3.1135      2.00000
      7       4.0051      2.00000
      8       4.1895      2.00000
      9       4.6135      2.00000
     10       7.3026      0.00000
     11       7.7425      0.00000
     12       8.2769      0.00000
     13      10.4195      0.00000
     14      11.3021      0.00000

 k-point    35 :       0.3333   -0.0000    0.5000
  band No.  band energies     occupation 
      1      -6.1356      2.00000
      2      -5.9285      2.00000
      3      -3.4517      2.00000
      4       1.0038      2.00000
      5       2.4845      2.00000
      6       2.8153      2.00000
      7       3.7434      2.00000
      8       3.9919      2.00000
      9       4.9677      2.00000
     10       7.6535      0.00000
     11       8.0338      0.00000
     12       8.3736      0.00000
     13      10.4434      0.00000
     14      11.6310      0.00000

 k-point    36 :       0.4444    0.0000    0.5000
  band No.  band energies     occupation 
      1      -5.9632      2.00000
      2      -5.5622      2.00000
      3      -3.9761      2.00000
      4       0.4340      2.00000
      5       2.4776      2.00000
      6       2.5902      2.00000
      7       3.5575      2.00000
      8       3.8601      2.00000
      9       5.7092      2.00000
     10       6.9877      0.00000
     11       8.0819      0.00000
     12       8.6484      0.00000
     13      10.5722      0.00000
     14      11.2401      0.00000

 k-point    37 :       0.1111    0.1111    0.5000
  band No.  band energies     occupation 
      1      -6.4227      2.00000
      2      -6.3786      2.00000
      3      -2.6701      2.00000
      4       2.0684      2.00000
      5       2.8945      2.00000
      6       2.9969      2.00000
      7       3.9352      2.00000
      8       4.1315      2.00000
      9       5.2322      2.00000
     10       6.5876      0.00000
     11       7.9578      0.00000
     12       8.0438      0.00000
     13      10.7159      0.00000
     14      10.7170      0.00000

 k-point    38 :       0.2222    0.1111    0.5000
  band No.  band energies     occupation 
      1      -6.2006      2.00000
      2      -6.0835      2.00000
      3      -3.2168      2.00000
      4       1.4595      2.00000
      5       2.2831      2.00000
      6       2.5001      2.00000
      7       3.9571      2.00000
      8       4.3975      2.00000
      9       5.1417      2.00000
     10       7.0244      0.00000
     11       8.2271      0.00000
     12       8.3558      0.00000
     13      10.5525      0.00000
     14      11.4666      0.00000

 k-point    39 :       0.3333    0.1111    0.5000
  band No.  band energies     occupation 
      1      -5.9796      2.00000
      2      -5.7128      2.00000
      3      -3.7888      2.00000
      4       0.7209      2.00000
      5       2.0145      2.00000
      6       2.1807      2.00000
      7       4.0753      2.00000
      8       4.5304      2.00000
      9       5.3867      2.00000
     10       7.3393      0.00000
     11       7.7621      0.00000
     12       8.4161      0.00000
     13      10.6186      0.00000
     14      11.6133      0.00000

 k-point    40 :       0.4444    0.1111    0.5000
  band No.  band energies     occupation 
      1      -5.8838      2.00000
      2      -5.4940      2.00000
      3      -4.0829      2.00000
      4       0.4280      2.00000
      5       1.9441      2.00000
      6       2.0559      2.00000
      7       4.2380      2.00000
      8       4.3293      2.00000
      9       5.9707      2.00000
     10       6.7564      0.00000
     11       7.8919      0.00000
     12       8.3856      0.00000
     13      10.7661      0.00000
     14      11.2777      0.00000

 k-point    41 :       0.2222    0.2222    0.5000
  band No.  band energies     occupation 
      1      -5.9582      2.00000
      2      -5.8042      2.00000
      3      -3.6950      2.00000
      4       1.0972      2.00000
      5       1.5162      2.00000
      6       1.8893      2.00000
      7       4.4920      2.00000
      8       4.8314      2.00000
      9       5.6496      2.00000
     10       6.8374      0.00000
     11       8.0297      0.00000
     12       8.0544      0.00000
     13      10.9028      0.00000
     14      11.7644      0.00000

 k-point    42 :       0.3333    0.2222    0.5000
  band No.  band energies     occupation 
      1      -5.7678      2.00000
      2      -5.5567      2.00000
      3      -4.0719      2.00000
      4       0.7023      2.00000
      5       1.2859      2.00000
      6       1.4845      2.00000
      7       4.9063      2.00000
      8       5.2889      2.00000
      9       5.8814      2.00000
     10       6.8734      0.00000
     11       7.4120      0.00000
     12       7.7792      0.00000
     13      11.2829      0.00000
     14      11.9166      0.00000

 k-point    43 :       0.3333    0.3333    0.5000
  band No.  band energies     occupation 
      1      -5.5845      2.00000
      2      -5.5845      2.00000
      3      -4.1790      2.00000
      4       0.9246      2.00000
      5       1.0016      2.00000
      6       1.0016      2.00000
      7       5.2785      2.00000
      8       6.1417      1.96376
      9       6.1417      1.96376
     10       6.2792      0.07248
     11       7.2395      0.00000
     12       7.2395      0.00000
     13      12.0817      0.00000
     14      12.5349      0.00000


--------------------------------------------------------------------------------------------------------


 soft charge-density along one line, spin component           1
         0         1         2         3         4         5         6         7         8         9
 total charge-density along one line
 
 pseudopotential strength for first ion, spin component:           1
 51.591  56.133  -0.000  -0.000  -0.044  -0.000  -0.000  -0.064
 56.133  61.077  -0.000  -0.000  -0.048  -0.000  -0.000  -0.069
 -0.000  -0.000  12.705   0.009   0.000  18.313   0.013   0.000
 -0.000  -0.000   0.009  12.719   0.000   0.013  18.333   0.000
 -0.044  -0.048   0.000   0.000  12.719   0.000   0.000  18.333
 -0.000  -0.000  18.313   0.013   0.000  26.406   0.018   0.000
 -0.000  -0.000   0.013  18.333   0.000   0.018  26.436   0.000
 -0.064  -0.069   0.000   0.000  18.333   0.000   0.000  26.436
  0.000   0.000  -0.009   0.000  -0.000  -0.012   0.000  -0.000
  0.014   0.015   0.000  -0.000   0.000   0.000  -0.000   0.000
  0.006   0.007   0.000  -0.000   0.005   0.000  -0.000   0.008
  0.000   0.000   0.000  -0.008  -0.000   0.000  -0.012  -0.000
  0.011   0.012   0.000  -0.000  -0.008   0.000  -0.000  -0.012
 total augmentation occupancy for first ion, spin component:           1
 13.740 -10.074   0.000   0.000   1.889   0.000   0.000  -0.473   0.000  -0.156  -0.093   0.000  -0.116
-10.074   8.648   0.000   0.000  -1.585   0.000  -0.000   0.404   0.000   0.141   0.083  -0.000   0.104
  0.000   0.000   2.550   0.185   0.000  -0.506  -0.167   0.000  -0.047   0.000   0.000  -0.045   0.000
  0.000  -0.000   0.185   2.855   0.000  -0.167  -0.780  -0.000  -0.044   0.000  -0.000  -0.106  -0.000
  1.889  -1.585   0.000   0.000   2.766   0.000  -0.000  -0.730   0.000  -0.050  -0.013   0.000  -0.047
  0.000   0.000  -0.506  -0.167   0.000   0.185   0.061   0.000   0.011   0.000   0.000   0.016   0.000
 -0.000  -0.000  -0.167  -0.780  -0.000   0.061   0.283   0.000   0.016  -0.000   0.000   0.031  -0.000
 -0.473   0.404   0.000  -0.000  -0.730   0.000   0.000   0.257   0.000   0.014   0.003   0.000   0.011
  0.000   0.000  -0.047  -0.044   0.000   0.011   0.016  -0.000   0.010   0.000   0.000   0.011   0.000
 -0.156   0.141   0.000   0.000  -0.050   0.000   0.000   0.014   0.000   0.015   0.003   0.000   0.005
 -0.093   0.083   0.000  -0.000  -0.013   0.000   0.000   0.003  -0.000   0.003   0.007   0.000  -0.000
  0.000  -0.000  -0.045  -0.106   0.000   0.016   0.031  -0.000   0.011   0.000   0.000   0.027   0.000
 -0.116   0.104   0.000   0.000  -0.047   0.000   0.000   0.011   0.000   0.005  -0.000   0.000   0.010


------------------------ aborting loop because EDIFF is reached ----------------------------------------


    CHARGE:  cpu time    0.0252: real time    0.0252
    FORLOC:  cpu time    0.0009: real time    0.0009
    FORNL :  cpu time    0.0953: real time    0.0955
    STRESS:  cpu time    0.2208: real time    0.2215
    FORCOR:  cpu time    0.0183: real time    0.0183
    FORHAR:  cpu time    0.0038: real time    0.0038
    MIXING:  cpu time    0.0007: real time    0.0007
    OFIELD:  cpu time    0.0000: real time    0.0000

  Hirshfeld charges:
            ion         q(e)     
   ------------------------------
      1     Te         -0.000
      2     Te         -0.000
      3     Te          0.000

  Tkatchenko/Scheffler method for vdW energy calculation
  ---------------------------------------------------------------------------------------------

  Parameters of vdW forcefield:
            C6ts              R0ts           ALPHAts        RELVOL
            (au)              (au)            (au)                
   ---------------------------------------------------------------
   Te        395.624          4.213         37.632          1.000
   Te        395.624          4.213         37.632          1.000
   Te        395.624          4.213         37.632          1.000

  Number of pair interactions contributing to vdW energy:   31347
  Edisp (eV):   -0.70432
    FORVDW:  cpu time    0.1432: real time    0.1436

  FORCE on cell =-STRESS in cart. coord.  units (eV):
  Direction    XX          YY          ZZ          XY          YZ          ZX
  --------------------------------------------------------------------------------------
  Alpha Z     2.32452     2.32452     2.32452
  Ewald    -237.37412  -237.37412  -205.13165    -0.00000    -0.00000     0.00000
  Hartree    11.04559    11.04559    19.09471     0.00000     0.00000    -0.00000
  E(xc)     -70.35211   -70.35211   -69.91429    -0.00000     0.00000    -0.00000
  Local    -111.48973  -111.48978  -143.81584    -0.00004     0.00000    -0.00000
  n-local   331.85417   332.69561   328.35984    -1.26928    -0.68483    -1.19386
  augment   -81.06818   -81.06813   -79.08793     0.00004    -0.00000     0.00000
  Kinetic   151.67329   158.75909   148.93103    -7.71777     0.16745     1.73254
  Fock        0.00000     0.00000     0.00000     0.00000     0.00000     0.00000
  vdW        -0.71402    -0.71402    -0.90483     0.00000    -0.00000    -0.00000
  -------------------------------------------------------------------------------------
  Total      -0.13697    -0.13697    -0.14443     0.00000     0.00000     0.00000
  in kB      -2.18225    -2.18225    -2.30117     0.00000     0.00000     0.00000
  external pressure =       -2.22 kB  Pullay stress =        0.00 kB


 VOLUME and BASIS-vectors are now :
 -----------------------------------------------------------------------------
  energy-cutoff  :      520.00
  volume of cell :      100.56
      direct lattice vectors                 reciprocal lattice vectors
     4.426928618  0.000000000  0.000000000     0.225890247  0.130417795 -0.000000000
    -2.213464309  3.833832644 -0.000000000    -0.000000000  0.260835590 -0.000000000
     0.000000000  0.000000000  5.924993468    -0.000000000  0.000000000  0.168776557

  length of vectors
     4.426928618  4.426928618  5.924993468     0.260835590  0.260835590  0.168776557


 FORCES acting on ions
    electron-ion (+dipol)            ewald-force                    non-local-force                 convergence-correction
 -----------------------------------------------------------------------------------------------
   -.960E+01 0.112E-04 -.904E-06   0.141E+02 0.160E-05 0.141E-05   -.454E+01 0.276E-16 0.555E-16   -.324E-03 0.782E-08 -.100E-09
   0.480E+01 -.831E+01 -.186E-04   -.706E+01 0.122E+02 -.806E-05   0.227E+01 -.393E+01 0.000E+00   0.162E-03 -.281E-03 -.315E-10
   0.480E+01 0.831E+01 0.192E-04   -.706E+01 -.122E+02 0.666E-05   0.227E+01 0.393E+01 0.000E+00   0.162E-03 0.281E-03 0.142E-09
 -----------------------------------------------------------------------------------------------
   0.259E-04 -.842E-05 -.311E-06   0.000E+00 0.000E+00 0.521E-17   0.444E-15 0.000E+00 0.555E-16   0.216E-08 0.461E-08 0.109E-10
 
 
 POSITION                                       TOTAL-FORCE (eV/Angst)
 -----------------------------------------------------------------------------------
      1.23268      0.00000      1.97500        -0.025828     -0.000000     -0.000000
     -0.61634      1.06753      3.95000         0.012914     -0.022367      0.000000
      1.59712      2.76630      0.00000         0.012914      0.022367      0.000000
 -----------------------------------------------------------------------------------
    total drift:                                0.000026     -0.000008     -0.000000


--------------------------------------------------------------------------------------------------------



  FREE ENERGIE OF THE ION-ELECTRON SYSTEM (eV)
  ---------------------------------------------------
  free  energy   TOTEN  =       -10.11740938 eV

  energy  without entropy=      -10.11733581  energy(sigma->0) =      -10.11737260
 
 d Force =-0.6695616E-04[-0.347E-03, 0.213E-03]  d Energy = 0.2777587E-03-0.345E-03
 d Force = 0.1927293E+00[ 0.190E+00, 0.196E+00]  d Ewald  =-0.5701464E+00 0.763E+00


--------------------------------------------------------------------------------------------------------


    POTLOK:  cpu time    0.0201: real time    0.0201


--------------------------------------------------------------------------------------------------------


 Conjugate gradient step on ions:
 trial-energy change:   -0.000278  1 .order    0.000046   -0.000795    0.000887
  (g-gl).g = 0.110E-02      g.g   = 0.430E-03  gl.gl    = 0.710E-02
 g(Force)  = 0.364E-04   g(Stress)= 0.394E-03 ortho     = 0.474E-04
 gamma     =   0.15548
 trial     =   1.81658
 opt step  =   1.29032  (harmonic =   0.85870) maximal distance =0.00317870
 next E    =   -10.117530   (d E  =  -0.00040)


--------------------------------------------------------------------------------------------------------


    WAVPRE:  cpu time    0.0037: real time    0.0065
    FEWALD:  cpu time    0.0002: real time    0.0002
    GENKIN:  cpu time    0.0058: real time    0.0059
    ORTHCH:  cpu time    0.0192: real time    0.0192
     LOOP+:  cpu time    2.3640: real time    2.3791


--------------------------------------- Iteration     16(   1)  ---------------------------------------


    POTLOK:  cpu time    0.0179: real time    0.0192
    SETDIJ:  cpu time    0.0024: real time    0.0024
     EDDAV:  cpu time    0.3262: real time    0.3273
       DOS:  cpu time    0.0006: real time    0.0005
    CHARGE:  cpu time    0.0250: real time    0.0251
    MIXING:  cpu time    0.0005: real time    0.0005
    --------------------------------------------
      LOOP:  cpu time    0.3726: real time    0.3751

 eigenvalue-minimisations  :  1216
 total energy-change (2. order) : 0.8308665E-03  (-0.4873860E-03)
 number of electron      18.0000000 magnetization 
 augmentation part       -3.6124450 magnetization 

 Broyden mixing:
  rms(total) = 0.79517E-02    rms(broyden)= 0.79517E-02
  rms(prec ) = 0.90126E-02
  weight for this iteration     100.00

 Free energy of the ion-electron system (eV)
  ---------------------------------------------------
  alpha Z        PSCENC =         2.32702735
  Ewald energy   TEWEN  =      -680.04480443
  -Hartree energ DENC   =       -41.24390361
  -exchange      EXHF   =         0.00000000
  -V(xc)+E(xc)   XCENC  =       -83.94676849
  PAW double counting   =      1531.62564597    -1416.25837750
  entropy T*S    EENTRO =        -0.00006560
  eigenvalues    EBANDS =         8.31468426
  atomic energy  EATOM  =       669.81430600
  Solvation  Ediel_sol  =         0.00000000
  ---------------------------------------------------
  free energy    TOTEN  =        -9.41225604 eV

  energy without entropy =       -9.41219044  energy(sigma->0) =       -9.41222324


--------------------------------------------------------------------------------------------------------




--------------------------------------- Iteration     16(   2)  ---------------------------------------


    POTLOK:  cpu time    0.0184: real time    0.0185
    SETDIJ:  cpu time    0.0023: real time    0.0023
     EDDAV:  cpu time    0.3452: real time    0.3463
       DOS:  cpu time    0.0005: real time    0.0006
    CHARGE:  cpu time    0.0252: real time    0.0252
    MIXING:  cpu time    0.0006: real time    0.0006
    --------------------------------------------
      LOOP:  cpu time    0.3923: real time    0.3935

 eigenvalue-minimisations  :  1348
 total energy-change (2. order) :-0.3569807E-05  (-0.2322833E-04)
 number of electron      18.0000000 magnetization 
 augmentation part       -3.6117866 magnetization 

 Broyden mixing:
  rms(total) = 0.35171E-02    rms(broyden)= 0.35171E-02
  rms(prec ) = 0.45023E-02
  weight for this iteration     100.00

 eigenvalues of (default mixing * dielectric matrix)
  average eigenvalue GAMMA=   0.8009
  0.8009

 Free energy of the ion-electron system (eV)
  ---------------------------------------------------
  alpha Z        PSCENC =         2.32702735
  Ewald energy   TEWEN  =      -680.04480443
  -Hartree energ DENC   =       -41.22106653
  -exchange      EXHF   =         0.00000000
  -V(xc)+E(xc)   XCENC  =       -83.94563910
  PAW double counting   =      1534.45681476    -1419.08999383
  entropy T*S    EENTRO =        -0.00006531
  eigenvalues    EBANDS =         8.29116148
  atomic energy  EATOM  =       669.81430600
  Solvation  Ediel_sol  =         0.00000000
  ---------------------------------------------------
  free energy    TOTEN  =        -9.41225961 eV

  energy without entropy =       -9.41219430  energy(sigma->0) =       -9.41222696


--------------------------------------------------------------------------------------------------------




--------------------------------------- Iteration     16(   3)  ---------------------------------------


    POTLOK:  cpu time    0.0180: real time    0.0180
    SETDIJ:  cpu time    0.0023: real time    0.0023
     EDDAV:  cpu time    0.2543: real time    0.2553
       DOS:  cpu time    0.0005: real time    0.0005
    --------------------------------------------
      LOOP:  cpu time    0.2751: real time    0.2761

 eigenvalue-minimisations  :   818
 total energy-change (2. order) : 0.6921746E-05  (-0.6679393E-06)
 number of electron      18.0000000 magnetization 
 augmentation part       -3.6117866 magnetization 

 Free energy of the ion-electron system (eV)
  ---------------------------------------------------
  alpha Z        PSCENC =         2.32702735
  Ewald energy   TEWEN  =      -680.04480443
  -Hartree energ DENC   =       -41.20901644
  -exchange      EXHF   =         0.00000000
  -V(xc)+E(xc)   XCENC  =       -83.94461333
  PAW double counting   =      1534.80572649    -1419.43922967
  entropy T*S    EENTRO =        -0.00006487
  eigenvalues    EBANDS =         8.27841622
  atomic energy  EATOM  =       669.81430600
  Solvation  Ediel_sol  =         0.00000000
  ---------------------------------------------------
  free energy    TOTEN  =        -9.41225269 eV

  energy without entropy =       -9.41218782  energy(sigma->0) =       -9.41222025


--------------------------------------------------------------------------------------------------------




 average (electrostatic) potential at core
  the test charge radii are     1.1897
  (the norm of the test charge is              1.0000)
       1 -88.8808       2 -88.8808       3 -88.8808
 
 
 
 E-fermi :   6.2346     XC(G=0):  -9.1440     alpha+bet :-10.7054


 k-point     1 :       0.0000    0.0000    0.0000
  band No.  band energies     occupation 
      1      -7.5018      2.00000
      2      -4.2081      2.00000
      3      -4.2081      2.00000
      4       3.1172      2.00000
      5       3.4604      2.00000
      6       3.4604      2.00000
      7       4.3989      2.00000
      8       4.3989      2.00000
      9       5.1059      2.00000
     10       7.1197      0.00000
     11       7.1197      0.00000
     12       7.6857      0.00000
     13      11.1091      0.00000
     14      11.1091      0.00000

 k-point     2 :       0.1111    0.0000    0.0000
  band No.  band energies     occupation 
      1      -7.4128      2.00000
      2      -4.2314      2.00000
      3      -4.1855      2.00000
      4       2.4449      2.00000
      5       2.9806      2.00000
      6       3.1974      2.00000
      7       4.7390      2.00000
      8       4.9826      2.00000
      9       5.4662      2.00000
     10       6.7702      0.00000
     11       7.0315      0.00000
     12       7.5206      0.00000
     13      10.7832      0.00000
     14      11.0626      0.00000

 k-point     3 :       0.2222    0.0000    0.0000
  band No.  band energies     occupation 
      1      -7.1557      2.00000
      2      -4.3492      2.00000
      3      -4.1218      2.00000
      4       1.6225      2.00000
      5       2.3648      2.00000
      6       2.7796      2.00000
      7       4.8742      2.00000
      8       5.1759      2.00000
      9       5.3124      2.00000
     10       6.8835      0.00000
     11       7.0938      0.00000
     12       7.6444      0.00000
     13       9.9619      0.00000
     14      11.2970      0.00000

 k-point     4 :       0.3333   -0.0000    0.0000
  band No.  band energies     occupation 
      1      -6.7711      2.00000
      2      -4.6320      2.00000
      3      -4.0395      2.00000
      4       1.2570      2.00000
      5       1.8888      2.00000
      6       2.4465      2.00000
      7       3.7122      2.00000
      8       5.3032      2.00000
      9       5.3557      2.00000
     10       6.8227      0.00000
     11       6.9871      0.00000
     12       8.8414      0.00000
     13       9.2874      0.00000
     14      12.1044      0.00000

 k-point     5 :       0.4444    0.0000    0.0000
  band No.  band energies     occupation 
      1      -6.3935      2.00000
      2      -4.9797      2.00000
      3      -3.9804      2.00000
      4       1.2749      2.00000
      5       1.6955      2.00000
      6       2.3300      2.00000
      7       2.7391      2.00000
      8       5.2517      2.00000
      9       5.3827      2.00000
     10       6.8202      0.00000
     11       6.8703      0.00000
     12       8.9294      0.00000
     13       9.7167      0.00000
     14      13.2854      0.00000

 k-point     6 :       0.1111    0.1111    0.0000
  band No.  band energies     occupation 
      1      -7.2394      2.00000
      2      -4.2832      2.00000
      3      -4.1624      2.00000
      4       1.8962      2.00000
      5       2.2109      2.00000
      6       3.2912      2.00000
      7       4.4561      2.00000
      8       5.4376      2.00000
      9       5.4448      2.00000
     10       6.7453      0.00000
     11       7.0730      0.00000
     12       7.6144      0.00000
     13      10.5534      0.00000
     14      10.6077      0.00000

 k-point     7 :       0.2222    0.1111    0.0000
  band No.  band energies     occupation 
      1      -6.9156      2.00000
      2      -4.4548      2.00000
      3      -4.1315      2.00000
      4       1.4044      2.00000
      5       1.7703      2.00000
      6       2.9406      2.00000
      7       4.2735      2.00000
      8       4.5802      2.00000
      9       5.1301      2.00000
     10       7.2158      0.00000
     11       7.6306      0.00000
     12       8.1344      0.00000
     13       9.8898      0.00000
     14      10.9389      0.00000

 k-point     8 :       0.3333    0.1111    0.0000
  band No.  band energies     occupation 
      1      -6.5147      2.00000
      2      -4.7790      2.00000
      3      -4.0948      2.00000
      4       1.2981      2.00000
      5       1.6366      2.00000
      6       2.5220      2.00000
      7       3.2359      2.00000
      8       4.5717      2.00000
      9       4.8422      2.00000
     10       7.3882      0.00000
     11       7.6226      0.00000
     12       9.2521      0.00000
     13       9.4429      0.00000
     14      11.9139      0.00000

 k-point     9 :       0.4444    0.1111    0.0000
  band No.  band energies     occupation 
      1      -6.2808      2.00000
      2      -4.9980      2.00000
      3      -4.0783      2.00000
      4       1.3626      2.00000
      5       1.6840      2.00000
      6       2.4878      2.00000
      7       2.5405      2.00000
      8       4.6530      2.00000
      9       4.6720      2.00000
     10       7.4235      0.00000
     11       7.6047      0.00000
     12       9.2811      0.00000
     13       9.7544      0.00000
     14      12.9915      0.00000

 k-point    10 :       0.2222    0.2222    0.0000
  band No.  band energies     occupation 
      1      -6.5643      2.00000
      2      -4.6005      2.00000
      3      -4.2461      2.00000
      4       1.4033      2.00000
      5       1.4786      2.00000
      6       2.9122      2.00000
      7       3.7204      2.00000
      8       4.0655      2.00000
      9       4.0848      2.00000
     10       8.1409      0.00000
     11       8.3715      0.00000
     12       8.5020      0.00000
     13      10.3365      0.00000
     14      10.6342      0.00000

 k-point    11 :       0.3333    0.2222    0.0000
  band No.  band energies     occupation 
      1      -6.2368      2.00000
      2      -4.8085      2.00000
      3      -4.3400      2.00000
      4       1.5135      2.00000
      5       1.6303      2.00000
      6       2.6600      2.00000
      7       2.9782      2.00000
      8       3.7178      2.00000
      9       3.7967      2.00000
     10       8.3687      0.00000
     11       8.6072      0.00000
     12       9.3524      0.00000
     13      10.2396      0.00000
     14      11.6179      0.00000

 k-point    12 :       0.3333    0.3333    0.0000
  band No.  band energies     occupation 
      1      -6.1070      2.00000
      2      -4.6447      2.00000
      3      -4.6447      2.00000
      4       1.7012      2.00000
      5       1.7012      2.00000
      6       2.9570      2.00000
      7       2.9570      2.00000
      8       3.0813      2.00000
      9       3.2405      2.00000
     10       9.0285      0.00000
     11       9.0285      0.00000
     12       9.2450      0.00000
     13      10.9979      0.00000
     14      11.8228      0.00000

 k-point    13 :       0.0000    0.0000    0.2500
  band No.  band energies     occupation 
      1      -7.2769      2.00000
      2      -5.5569      2.00000
      3      -2.8269      2.00000
      4       2.7583      2.00000
      5       3.2264      2.00000
      6       3.6180      2.00000
      7       4.6097      2.00000
      8       4.7316      2.00000
      9       5.1546      2.00000
     10       6.7100      0.00000
     11       6.7877      0.00000
     12       7.1353      0.00000
     13      10.4154      0.00000
     14      11.5155      0.00000

 k-point    14 :       0.1111    0.0000    0.2500
  band No.  band energies     occupation 
      1      -7.1916      2.00000
      2      -5.5014      2.00000
      3      -2.9398      2.00000
      4       2.4256      2.00000
      5       3.0980      2.00000
      6       3.5164      2.00000
      7       4.2731      2.00000
      8       4.7540      2.00000
      9       4.8632      2.00000
     10       6.9507      0.00000
     11       7.1907      0.00000
     12       7.5632      0.00000
     13      10.5059      0.00000
     14      11.5211      0.00000

 k-point    15 :       0.2222    0.0000    0.2500
  band No.  band energies     occupation 
      1      -6.9504      2.00000
      2      -5.3390      2.00000
      3      -3.3021      2.00000
      4       2.0742      2.00000
      5       2.6928      2.00000
      6       3.1715      2.00000
      7       3.6393      2.00000
      8       4.2559      2.00000
      9       4.6850      2.00000
     10       7.5062      0.00000
     11       7.9692      0.00000
     12       8.3562      0.00000
     13      10.8327      0.00000
     14      11.2550      0.00000

 k-point    16 :       0.3333   -0.0000    0.2500
  band No.  band energies     occupation 
      1      -6.6009      2.00000
      2      -5.1269      2.00000
      3      -3.8160      2.00000
      4       1.7356      2.00000
      5       2.1069      2.00000
      6       2.7848      2.00000
      7       3.1553      2.00000
      8       4.2801      2.00000
      9       4.6102      2.00000
     10       7.5550      0.00000
     11       8.1198      0.00000
     12       9.2567      0.00000
     13      10.3065      0.00000
     14      11.7704      0.00000

 k-point    17 :       0.4444    0.0000    0.2500
  band No.  band energies     occupation 
      1      -6.2616      2.00000
      2      -5.1028      2.00000
      3      -4.0944      2.00000
      4       1.0541      2.00000
      5       1.8037      2.00000
      6       2.5018      2.00000
      7       3.6264      2.00000
      8       4.3311      2.00000
      9       4.5737      2.00000
     10       7.4184      0.00000
     11       8.0637      0.00000
     12       9.0837      0.00000
     13       9.8035      0.00000
     14      12.2840      0.00000

 k-point    18 :      -0.4444   -0.0000    0.2500
  band No.  band energies     occupation 
      1      -6.2145      2.00000
      2      -5.2903      2.00000
      3      -3.8708      2.00000
      4       0.6829      2.00000
      5       1.6878      2.00000
      6       2.4642      2.00000
      7       4.4047      2.00000
      8       4.4754      2.00000
      9       4.7152      2.00000
     10       7.2495      0.00000
     11       7.8652      0.00000
     12       8.2737      0.00000
     13       9.4937      0.00000
     14      12.8960      0.00000

 k-point    19 :      -0.3333    0.0000    0.2500
  band No.  band energies     occupation 
      1      -6.5591      2.00000
      2      -5.3320      2.00000
      3      -3.4936      2.00000
      4       0.8813      2.00000
      5       1.7710      2.00000
      6       2.6159      2.00000
      7       4.6863      2.00000
      8       4.7722      2.00000
      9       5.5900      2.00000
     10       6.9252      0.00000
     11       7.3717      0.00000
     12       7.6018      0.00000
     13       9.4104      0.00000
     14      12.8911      0.00000

 k-point    20 :      -0.2222   -0.0000    0.2500
  band No.  band energies     occupation 
      1      -6.9372      2.00000
      2      -5.4076      2.00000
      3      -3.1509      2.00000
      4       1.6329      2.00000
      5       2.0663      2.00000
      6       2.9199      2.00000
      7       4.9620      2.00000
      8       5.0866      2.00000
      9       5.6863      2.00000
     10       6.6577      0.00000
     11       7.0507      0.00000
     12       7.2892      0.00000
     13       9.6531      0.00000
     14      12.2720      0.00000

 k-point    21 :      -0.1111   -0.0000    0.2500
  band No.  band energies     occupation 
      1      -7.1900      2.00000
      2      -5.5099      2.00000
      3      -2.9160      2.00000
      4       2.4631      2.00000
      5       2.7246      2.00000
      6       3.3323      2.00000
      7       4.7468      2.00000
      8       5.0704      2.00000
      9       5.2884      2.00000
     10       6.5870      0.00000
     11       6.6389      0.00000
     12       7.5855      0.00000
     13      10.1827      0.00000
     14      11.5856      0.00000

 k-point    22 :       0.1111    0.1111    0.2500
  band No.  band energies     occupation 
      1      -7.0240      2.00000
      2      -5.4135      2.00000
      3      -3.1290      2.00000
      4       2.0637      2.00000
      5       2.3463      2.00000
      6       3.1956      2.00000
      7       4.2488      2.00000
      8       4.8018      2.00000
      9       5.1848      2.00000
     10       7.0041      0.00000
     11       7.5297      0.00000
     12       7.6755      0.00000
     13      10.2109      0.00000
     14      11.6574      0.00000

 k-point    23 :       0.2222    0.1111    0.2500
  band No.  band energies     occupation 
      1      -6.7235      2.00000
      2      -5.2309      2.00000
      3      -3.5731      2.00000
      4       1.6822      2.00000
      5       2.1242      2.00000
      6       2.9916      2.00000
      7       3.2441      2.00000
      8       4.2980      2.00000
      9       5.3495      2.00000
     10       7.1987      0.00000
     11       7.8790      0.00000
     12       8.8535      0.00000
     13      10.6324      0.00000
     14      11.0511      0.00000

 k-point    24 :       0.3333    0.1111    0.2500
  band No.  band energies     occupation 
      1      -6.3642      2.00000
      2      -5.0739      2.00000
      3      -4.0352      2.00000
      4       1.3646      2.00000
      5       1.6171      2.00000
      6       2.6976      2.00000
      7       3.2919      2.00000
      8       3.9185      2.00000
      9       5.4269      2.00000
     10       7.0462      0.00000
     11       8.2711      0.00000
     12       9.2501      0.00000
     13      10.1841      0.00000
     14      11.8399      0.00000

 k-point    25 :       0.4444    0.1111    0.2500
  band No.  band energies     occupation 
      1      -6.1358      2.00000
      2      -5.1831      2.00000
      3      -4.0787      2.00000
      4       0.8538      2.00000
      5       1.5089      2.00000
      6       2.5986      2.00000
      7       3.4965      2.00000
      8       4.1569      2.00000
      9       5.4765      2.00000
     10       6.9091      0.00000
     11       8.3447      0.00000
     12       8.6949      0.00000
     13       9.8964      0.00000
     14      12.6602      0.00000

 k-point    26 :      -0.4444    0.1111    0.2500
  band No.  band energies     occupation 
      1      -6.3201      2.00000
      2      -5.2725      2.00000
      3      -3.7786      2.00000
      4       0.7504      2.00000
      5       1.6731      2.00000
      6       2.5865      2.00000
      7       3.5516      2.00000
      8       5.0466      2.00000
      9       5.5324      2.00000
     10       6.7937      0.00000
     11       7.7015      0.00000
     12       8.3325      0.00000
     13       9.7799      0.00000
     14      12.5160      0.00000

 k-point    27 :      -0.3333    0.1111    0.2500
  band No.  band energies     occupation 
      1      -6.7072      2.00000
      2      -5.3136      2.00000
      3      -3.4264      2.00000
      4       1.2280      2.00000
      5       1.9447      2.00000
      6       2.7853      2.00000
      7       3.8082      2.00000
      8       5.2594      2.00000
      9       5.8875      2.00000
     10       6.6116      0.00000
     11       7.1986      0.00000
     12       8.1214      0.00000
     13       9.8420      0.00000
     14      11.8369      0.00000

 k-point    28 :       0.2222    0.2222    0.2500
  band No.  band energies     occupation 
      1      -6.3853      2.00000
      2      -5.1661      2.00000
      3      -3.8704      2.00000
      4       1.0341      2.00000
      5       1.8089      2.00000
      6       2.5536      2.00000
      7       3.0795      2.00000
      8       4.7279      2.00000
      9       5.7280      2.00000
     10       6.9396      0.00000
     11       7.7411      0.00000
     12       8.9832      0.00000
     13      10.5583      0.00000
     14      11.1366      0.00000

 k-point    29 :       0.3333    0.2222    0.2500
  band No.  band energies     occupation 
      1      -6.0927      2.00000
      2      -5.0915      2.00000
      3      -4.2031      2.00000
      4       1.0322      2.00000
      5       1.3602      2.00000
      6       2.2038      2.00000
      7       3.4198      2.00000
      8       4.2622      2.00000
      9       5.4807      2.00000
     10       7.1883      0.00000
     11       8.3979      0.00000
     12       8.9476      0.00000
     13      10.6043      0.00000
     14      11.7408      0.00000

 k-point    30 :       0.4444    0.2222    0.2500
  band No.  band energies     occupation 
      1      -6.0772      2.00000
      2      -5.1548      2.00000
      3      -4.1360      2.00000
      4       0.8557      2.00000
      5       1.4584      2.00000
      6       2.2228      2.00000
      7       3.3249      2.00000
      8       4.6634      2.00000
      9       5.2843      2.00000
     10       7.3689      0.00000
     11       8.0782      0.00000
     12       8.8458      0.00000
     13      10.5022      0.00000
     14      12.0014      0.00000

 k-point    31 :       0.3333    0.3333    0.2500
  band No.  band energies     occupation 
      1      -5.9627      2.00000
      2      -5.0930      2.00000
      3      -4.3032      2.00000
      4       0.9887      2.00000
      5       1.3591      2.00000
      6       1.7888      2.00000
      7       3.6598      2.00000
      8       4.5367      2.00000
      9       4.8982      2.00000
     10       7.9566      0.00000
     11       8.4178      0.00000
     12       8.5112      0.00000
     13      11.4335      0.00000
     14      11.7163      0.00000

 k-point    32 :       0.0000    0.0000    0.5000
  band No.  band energies     occupation 
      1      -6.6141      2.00000
      2      -6.6141      2.00000
      3      -2.1202      2.00000
      4       2.2661      2.00000
      5       3.4562      2.00000
      6       3.4562      2.00000
      7       4.8296      2.00000
      8       5.1707      2.00000
      9       5.1707      2.00000
     10       6.4556      0.00000
     11       6.4556      0.00000
     12       6.4695      0.00000
     13      10.0775      0.00000
     14      11.2538      0.00000

 k-point    33 :       0.1111    0.0000    0.5000
  band No.  band energies     occupation 
      1      -6.5465      2.00000
      2      -6.5309      2.00000
      3      -2.3109      2.00000
      4       2.2372      2.00000
      5       3.2825      2.00000
      6       3.3945      2.00000
      7       4.2169      2.00000
      8       4.6747      2.00000
      9       4.9057      2.00000
     10       6.7505      0.00000
     11       6.9647      0.00000
     12       7.4523      0.00000
     13      10.3108      0.00000
     14      10.9734      0.00000

 k-point    34 :       0.2222    0.0000    0.5000
  band No.  band energies     occupation 
      1      -6.3634      2.00000
      2      -6.2889      2.00000
      3      -2.8060      2.00000
      4       1.8671      2.00000
      5       2.6862      2.00000
      6       3.1194      2.00000
      7       4.0182      2.00000
      8       4.2011      2.00000
      9       4.6284      2.00000
     10       7.3184      0.00000
     11       7.7578      0.00000
     12       8.2949      0.00000
     13      10.4336      0.00000
     14      11.3115      0.00000

 k-point    35 :       0.3333   -0.0000    0.5000
  band No.  band energies     occupation 
      1      -6.1295      2.00000
      2      -5.9226      2.00000
      3      -3.4342      2.00000
      4       1.0089      2.00000
      5       2.4925      2.00000
      6       2.8208      2.00000
      7       3.7552      2.00000
      8       4.0056      2.00000
      9       4.9865      2.00000
     10       7.6705      0.00000
     11       8.0555      0.00000
     12       8.3907      0.00000
     13      10.4603      0.00000
     14      11.6445      0.00000

 k-point    36 :       0.4444    0.0000    0.5000
  band No.  band energies     occupation 
      1      -5.9571      2.00000
      2      -5.5574      2.00000
      3      -3.9586      2.00000
      4       0.4396      2.00000
      5       2.4842      2.00000
      6       2.5959      2.00000
      7       3.5696      2.00000
      8       3.8746      2.00000
      9       5.7287      2.00000
     10       7.0105      0.00000
     11       8.1009      0.00000
     12       8.6664      0.00000
     13      10.5888      0.00000
     14      11.2605      0.00000

 k-point    37 :       0.1111    0.1111    0.5000
  band No.  band energies     occupation 
      1      -6.4166      2.00000
      2      -6.3724      2.00000
      3      -2.6504      2.00000
      4       2.0734      2.00000
      5       2.9017      2.00000
      6       3.0038      2.00000
      7       3.9493      2.00000
      8       4.1459      2.00000
      9       5.2406      2.00000
     10       6.6054      0.00000
     11       7.9728      0.00000
     12       8.0602      0.00000
     13      10.7282      0.00000
     14      10.7285      0.00000

 k-point    38 :       0.2222    0.1111    0.5000
  band No.  band energies     occupation 
      1      -6.1946      2.00000
      2      -6.0774      2.00000
      3      -3.1988      2.00000
      4       1.4637      2.00000
      5       2.2909      2.00000
      6       2.5071      2.00000
      7       3.9715      2.00000
      8       4.4131      2.00000
      9       5.1537      2.00000
     10       7.0420      0.00000
     11       8.2461      0.00000
     12       8.3745      0.00000
     13      10.5659      0.00000
     14      11.4773      0.00000

 k-point    39 :       0.3333    0.1111    0.5000
  band No.  band energies     occupation 
      1      -5.9737      2.00000
      2      -5.7073      2.00000
      3      -3.7715      2.00000
      4       0.7263      2.00000
      5       2.0215      2.00000
      6       2.1874      2.00000
      7       4.0893      2.00000
      8       4.5426      2.00000
      9       5.4056      2.00000
     10       7.3590      0.00000
     11       7.7835      0.00000
     12       8.4352      0.00000
     13      10.6333      0.00000
     14      11.6298      0.00000

 k-point    40 :       0.4444    0.1111    0.5000
  band No.  band energies     occupation 
      1      -5.8779      2.00000
      2      -5.4896      2.00000
      3      -4.0649      2.00000
      4       0.4336      2.00000
      5       1.9510      2.00000
      6       2.0624      2.00000
      7       4.2509      2.00000
      8       4.3426      2.00000
      9       5.9895      2.00000
     10       6.7798      0.00000
     11       7.9122      0.00000
     12       8.4048      0.00000
     13      10.7798      0.00000
     14      11.2977      0.00000

 k-point    41 :       0.2222    0.2222    0.5000
  band No.  band energies     occupation 
      1      -5.9525      2.00000
      2      -5.7983      2.00000
      3      -3.6777      2.00000
      4       1.1013      2.00000
      5       1.5239      2.00000
      6       1.8964      2.00000
      7       4.5061      2.00000
      8       4.8494      2.00000
      9       5.6608      2.00000
     10       6.8580      0.00000
     11       8.0498      0.00000
     12       8.0768      0.00000
     13      10.9133      0.00000
     14      11.7758      0.00000

 k-point    42 :       0.3333    0.2222    0.5000
  band No.  band energies     occupation 
      1      -5.7623      2.00000
      2      -5.5517      2.00000
      3      -4.0541      2.00000
      4       0.7078      2.00000
      5       1.2927      2.00000
      6       1.4911      2.00000
      7       4.9192      2.00000
      8       5.3041      2.00000
      9       5.8994      2.00000
     10       6.8938      0.00000
     11       7.4353      0.00000
     12       7.8006      0.00000
     13      11.2939      0.00000
     14      11.9317      0.00000

 k-point    43 :       0.3333    0.3333    0.5000
  band No.  band energies     occupation 
      1      -5.5795      2.00000
      2      -5.5795      2.00000
      3      -4.1608      2.00000
      4       0.9295      2.00000
      5       1.0085      2.00000
      6       1.0085      2.00000
      7       5.2895      2.00000
      8       6.1584      1.96880
      9       6.1584      1.96880
     10       6.3004      0.06240
     11       7.2636      0.00000
     12       7.2636      0.00000
     13      12.0895      0.00000
     14      12.5488      0.00000


--------------------------------------------------------------------------------------------------------


 soft charge-density along one line, spin component           1
         0         1         2         3         4         5         6         7         8         9
 total charge-density along one line
 
 pseudopotential strength for first ion, spin component:           1
 51.584  56.125  -0.000  -0.000  -0.044  -0.000  -0.000  -0.064
 56.125  61.069  -0.000  -0.000  -0.048  -0.000  -0.000  -0.070
 -0.000  -0.000  12.703   0.009   0.000  18.311   0.013   0.000
 -0.000  -0.000   0.009  12.718   0.000   0.013  18.331   0.000
 -0.044  -0.048   0.000   0.000  12.718   0.000   0.000  18.331
 -0.000  -0.000  18.311   0.013   0.000  26.403   0.018   0.000
 -0.000  -0.000   0.013  18.331   0.000   0.018  26.433   0.000
 -0.064  -0.070   0.000   0.000  18.331   0.000   0.000  26.433
  0.000   0.000  -0.009   0.000  -0.000  -0.013   0.000  -0.000
  0.014   0.015   0.000  -0.000   0.000   0.000  -0.000   0.000
  0.006   0.007   0.000  -0.000   0.005   0.000  -0.000   0.008
  0.000   0.000   0.000  -0.008  -0.000   0.000  -0.012  -0.000
  0.011   0.012   0.000  -0.000  -0.008   0.000  -0.000  -0.012
 total augmentation occupancy for first ion, spin component:           1
 13.715 -10.068   0.000   0.000   1.905   0.000   0.000  -0.480   0.000  -0.158  -0.093   0.000  -0.117
-10.068   8.655   0.000   0.000  -1.598   0.000   0.000   0.410   0.000   0.142   0.083   0.000   0.104
 -0.000   0.000   2.561   0.188   0.000  -0.511  -0.169  -0.000  -0.048   0.000   0.000  -0.046   0.000
  0.000  -0.000   0.188   2.867   0.000  -0.169  -0.785  -0.000  -0.045   0.000   0.000  -0.107   0.000
  1.905  -1.598   0.000   0.000   2.781   0.000  -0.000  -0.738   0.000  -0.050  -0.013   0.000  -0.048
  0.000   0.000  -0.511  -0.169   0.000   0.186   0.062   0.000   0.011   0.000   0.000   0.016   0.000
  0.000   0.000  -0.169  -0.785  -0.000   0.062   0.286   0.000   0.016   0.000   0.000   0.031   0.000
 -0.480   0.410   0.000  -0.000  -0.738   0.000   0.000   0.260   0.000   0.014   0.003  -0.000   0.011
  0.000   0.000  -0.048  -0.045   0.000   0.011   0.016   0.000   0.010   0.000   0.000   0.011   0.000
 -0.158   0.142   0.000   0.000  -0.050   0.000   0.000   0.014   0.000   0.015   0.003   0.000   0.005
 -0.093   0.083   0.000   0.000  -0.013   0.000   0.000   0.003   0.000   0.003   0.007   0.000  -0.000
  0.000  -0.000  -0.046  -0.107   0.000   0.016   0.031   0.000   0.011   0.000   0.000   0.027   0.000
 -0.117   0.104   0.000   0.000  -0.048   0.000   0.000   0.011   0.000   0.005  -0.000   0.000   0.010


------------------------ aborting loop because EDIFF is reached ----------------------------------------


    CHARGE:  cpu time    0.0252: real time    0.0253
    FORLOC:  cpu time    0.0009: real time    0.0009
    FORNL :  cpu time    0.0955: real time    0.0957
    STRESS:  cpu time    0.2179: real time    0.2185
    FORCOR:  cpu time    0.0183: real time    0.0184
    FORHAR:  cpu time    0.0042: real time    0.0043
    MIXING:  cpu time    0.0006: real time    0.0006
    OFIELD:  cpu time    0.0000: real time    0.0000

  Hirshfeld charges:
            ion         q(e)     
   ------------------------------
      1     Te         -0.000
      2     Te          0.000
      3     Te          0.000

  Tkatchenko/Scheffler method for vdW energy calculation
  ---------------------------------------------------------------------------------------------

  Parameters of vdW forcefield:
            C6ts              R0ts           ALPHAts        RELVOL
            (au)              (au)            (au)                
   ---------------------------------------------------------------
   Te        395.571          4.213         37.629          0.999
   Te        395.571          4.213         37.629          0.999
   Te        395.571          4.213         37.629          0.999

  Number of pair interactions contributing to vdW energy:   31425
  Edisp (eV):   -0.70530
    FORVDW:  cpu time    0.1430: real time    0.1434

  FORCE on cell =-STRESS in cart. coord.  units (eV):
  Direction    XX          YY          ZZ          XY          YZ          ZX
  --------------------------------------------------------------------------------------
  Alpha Z     2.32703     2.32703     2.32703
  Ewald    -237.45765  -237.45765  -205.13010    -0.00000    -0.00000     0.00000
  Hartree    11.03940    11.03940    19.10366     0.00000     0.00000    -0.00000
  E(xc)     -70.37218   -70.37218   -69.94010    -0.00000     0.00000    -0.00000
  Local    -111.43683  -111.43687  -143.86838    -0.00004     0.00000    -0.00000
  n-local   331.87479   332.71956   328.41664    -1.26549    -0.68402    -1.19031
  augment   -81.04923   -81.04919   -79.06907     0.00004    -0.00000     0.00000
  Kinetic   151.69387   158.79183   148.96761    -7.73702     0.17762     1.74728
  Fock        0.00000     0.00000     0.00000     0.00000     0.00000     0.00000
  vdW        -0.71490    -0.71490    -0.90264     0.00000    -0.00000    -0.00000
  -------------------------------------------------------------------------------------
  Total      -0.12435    -0.12435    -0.09536     0.00000     0.00000     0.00000
  in kB      -1.98339    -1.98339    -1.52105     0.00000     0.00000     0.00000
  external pressure =       -1.83 kB  Pullay stress =        0.00 kB


 VOLUME and BASIS-vectors are now :
 -----------------------------------------------------------------------------
  energy-cutoff  :      520.00
  volume of cell :      100.45
      direct lattice vectors                 reciprocal lattice vectors
     4.426969585  0.000000000  0.000000000     0.225888157  0.130416588 -0.000000000
    -2.213484793  3.833868122 -0.000000000    -0.000000000  0.260833176 -0.000000000
     0.000000000  0.000000000  5.918495324    -0.000000000  0.000000000  0.168961864

  length of vectors
     4.426969585  4.426969585  5.918495324     0.260833176  0.260833176  0.168961864


 FORCES acting on ions
    electron-ion (+dipol)            ewald-force                    non-local-force                 convergence-correction
 -----------------------------------------------------------------------------------------------
   -.971E+01 0.112E-04 -.915E-06   0.143E+02 0.161E-05 0.142E-05   -.455E+01 -.447E-19 -.278E-16   0.203E-02 -.402E-07 0.983E-09
   0.485E+01 -.841E+01 -.185E-04   -.713E+01 0.123E+02 -.807E-05   0.227E+01 -.394E+01 0.000E+00   -.101E-02 0.176E-02 -.151E-08
   0.485E+01 0.841E+01 0.191E-04   -.713E+01 -.123E+02 0.665E-05   0.227E+01 0.394E+01 0.000E+00   -.101E-02 -.176E-02 0.516E-09
 -----------------------------------------------------------------------------------------------
   0.259E-04 -.841E-05 -.311E-06   0.888E-15 0.000E+00 0.521E-17   0.000E+00 0.444E-15 -.278E-16   -.820E-08 -.181E-07 -.121E-10
 
 
 POSITION                                       TOTAL-FORCE (eV/Angst)
 -----------------------------------------------------------------------------------
      1.23140      0.00000      1.97283        -0.013361     -0.000000     -0.000000
     -0.61570      1.06642      3.94566         0.006680     -0.011571      0.000000
      1.59779      2.76745      0.00000         0.006680      0.011571      0.000000
 -----------------------------------------------------------------------------------
    total drift:                                0.000026     -0.000008     -0.000000


--------------------------------------------------------------------------------------------------------



  FREE ENERGIE OF THE ION-ELECTRON SYSTEM (eV)
  ---------------------------------------------------
  free  energy   TOTEN  =       -10.11755543 eV

  energy  without entropy=      -10.11749056  energy(sigma->0) =      -10.11752299
 
 d Force = 0.7620887E-04[ 0.520E-04, 0.100E-03]  d Energy = 0.1460481E-03-0.698E-04
 d Force =-0.5518530E-01[-0.554E-01,-0.549E-01]  d Ewald  = 0.1655185E+00-0.221E+00


--------------------------------------------------------------------------------------------------------


    POTLOK:  cpu time    0.0199: real time    0.0200


--------------------------------------------------------------------------------------------------------




--------------------------------------------------------------------------------------------------------


    WAVPRE:  cpu time    0.0037: real time    0.0066
    FEWALD:  cpu time    0.0002: real time    0.0002
    GENKIN:  cpu time    0.0058: real time    0.0058
    ORTHCH:  cpu time    0.0189: real time    0.0190
     LOOP+:  cpu time    1.6031: real time    1.6158


--------------------------------------- Iteration     17(   1)  ---------------------------------------


    POTLOK:  cpu time    0.0178: real time    0.0191
    SETDIJ:  cpu time    0.0024: real time    0.0024
     EDDAV:  cpu time    0.3248: real time    0.3258
       DOS:  cpu time    0.0005: real time    0.0005
    CHARGE:  cpu time    0.0252: real time    0.0252
    MIXING:  cpu time    0.0006: real time    0.0006
    --------------------------------------------
      LOOP:  cpu time    0.3712: real time    0.3737

 eigenvalue-minimisations  :  1228
 total energy-change (2. order) : 0.9713882E-03  (-0.4362188E-03)
 number of electron      18.0000000 magnetization 
 augmentation part       -3.6125583 magnetization 

 Broyden mixing:
  rms(total) = 0.94012E-02    rms(broyden)= 0.94012E-02
  rms(prec ) = 0.10101E-01
  weight for this iteration     100.00

 Free energy of the ion-electron system (eV)
  ---------------------------------------------------
  alpha Z        PSCENC =         2.32950414
  Ewald energy   TEWEN  =      -680.20755826
  -Hartree energ DENC   =       -41.23993242
  -exchange      EXHF   =         0.00000000
  -V(xc)+E(xc)   XCENC  =       -83.93585234
  PAW double counting   =      1535.52568005    -1420.16004402
  entropy T*S    EENTRO =        -0.00005688
  eigenvalues    EBANDS =         8.46266551
  atomic energy  EATOM  =       669.81430600
  Solvation  Ediel_sol  =         0.00000000
  ---------------------------------------------------
  free energy    TOTEN  =        -9.41128822 eV

  energy without entropy =       -9.41123134  energy(sigma->0) =       -9.41125978


--------------------------------------------------------------------------------------------------------




--------------------------------------- Iteration     17(   2)  ---------------------------------------


    POTLOK:  cpu time    0.0177: real time    0.0178
    SETDIJ:  cpu time    0.0023: real time    0.0023
     EDDAV:  cpu time    0.3519: real time    0.3531
       DOS:  cpu time    0.0005: real time    0.0005
    CHARGE:  cpu time    0.0255: real time    0.0256
    MIXING:  cpu time    0.0006: real time    0.0006
    --------------------------------------------
      LOOP:  cpu time    0.3986: real time    0.3999

 eigenvalue-minimisations  :  1390
 total energy-change (2. order) :-0.6815172E-05  (-0.2042057E-04)
 number of electron      18.0000000 magnetization 
 augmentation part       -3.6119576 magnetization 

 Broyden mixing:
  rms(total) = 0.22106E-02    rms(broyden)= 0.22106E-02
  rms(prec ) = 0.33163E-02
  weight for this iteration     100.00

 eigenvalues of (default mixing * dielectric matrix)
  average eigenvalue GAMMA=   0.9980
  0.9980

 Free energy of the ion-electron system (eV)
  ---------------------------------------------------
  alpha Z        PSCENC =         2.32950414
  Ewald energy   TEWEN  =      -680.20755826
  -Hartree energ DENC   =       -41.22078155
  -exchange      EXHF   =         0.00000000
  -V(xc)+E(xc)   XCENC  =       -83.93484756
  PAW double counting   =      1538.47757368    -1423.11264419
  entropy T*S    EENTRO =        -0.00005680
  eigenvalues    EBANDS =         8.44320950
  atomic energy  EATOM  =       669.81430600
  Solvation  Ediel_sol  =         0.00000000
  ---------------------------------------------------
  free energy    TOTEN  =        -9.41129504 eV

  energy without entropy =       -9.41123823  energy(sigma->0) =       -9.41126663


--------------------------------------------------------------------------------------------------------




--------------------------------------- Iteration     17(   3)  ---------------------------------------


    POTLOK:  cpu time    0.0182: real time    0.0182
    SETDIJ:  cpu time    0.0023: real time    0.0023
     EDDAV:  cpu time    0.2524: real time    0.2532
       DOS:  cpu time    0.0005: real time    0.0005
    --------------------------------------------
      LOOP:  cpu time    0.2734: real time    0.2743

 eigenvalue-minimisations  :   812
 total energy-change (2. order) : 0.5487612E-05  (-0.6502422E-06)
 number of electron      18.0000000 magnetization 
 augmentation part       -3.6119576 magnetization 

 Free energy of the ion-electron system (eV)
  ---------------------------------------------------
  alpha Z        PSCENC =         2.32950414
  Ewald energy   TEWEN  =      -680.20755826
  -Hartree energ DENC   =       -41.20848515
  -exchange      EXHF   =         0.00000000
  -V(xc)+E(xc)   XCENC  =       -83.93375725
  PAW double counting   =      1539.15163572    -1423.78722339
  entropy T*S    EENTRO =        -0.00005642
  eigenvalues    EBANDS =         8.43034506
  atomic energy  EATOM  =       669.81430600
  Solvation  Ediel_sol  =         0.00000000
  ---------------------------------------------------
  free energy    TOTEN  =        -9.41128955 eV

  energy without entropy =       -9.41123313  energy(sigma->0) =       -9.41126134


--------------------------------------------------------------------------------------------------------




 average (electrostatic) potential at core
  the test charge radii are     1.1897
  (the norm of the test charge is              1.0000)
       1 -88.8693       2 -88.8693       3 -88.8693
 
 
 
 E-fermi :   6.2518     XC(G=0):  -9.1480     alpha+bet :-10.7168


 k-point     1 :       0.0000    0.0000    0.0000
  band No.  band energies     occupation 
      1      -7.5000      2.00000
      2      -4.1965      2.00000
      3      -4.1965      2.00000
      4       3.1187      2.00000
      5       3.4665      2.00000
      6       3.4665      2.00000
      7       4.4085      2.00000
      8       4.4085      2.00000
      9       5.1200      2.00000
     10       7.1357      0.00000
     11       7.1357      0.00000
     12       7.6983      0.00000
     13      11.1203      0.00000
     14      11.1203      0.00000

 k-point     2 :       0.1111    0.0000    0.0000
  band No.  band energies     occupation 
      1      -7.4110      2.00000
      2      -4.2200      2.00000
      3      -4.1738      2.00000
      4       2.4492      2.00000
      5       2.9874      2.00000
      6       3.2025      2.00000
      7       4.7479      2.00000
      8       4.9929      2.00000
      9       5.4761      2.00000
     10       6.7883      0.00000
     11       7.0479      0.00000
     12       7.5347      0.00000
     13      10.7951      0.00000
     14      11.0730      0.00000

 k-point     3 :       0.2222    0.0000    0.0000
  band No.  band energies     occupation 
      1      -7.1540      2.00000
      2      -4.3384      2.00000
      3      -4.1100      2.00000
      4       1.6278      2.00000
      5       2.3725      2.00000
      6       2.7848      2.00000
      7       4.8839      2.00000
      8       5.1855      2.00000
      9       5.3221      2.00000
     10       6.9010      0.00000
     11       7.1108      0.00000
     12       7.6630      0.00000
     13       9.9742      0.00000
     14      11.3048      0.00000

 k-point     4 :       0.3333   -0.0000    0.0000
  band No.  band energies     occupation 
      1      -6.7698      2.00000
      2      -4.6219      2.00000
      3      -4.0277      2.00000
      4       1.2627      2.00000
      5       1.8969      2.00000
      6       2.4523      2.00000
      7       3.7235      2.00000
      8       5.3105      2.00000
      9       5.3655      2.00000
     10       6.8420      0.00000
     11       7.0053      0.00000
     12       8.8632      0.00000
     13       9.2999      0.00000
     14      12.1102      0.00000

 k-point     5 :       0.4444    0.0000    0.0000
  band No.  band energies     occupation 
      1      -6.3934      2.00000
      2      -4.9692      2.00000
      3      -3.9686      2.00000
      4       1.2804      2.00000
      5       1.7026      2.00000
      6       2.3379      2.00000
      7       2.7507      2.00000
      8       5.2582      2.00000
      9       5.3922      2.00000
     10       6.8401      0.00000
     11       6.8897      0.00000
     12       8.9420      0.00000
     13       9.7415      0.00000
     14      13.2912      0.00000

 k-point     6 :       0.1111    0.1111    0.0000
  band No.  band energies     occupation 
      1      -7.2377      2.00000
      2      -4.2723      2.00000
      3      -4.1506      2.00000
      4       1.9011      2.00000
      5       2.2178      2.00000
      6       3.2964      2.00000
      7       4.4676      2.00000
      8       5.4456      2.00000
      9       5.4535      2.00000
     10       6.7644      0.00000
     11       7.0924      0.00000
     12       7.6290      0.00000
     13      10.5632      0.00000
     14      10.6196      0.00000

 k-point     7 :       0.2222    0.1111    0.0000
  band No.  band energies     occupation 
      1      -6.9142      2.00000
      2      -4.4445      2.00000
      3      -4.1198      2.00000
      4       1.4100      2.00000
      5       1.7770      2.00000
      6       2.9471      2.00000
      7       4.2842      2.00000
      8       4.5917      2.00000
      9       5.1395      2.00000
     10       7.2349      0.00000
     11       7.6458      0.00000
     12       8.1540      0.00000
     13       9.9016      0.00000
     14      10.9478      0.00000

 k-point     8 :       0.3333    0.1111    0.0000
  band No.  band energies     occupation 
      1      -6.5140      2.00000
      2      -4.7688      2.00000
      3      -4.0831      2.00000
      4       1.3037      2.00000
      5       1.6434      2.00000
      6       2.5298      2.00000
      7       3.2475      2.00000
      8       4.5829      2.00000
      9       4.8523      2.00000
     10       7.4058      0.00000
     11       7.6393      0.00000
     12       9.2743      0.00000
     13       9.4562      0.00000
     14      11.9210      0.00000

 k-point     9 :       0.4444    0.1111    0.0000
  band No.  band energies     occupation 
      1      -6.2812      2.00000
      2      -4.9872      2.00000
      3      -4.0666      2.00000
      4       1.3680      2.00000
      5       1.6894      2.00000
      6       2.4968      2.00000
      7       2.5532      2.00000
      8       4.6629      2.00000
      9       4.6836      2.00000
     10       7.4393      0.00000
     11       7.6232      0.00000
     12       9.2944      0.00000
     13       9.7788      0.00000
     14      12.9966      0.00000

 k-point    10 :       0.2222    0.2222    0.0000
  band No.  band energies     occupation 
      1      -6.5634      2.00000
      2      -4.5905      2.00000
      3      -4.2344      2.00000
      4       1.4092      2.00000
      5       1.4846      2.00000
      6       2.9197      2.00000
      7       3.7313      2.00000
      8       4.0771      2.00000
      9       4.0976      2.00000
     10       8.1559      0.00000
     11       8.3906      0.00000
     12       8.5220      0.00000
     13      10.3455      0.00000
     14      10.6468      0.00000

 k-point    11 :       0.3333    0.2222    0.0000
  band No.  band energies     occupation 
      1      -6.2371      2.00000
      2      -4.7978      2.00000
      3      -4.3286      2.00000
      4       1.5184      2.00000
      5       1.6353      2.00000
      6       2.6703      2.00000
      7       2.9899      2.00000
      8       3.7304      2.00000
      9       3.8088      2.00000
     10       8.3840      0.00000
     11       8.6264      0.00000
     12       9.3741      0.00000
     13      10.2515      0.00000
     14      11.6265      0.00000

 k-point    12 :       0.3333    0.3333    0.0000
  band No.  band energies     occupation 
      1      -6.1080      2.00000
      2      -4.6335      2.00000
      3      -4.6335      2.00000
      4       1.7050      2.00000
      5       1.7050      2.00000
      6       2.9685      2.00000
      7       2.9685      2.00000
      8       3.0940      2.00000
      9       3.2550      2.00000
     10       9.0469      0.00000
     11       9.0469      0.00000
     12       9.2663      0.00000
     13      11.0023      0.00000
     14      11.8348      0.00000

 k-point    13 :       0.0000    0.0000    0.2500
  band No.  band energies     occupation 
      1      -7.2744      2.00000
      2      -5.5494      2.00000
      3      -2.8105      2.00000
      4       2.7666      2.00000
      5       3.2291      2.00000
      6       3.6242      2.00000
      7       4.6182      2.00000
      8       4.7382      2.00000
      9       5.1665      2.00000
     10       6.7251      0.00000
     11       6.8030      0.00000
     12       7.1477      0.00000
     13      10.4294      0.00000
     14      11.5240      0.00000

 k-point    14 :       0.1111    0.0000    0.2500
  band No.  band energies     occupation 
      1      -7.1892      2.00000
      2      -5.4939      2.00000
      3      -2.9239      2.00000
      4       2.4325      2.00000
      5       3.1009      2.00000
      6       3.5223      2.00000
      7       4.2842      2.00000
      8       4.7669      2.00000
      9       4.8704      2.00000
     10       6.9665      0.00000
     11       7.2057      0.00000
     12       7.5756      0.00000
     13      10.5179      0.00000
     14      11.5300      0.00000

 k-point    15 :       0.2222    0.0000    0.2500
  band No.  band energies     occupation 
      1      -6.9480      2.00000
      2      -5.3317      2.00000
      3      -3.2874      2.00000
      4       2.0795      2.00000
      5       2.6962      2.00000
      6       3.1792      2.00000
      7       3.6493      2.00000
      8       4.2678      2.00000
      9       4.6990      2.00000
     10       7.5216      0.00000
     11       7.9834      0.00000
     12       8.3728      0.00000
     13      10.8429      0.00000
     14      11.2666      0.00000

 k-point    16 :       0.3333   -0.0000    0.2500
  band No.  band energies     occupation 
      1      -6.5988      2.00000
      2      -5.1203      2.00000
      3      -3.8019      2.00000
      4       1.7398      2.00000
      5       2.1119      2.00000
      6       2.7918      2.00000
      7       3.1683      2.00000
      8       4.2916      2.00000
      9       4.6242      2.00000
     10       7.5701      0.00000
     11       8.1365      0.00000
     12       9.2777      0.00000
     13      10.3223      0.00000
     14      11.7826      0.00000

 k-point    17 :       0.4444    0.0000    0.2500
  band No.  band energies     occupation 
      1      -6.2602      2.00000
      2      -5.0962      2.00000
      3      -4.0803      2.00000
      4       1.0600      2.00000
      5       1.8093      2.00000
      6       2.5079      2.00000
      7       3.6400      2.00000
      8       4.3418      2.00000
      9       4.5871      2.00000
     10       7.4326      0.00000
     11       8.0820      0.00000
     12       9.1079      0.00000
     13       9.8210      0.00000
     14      12.2993      0.00000

 k-point    18 :      -0.4444   -0.0000    0.2500
  band No.  band energies     occupation 
      1      -6.2137      2.00000
      2      -5.2822      2.00000
      3      -3.8575      2.00000
      4       0.6891      2.00000
      5       1.6943      2.00000
      6       2.4699      2.00000
      7       4.4152      2.00000
      8       4.4851      2.00000
      9       4.7306      2.00000
     10       7.2635      0.00000
     11       7.8838      0.00000
     12       8.2978      0.00000
     13       9.5105      0.00000
     14      12.9106      0.00000

 k-point    19 :      -0.3333    0.0000    0.2500
  band No.  band energies     occupation 
      1      -6.5573      2.00000
      2      -5.3242      2.00000
      3      -3.4797      2.00000
      4       0.8871      2.00000
      5       1.7780      2.00000
      6       2.6217      2.00000
      7       4.6953      2.00000
      8       4.7804      2.00000
      9       5.6048      2.00000
     10       6.9417      0.00000
     11       7.3920      0.00000
     12       7.6205      0.00000
     13       9.4244      0.00000
     14      12.8998      0.00000

 k-point    20 :      -0.2222   -0.0000    0.2500
  band No.  band energies     occupation 
      1      -6.9349      2.00000
      2      -5.4001      2.00000
      3      -3.1360      2.00000
      4       1.6379      2.00000
      5       2.0736      2.00000
      6       2.9260      2.00000
      7       4.9693      2.00000
      8       5.0941      2.00000
      9       5.6997      2.00000
     10       6.6747      0.00000
     11       7.0677      0.00000
     12       7.3074      0.00000
     13       9.6642      0.00000
     14      12.2839      0.00000

 k-point    21 :      -0.1111   -0.0000    0.2500
  band No.  band energies     occupation 
      1      -7.1875      2.00000
      2      -5.5024      2.00000
      3      -2.9001      2.00000
      4       2.4707      2.00000
      5       2.7283      2.00000
      6       3.3388      2.00000
      7       4.7591      2.00000
      8       5.0762      2.00000
      9       5.2957      2.00000
     10       6.6038      0.00000
     11       6.6555      0.00000
     12       7.5996      0.00000
     13      10.1941      0.00000
     14      11.5977      0.00000

 k-point    22 :       0.1111    0.1111    0.2500
  band No.  band energies     occupation 
      1      -7.0216      2.00000
      2      -5.4061      2.00000
      3      -3.1139      2.00000
      4       2.0688      2.00000
      5       2.3527      2.00000
      6       3.2022      2.00000
      7       4.2576      2.00000
      8       4.8114      2.00000
      9       5.1983      2.00000
     10       7.0196      0.00000
     11       7.5452      0.00000
     12       7.6910      0.00000
     13      10.2212      0.00000
     14      11.6686      0.00000

 k-point    23 :       0.2222    0.1111    0.2500
  band No.  band energies     occupation 
      1      -6.7213      2.00000
      2      -5.2238      2.00000
      3      -3.5590      2.00000
      4       1.6864      2.00000
      5       2.1299      2.00000
      6       3.0001      2.00000
      7       3.2541      2.00000
      8       4.3098      2.00000
      9       5.3631      2.00000
     10       7.2162      0.00000
     11       7.8941      0.00000
     12       8.8713      0.00000
     13      10.6430      0.00000
     14      11.0637      0.00000

 k-point    24 :       0.3333    0.1111    0.2500
  band No.  band energies     occupation 
      1      -6.3624      2.00000
      2      -5.0676      2.00000
      3      -4.0210      2.00000
      4       1.3690      2.00000
      5       1.6231      2.00000
      6       2.7047      2.00000
      7       3.3035      2.00000
      8       3.9322      2.00000
      9       5.4390      2.00000
     10       7.0648      0.00000
     11       8.2870      0.00000
     12       9.2726      0.00000
     13      10.1987      0.00000
     14      11.8507      0.00000

 k-point    25 :       0.4444    0.1111    0.2500
  band No.  band energies     occupation 
      1      -6.1350      2.00000
      2      -5.1756      2.00000
      3      -4.0650      2.00000
      4       0.8597      2.00000
      5       1.5144      2.00000
      6       2.6047      2.00000
      7       3.5077      2.00000
      8       4.1720      2.00000
      9       5.4870      2.00000
     10       6.9281      0.00000
     11       8.3605      0.00000
     12       8.7183      0.00000
     13       9.9132      0.00000
     14      12.6737      0.00000

 k-point    26 :      -0.4444    0.1111    0.2500
  band No.  band energies     occupation 
      1      -6.3189      2.00000
      2      -5.2647      2.00000
      3      -3.7652      2.00000
      4       0.7562      2.00000
      5       1.6791      2.00000
      6       2.5930      2.00000
      7       3.5623      2.00000
      8       5.0593      2.00000
      9       5.5432      2.00000
     10       6.8123      0.00000
     11       7.7241      0.00000
     12       8.3476      0.00000
     13       9.7960      0.00000
     14      12.5240      0.00000

 k-point    27 :      -0.3333    0.1111    0.2500
  band No.  band energies     occupation 
      1      -6.7051      2.00000
      2      -5.3061      2.00000
      3      -3.4122      2.00000
      4       1.2332      2.00000
      5       1.9514      2.00000
      6       2.7919      2.00000
      7       3.8179      2.00000
      8       5.2676      2.00000
      9       5.9006      2.00000
     10       6.6307      0.00000
     11       7.2180      0.00000
     12       8.1369      0.00000
     13       9.8545      0.00000
     14      11.8474      0.00000

 k-point    28 :       0.2222    0.2222    0.2500
  band No.  band energies     occupation 
      1      -6.3837      2.00000
      2      -5.1589      2.00000
      3      -3.8567      2.00000
      4       1.0391      2.00000
      5       1.8137      2.00000
      6       2.5619      2.00000
      7       3.0911      2.00000
      8       4.7397      2.00000
      9       5.7411      2.00000
     10       6.9607      0.00000
     11       7.7580      0.00000
     12       9.0009      0.00000
     13      10.5700      0.00000
     14      11.1480      0.00000

 k-point    29 :       0.3333    0.2222    0.2500
  band No.  band energies     occupation 
      1      -6.0919      2.00000
      2      -5.0846      2.00000
      3      -4.1890      2.00000
      4       1.0365      2.00000
      5       1.3662      2.00000
      6       2.2120      2.00000
      7       3.4303      2.00000
      8       4.2768      2.00000
      9       5.4943      2.00000
     10       7.2085      0.00000
     11       8.4155      0.00000
     12       8.9694      0.00000
     13      10.6149      0.00000
     14      11.7501      0.00000

 k-point    30 :       0.4444    0.2222    0.2500
  band No.  band energies     occupation 
      1      -6.0767      2.00000
      2      -5.1472      2.00000
      3      -4.1222      2.00000
      4       0.8608      2.00000
      5       1.4636      2.00000
      6       2.2309      2.00000
      7       3.3359      2.00000
      8       4.6772      2.00000
      9       5.2986      2.00000
     10       7.3874      0.00000
     11       8.0997      0.00000
     12       8.8635      0.00000
     13      10.5148      0.00000
     14      12.0092      0.00000

 k-point    31 :       0.3333    0.3333    0.2500
  band No.  band energies     occupation 
      1      -5.9627      2.00000
      2      -5.0858      2.00000
      3      -4.2888      2.00000
      4       0.9924      2.00000
      5       1.3645      2.00000
      6       1.7984      2.00000
      7       3.6690      2.00000
      8       4.5512      2.00000
      9       4.9148      2.00000
     10       7.9762      0.00000
     11       8.4385      0.00000
     12       8.5310      0.00000
     13      11.4403      0.00000
     14      11.7236      0.00000

 k-point    32 :       0.0000    0.0000    0.5000
  band No.  band energies     occupation 
      1      -6.6097      2.00000
      2      -6.6097      2.00000
      3      -2.1007      2.00000
      4       2.2743      2.00000
      5       3.4614      2.00000
      6       3.4614      2.00000
      7       4.8369      2.00000
      8       5.1766      2.00000
      9       5.1766      2.00000
     10       6.4704      0.00000
     11       6.4704      0.00000
     12       6.4854      0.00000
     13      10.0907      0.00000
     14      11.2629      0.00000

 k-point    33 :       0.1111    0.0000    0.5000
  band No.  band energies     occupation 
      1      -6.5421      2.00000
      2      -6.5264      2.00000
      3      -2.2925      2.00000
      4       2.2439      2.00000
      5       3.2876      2.00000
      6       3.3999      2.00000
      7       4.2281      2.00000
      8       4.6829      2.00000
      9       4.9147      2.00000
     10       6.7652      0.00000
     11       6.9780      0.00000
     12       7.4654      0.00000
     13      10.3234      0.00000
     14      10.9830      0.00000

 k-point    34 :       0.2222    0.0000    0.5000
  band No.  band energies     occupation 
      1      -6.3591      2.00000
      2      -6.2845      2.00000
      3      -2.7896      2.00000
      4       1.8704      2.00000
      5       2.6946      2.00000
      6       3.1241      2.00000
      7       4.0300      2.00000
      8       4.2115      2.00000
      9       4.6418      2.00000
     10       7.3326      0.00000
     11       7.7717      0.00000
     12       8.3113      0.00000
     13      10.4474      0.00000
     14      11.3206      0.00000

 k-point    35 :       0.3333   -0.0000    0.5000
  band No.  band energies     occupation 
      1      -6.1254      2.00000
      2      -5.9186      2.00000
      3      -3.4192      2.00000
      4       1.0130      2.00000
      5       2.4994      2.00000
      6       2.8252      2.00000
      7       3.7658      2.00000
      8       4.0181      2.00000
      9       5.0038      2.00000
     10       7.6859      0.00000
     11       8.0756      0.00000
     12       8.4063      0.00000
     13      10.4768      0.00000
     14      11.6576      0.00000

 k-point    36 :       0.4444    0.0000    0.5000
  band No.  band energies     occupation 
      1      -5.9531      2.00000
      2      -5.5546      2.00000
      3      -3.9434      2.00000
      4       0.4444      2.00000
      5       2.4898      2.00000
      6       2.6005      2.00000
      7       3.5806      2.00000
      8       3.8878      2.00000
      9       5.7465      2.00000
     10       7.0319      0.00000
     11       8.1182      0.00000
     12       8.6830      0.00000
     13      10.6048      0.00000
     14      11.2802      0.00000

 k-point    37 :       0.1111    0.1111    0.5000
  band No.  band energies     occupation 
      1      -6.4123      2.00000
      2      -6.3679      2.00000
      3      -2.6334      2.00000
      4       2.0775      2.00000
      5       2.9078      2.00000
      6       3.0095      2.00000
      7       3.9620      2.00000
      8       4.1590      2.00000
      9       5.2476      2.00000
     10       6.6218      0.00000
     11       7.9863      0.00000
     12       8.0750      0.00000
     13      10.7391      0.00000
     14      10.7408      0.00000

 k-point    38 :       0.2222    0.1111    0.5000
  band No.  band energies     occupation 
      1      -6.1905      2.00000
      2      -6.0731      2.00000
      3      -3.1834      2.00000
      4       1.4670      2.00000
      5       2.2978      2.00000
      6       2.5130      2.00000
      7       3.9846      2.00000
      8       4.4273      2.00000
      9       5.1642      2.00000
     10       7.0580      0.00000
     11       8.2635      0.00000
     12       8.3917      0.00000
     13      10.5789      0.00000
     14      11.4878      0.00000

 k-point    39 :       0.3333    0.1111    0.5000
  band No.  band energies     occupation 
      1      -5.9697      2.00000
      2      -5.7038      2.00000
      3      -3.7566      2.00000
      4       0.7308      2.00000
      5       2.0274      2.00000
      6       2.1931      2.00000
      7       4.1019      2.00000
      8       4.5536      2.00000
      9       5.4230      2.00000
     10       7.3772      0.00000
     11       7.8032      0.00000
     12       8.4529      0.00000
     13      10.6476      0.00000
     14      11.6459      0.00000

 k-point    40 :       0.4444    0.1111    0.5000
  band No.  band energies     occupation 
      1      -5.8739      2.00000
      2      -5.4871      2.00000
      3      -4.0494      2.00000
      4       0.4384      2.00000
      5       1.9569      2.00000
      6       2.0679      2.00000
      7       4.2624      2.00000
      8       4.3547      2.00000
      9       6.0066      2.00000
     10       6.8019      0.00000
     11       7.9307      0.00000
     12       8.4226      0.00000
     13      10.7932      0.00000
     14      11.3171      0.00000

 k-point    41 :       0.2222    0.2222    0.5000
  band No.  band energies     occupation 
      1      -5.9486      2.00000
      2      -5.7944      2.00000
      3      -3.6628      2.00000
      4       1.1046      2.00000
      5       1.5308      2.00000
      6       1.9025      2.00000
      7       4.5191      2.00000
      8       4.8658      2.00000
      9       5.6705      2.00000
     10       6.8770      0.00000
     11       8.0684      0.00000
     12       8.0976      0.00000
     13      10.9234      0.00000
     14      11.7869      0.00000

 k-point    42 :       0.3333    0.2222    0.5000
  band No.  band energies     occupation 
      1      -5.7587      2.00000
      2      -5.5487      2.00000
      3      -4.0387      2.00000
      4       0.7125      2.00000
      5       1.2986      2.00000
      6       1.4967      2.00000
      7       4.9310      2.00000
      8       5.3179      2.00000
      9       5.9156      2.00000
     10       6.9127      0.00000
     11       7.4571      0.00000
     12       7.8206      0.00000
     13      11.3046      0.00000
     14      11.9464      0.00000

 k-point    43 :       0.3333    0.3333    0.5000
  band No.  band energies     occupation 
      1      -5.5765      2.00000
      2      -5.5765      2.00000
      3      -4.1450      2.00000
      4       0.9336      2.00000
      5       1.0145      2.00000
      6       1.0145      2.00000
      7       5.2995      2.00000
      8       6.1733      1.97354
      9       6.1733      1.97354
     10       6.3202      0.05292
     11       7.2862      0.00000
     12       7.2862      0.00000
     13      12.0969      0.00000
     14      12.5623      0.00000


--------------------------------------------------------------------------------------------------------


 soft charge-density along one line, spin component           1
         0         1         2         3         4         5         6         7         8         9
 total charge-density along one line
 
 pseudopotential strength for first ion, spin component:           1
 51.580  56.120  -0.000  -0.000  -0.045  -0.000  -0.000  -0.065
 56.120  61.064  -0.000  -0.000  -0.049  -0.000  -0.000  -0.071
 -0.000  -0.000  12.702   0.009   0.000  18.309   0.013   0.000
 -0.000  -0.000   0.009  12.717   0.000   0.013  18.330   0.000
 -0.045  -0.049   0.000   0.000  12.717   0.000   0.000  18.330
 -0.000  -0.000  18.309   0.013   0.000  26.401   0.018   0.000
 -0.000  -0.000   0.013  18.330   0.000   0.018  26.431   0.000
 -0.065  -0.071   0.000   0.000  18.330   0.000   0.000  26.431
  0.000   0.000  -0.009   0.000  -0.000  -0.013   0.000  -0.000
  0.014   0.015   0.000  -0.000   0.000   0.000  -0.000   0.000
  0.006   0.007   0.000  -0.000   0.005   0.000  -0.000   0.008
  0.000   0.000   0.000  -0.008  -0.000   0.000  -0.012  -0.000
  0.011   0.012   0.000  -0.000  -0.009   0.000  -0.000  -0.012
 total augmentation occupancy for first ion, spin component:           1
 13.746 -10.097   0.000   0.000   1.921   0.000  -0.000  -0.485   0.000  -0.159  -0.093   0.000  -0.118
-10.097   8.684   0.000  -0.000  -1.613   0.000  -0.000   0.415   0.000   0.143   0.083   0.000   0.105
  0.000   0.000   2.566   0.191   0.000  -0.513  -0.171   0.000  -0.048   0.000   0.000  -0.046   0.000
 -0.000   0.000   0.191   2.875   0.000  -0.171  -0.789  -0.000  -0.045  -0.000   0.000  -0.108   0.000
  1.921  -1.613   0.000   0.000   2.789   0.000  -0.000  -0.742   0.000  -0.050  -0.013   0.000  -0.048
  0.000   0.000  -0.513  -0.171  -0.000   0.187   0.063   0.000   0.012   0.000   0.000   0.017   0.000
 -0.000  -0.000  -0.171  -0.789  -0.000   0.063   0.287   0.000   0.017   0.000   0.000   0.031   0.000
 -0.485   0.415  -0.000  -0.000  -0.742   0.000   0.000   0.262   0.000   0.015   0.003   0.000   0.012
  0.000   0.000  -0.048  -0.045   0.000   0.012   0.017   0.000   0.010   0.000   0.000   0.011   0.000
 -0.159   0.143   0.000  -0.000  -0.050   0.000   0.000   0.015   0.000   0.015   0.003   0.000   0.005
 -0.093   0.083   0.000  -0.000  -0.013  -0.000   0.000   0.003   0.000   0.003   0.007   0.000  -0.000
  0.000   0.000  -0.046  -0.108   0.000   0.017   0.031   0.000   0.011   0.000   0.000   0.027   0.000
 -0.118   0.105   0.000   0.000  -0.048   0.000   0.000   0.012   0.000   0.005  -0.000   0.000   0.010


------------------------ aborting loop because EDIFF is reached ----------------------------------------


    CHARGE:  cpu time    0.0253: real time    0.0254
    FORLOC:  cpu time    0.0009: real time    0.0009
    FORNL :  cpu time    0.0967: real time    0.0969
    STRESS:  cpu time    0.2180: real time    0.2188
    FORCOR:  cpu time    0.0178: real time    0.0179
    FORHAR:  cpu time    0.0039: real time    0.0039
    MIXING:  cpu time    0.0006: real time    0.0006
    OFIELD:  cpu time    0.0010: real time    0.0000

  Hirshfeld charges:
            ion         q(e)     
   ------------------------------
      1     Te         -0.000
      2     Te         -0.000
      3     Te          0.000

  Tkatchenko/Scheffler method for vdW energy calculation
  ---------------------------------------------------------------------------------------------

  Parameters of vdW forcefield:
            C6ts              R0ts           ALPHAts        RELVOL
            (au)              (au)            (au)                
   ---------------------------------------------------------------
   Te        395.455          4.213         37.624          0.999
   Te        395.455          4.213         37.624          0.999
   Te        395.455          4.213         37.624          0.999

  Number of pair interactions contributing to vdW energy:   31455
  Edisp (eV):   -0.70620
    FORVDW:  cpu time    0.1426: real time    0.1440

  FORCE on cell =-STRESS in cart. coord.  units (eV):
  Direction    XX          YY          ZZ          XY          YZ          ZX
  --------------------------------------------------------------------------------------
  Alpha Z     2.32950     2.32950     2.32950
  Ewald    -237.54038  -237.54037  -205.12742    -0.00000    -0.00000     0.00000
  Hartree    11.03634    11.03634    19.11651     0.00000     0.00000    -0.00000
  E(xc)     -70.38614   -70.38614   -69.95526    -0.00000     0.00000    -0.00000
  Local    -111.40528  -111.40533  -143.91335    -0.00004     0.00000    -0.00000
  n-local   331.95093   332.79890   328.50146    -1.26177    -0.68335    -1.18677
  augment   -81.05368   -81.05363   -79.07278     0.00004     0.00000     0.00000
  Kinetic   151.73686   158.84539   149.02215    -7.75444     0.18728     1.76130
  Fock        0.00000     0.00000     0.00000     0.00000     0.00000     0.00000
  vdW        -0.71588    -0.71588    -0.90038     0.00000    -0.00000    -0.00000
  -------------------------------------------------------------------------------------
  Total      -0.06947    -0.06947     0.00043     0.00000     0.00000    -0.00000
  in kB      -1.10914    -1.10914     0.00684     0.00000     0.00000    -0.00000
  external pressure =       -0.74 kB  Pullay stress =        0.00 kB


 VOLUME and BASIS-vectors are now :
 -----------------------------------------------------------------------------
  energy-cutoff  :      520.00
  volume of cell :      100.34
      direct lattice vectors                 reciprocal lattice vectors
     4.427009936  0.000000000  0.000000000     0.225886098  0.130415399 -0.000000000
    -2.213504968  3.833903068 -0.000000000    -0.000000000  0.260830799  0.000000000
     0.000000000 -0.000000000  5.912094860    -0.000000000  0.000000000  0.169144783

  length of vectors
     4.427009936  4.427009936  5.912094860     0.260830799  0.260830799  0.169144783


 FORCES acting on ions
    electron-ion (+dipol)            ewald-force                    non-local-force                 convergence-correction
 -----------------------------------------------------------------------------------------------
   -.981E+01 0.112E-04 -.926E-06   0.144E+02 0.161E-05 0.143E-05   -.457E+01 0.264E-19 0.555E-16   0.140E-02 -.354E-07 0.824E-09
   0.491E+01 -.850E+01 -.185E-04   -.720E+01 0.125E+02 -.807E-05   0.228E+01 -.396E+01 -.555E-16   -.699E-03 0.121E-02 -.106E-08
   0.491E+01 0.850E+01 0.191E-04   -.720E+01 -.125E+02 0.665E-05   0.228E+01 0.396E+01 0.000E+00   -.699E-03 -.121E-02 0.220E-09
 -----------------------------------------------------------------------------------------------
   0.258E-04 -.839E-05 -.310E-06   0.000E+00 -.178E-14 0.348E-17   -.444E-15 0.444E-15 0.000E+00   -.743E-08 -.160E-07 -.114E-10
 
 
 POSITION                                       TOTAL-FORCE (eV/Angst)
 -----------------------------------------------------------------------------------
      1.23013     -0.00000      1.97070        -0.001676      0.000000     -0.000000
     -0.61506      1.06532      3.94140         0.000838     -0.001452      0.000000
      1.59844      2.76858      0.00000         0.000838      0.001452      0.000000
 -----------------------------------------------------------------------------------
    total drift:                                0.000026     -0.000008     -0.000000


--------------------------------------------------------------------------------------------------------



  FREE ENERGIE OF THE ION-ELECTRON SYSTEM (eV)
  ---------------------------------------------------
  free  energy   TOTEN  =       -10.11749275 eV

  energy  without entropy=      -10.11743633  energy(sigma->0) =      -10.11746454
 
 d Force = 0.2880235E-04[ 0.642E-05, 0.512E-04]  d Energy =-0.6267919E-04 0.915E-04
 d Force =-0.5487037E-01[-0.551E-01,-0.546E-01]  d Ewald  = 0.1627538E+00-0.218E+00


--------------------------------------------------------------------------------------------------------


    POTLOK:  cpu time    0.0197: real time    0.0197


--------------------------------------------------------------------------------------------------------




--------------------------------------------------------------------------------------------------------


    WAVPRE:  cpu time    0.0038: real time    0.0065
    FEWALD:  cpu time    0.0001: real time    0.0001
    GENKIN:  cpu time    0.0058: real time    0.0059
    ORTHCH:  cpu time    0.0190: real time    0.0191
     LOOP+:  cpu time    1.6077: real time    1.6203


--------------------------------------- Iteration     18(   1)  ---------------------------------------


    POTLOK:  cpu time    0.0186: real time    0.0199
    SETDIJ:  cpu time    0.0025: real time    0.0025
     EDDAV:  cpu time    0.3270: real time    0.3281
       DOS:  cpu time    0.0005: real time    0.0005
    CHARGE:  cpu time    0.0252: real time    0.0253
    MIXING:  cpu time    0.0010: real time    0.0006
    --------------------------------------------
      LOOP:  cpu time    0.3748: real time    0.3768

 eigenvalue-minimisations  :  1240
 total energy-change (2. order) : 0.7396076E-03  (-0.2405633E-02)
 number of electron      17.9999999 magnetization 
 augmentation part       -3.6103814 magnetization 

 Broyden mixing:
  rms(total) = 0.11673E-01    rms(broyden)= 0.11673E-01
  rms(prec ) = 0.17724E-01
  weight for this iteration     100.00

 Free energy of the ion-electron system (eV)
  ---------------------------------------------------
  alpha Z        PSCENC =         2.33417032
  Ewald energy   TEWEN  =      -680.81149018
  -Hartree energ DENC   =       -41.14712399
  -exchange      EXHF   =         0.00000000
  -V(xc)+E(xc)   XCENC  =       -83.92805374
  PAW double counting   =      1540.12547136    -1424.76197138
  entropy T*S    EENTRO =        -0.00007998
  eigenvalues    EBANDS =         8.96421615
  atomic energy  EATOM  =       669.81430600
  Solvation  Ediel_sol  =         0.00000000
  ---------------------------------------------------
  free energy    TOTEN  =        -9.41055543 eV

  energy without entropy =       -9.41047545  energy(sigma->0) =       -9.41051544


--------------------------------------------------------------------------------------------------------




--------------------------------------- Iteration     18(   2)  ---------------------------------------


    POTLOK:  cpu time    0.0169: real time    0.0174
    SETDIJ:  cpu time    0.0024: real time    0.0023
     EDDAV:  cpu time    0.3376: real time    0.3387
       DOS:  cpu time    0.0005: real time    0.0005
    CHARGE:  cpu time    0.0252: real time    0.0254
    MIXING:  cpu time    0.0006: real time    0.0006
    --------------------------------------------
      LOOP:  cpu time    0.3832: real time    0.3848

 eigenvalue-minimisations  :  1306
 total energy-change (2. order) : 0.1171318E-03  (-0.9027063E-04)
 number of electron      17.9999999 magnetization 
 augmentation part       -3.6106647 magnetization 

 Broyden mixing:
  rms(total) = 0.47047E-02    rms(broyden)= 0.47047E-02
  rms(prec ) = 0.91154E-02
  weight for this iteration     100.00

 eigenvalues of (default mixing * dielectric matrix)
  average eigenvalue GAMMA=   1.0425
  1.0425

 Free energy of the ion-electron system (eV)
  ---------------------------------------------------
  alpha Z        PSCENC =         2.33417032
  Ewald energy   TEWEN  =      -680.81149018
  -Hartree energ DENC   =       -41.06528906
  -exchange      EXHF   =         0.00000000
  -V(xc)+E(xc)   XCENC  =       -83.92743090
  PAW double counting   =      1539.02078908    -1423.65616041
  entropy T*S    EENTRO =        -0.00008284
  eigenvalues    EBANDS =         8.88074969
  atomic energy  EATOM  =       669.81430600
  Solvation  Ediel_sol  =         0.00000000
  ---------------------------------------------------
  free energy    TOTEN  =        -9.41043830 eV

  energy without entropy =       -9.41035546  energy(sigma->0) =       -9.41039688


--------------------------------------------------------------------------------------------------------




--------------------------------------- Iteration     18(   3)  ---------------------------------------


    POTLOK:  cpu time    0.0173: real time    0.0174
    SETDIJ:  cpu time    0.0023: real time    0.0023
     EDDAV:  cpu time    0.3659: real time    0.3671
       DOS:  cpu time    0.0006: real time    0.0006
    CHARGE:  cpu time    0.0255: real time    0.0255
    MIXING:  cpu time    0.0007: real time    0.0007
    --------------------------------------------
      LOOP:  cpu time    0.4122: real time    0.4136

 eigenvalue-minimisations  :  1462
 total energy-change (2. order) : 0.7691843E-04  (-0.1042941E-04)
 number of electron      17.9999999 magnetization 
 augmentation part       -3.6118292 magnetization 

 Broyden mixing:
  rms(total) = 0.33896E-02    rms(broyden)= 0.33896E-02
  rms(prec ) = 0.46093E-02
  weight for this iteration     100.00

 eigenvalues of (default mixing * dielectric matrix)
  average eigenvalue GAMMA=   1.0067
  1.0067  1.0067

 Free energy of the ion-electron system (eV)
  ---------------------------------------------------
  alpha Z        PSCENC =         2.33417032
  Ewald energy   TEWEN  =      -680.81149018
  -Hartree energ DENC   =       -41.00274094
  -exchange      EXHF   =         0.00000000
  -V(xc)+E(xc)   XCENC  =       -83.92597464
  PAW double counting   =      1539.79578380    -1424.43079708
  entropy T*S    EENTRO =        -0.00008485
  eigenvalues    EBANDS =         8.81646620
  atomic energy  EATOM  =       669.81430600
  Solvation  Ediel_sol  =         0.00000000
  ---------------------------------------------------
  free energy    TOTEN  =        -9.41036138 eV

  energy without entropy =       -9.41027652  energy(sigma->0) =       -9.41031895


--------------------------------------------------------------------------------------------------------




--------------------------------------- Iteration     18(   4)  ---------------------------------------


    POTLOK:  cpu time    0.0175: real time    0.0175
    SETDIJ:  cpu time    0.0023: real time    0.0023
     EDDAV:  cpu time    0.2325: real time    0.2333
       DOS:  cpu time    0.0005: real time    0.0005
    --------------------------------------------
      LOOP:  cpu time    0.2529: real time    0.2537

 eigenvalue-minimisations  :   704
 total energy-change (2. order) : 0.9734949E-05  (-0.1659469E-05)
 number of electron      17.9999999 magnetization 
 augmentation part       -3.6118292 magnetization 

 Free energy of the ion-electron system (eV)
  ---------------------------------------------------
  alpha Z        PSCENC =         2.33417032
  Ewald energy   TEWEN  =      -680.81149018
  -Hartree energ DENC   =       -40.97864095
  -exchange      EXHF   =         0.00000000
  -V(xc)+E(xc)   XCENC  =       -83.92528740
  PAW double counting   =      1540.57180926    -1425.20734730
  entropy T*S    EENTRO =        -0.00008511
  eigenvalues    EBANDS =         8.79221372
  atomic energy  EATOM  =       669.81430600
  Solvation  Ediel_sol  =         0.00000000
  ---------------------------------------------------
  free energy    TOTEN  =        -9.41035164 eV

  energy without entropy =       -9.41026653  energy(sigma->0) =       -9.41030909


--------------------------------------------------------------------------------------------------------




 average (electrostatic) potential at core
  the test charge radii are     1.1897
  (the norm of the test charge is              1.0000)
       1 -88.8493       2 -88.8493       3 -88.8493
 
 
 
 E-fermi :   6.2671     XC(G=0):  -9.1580     alpha+bet :-10.7383


 k-point     1 :       0.0000    0.0000    0.0000
  band No.  band energies     occupation 
      1      -7.4836      2.00000
      2      -4.1819      2.00000
      3      -4.1819      2.00000
      4       3.1571      2.00000
      5       3.5013      2.00000
      6       3.5013      2.00000
      7       4.4365      2.00000
      8       4.4365      2.00000
      9       5.1426      2.00000
     10       7.1582      0.00000
     11       7.1582      0.00000
     12       7.7361      0.00000
     13      11.1392      0.00000
     14      11.1392      0.00000

 k-point     2 :       0.1111    0.0000    0.0000
  band No.  band energies     occupation 
      1      -7.3940      2.00000
      2      -4.2043      2.00000
      3      -4.1585      2.00000
      4       2.4770      2.00000
      5       3.0163      2.00000
      6       3.2351      2.00000
      7       4.7800      2.00000
      8       5.0228      2.00000
      9       5.5074      2.00000
     10       6.8067      0.00000
     11       7.0692      0.00000
     12       7.5678      0.00000
     13      10.8138      0.00000
     14      11.0953      0.00000

 k-point     3 :       0.2222    0.0000    0.0000
  band No.  band energies     occupation 
      1      -7.1351      2.00000
      2      -4.3205      2.00000
      3      -4.0927      2.00000
      4       1.6462      2.00000
      5       2.3937      2.00000
      6       2.8141      2.00000
      7       4.9079      2.00000
      8       5.2157      2.00000
      9       5.3522      2.00000
     10       6.9201      0.00000
     11       7.1353      0.00000
     12       7.6900      0.00000
     13       9.9906      0.00000
     14      11.3366      0.00000

 k-point     4 :       0.3333   -0.0000    0.0000
  band No.  band energies     occupation 
      1      -6.7476      2.00000
      2      -4.6030      2.00000
      3      -4.0079      2.00000
      4       1.2758      2.00000
      5       1.9120      2.00000
      6       2.4781      2.00000
      7       3.7376      2.00000
      8       5.3426      2.00000
      9       5.3935      2.00000
     10       6.8583      0.00000
     11       7.0257      0.00000
     12       8.8885      0.00000
     13       9.3141      0.00000
     14      12.1535      0.00000

 k-point     5 :       0.4444    0.0000    0.0000
  band No.  band energies     occupation 
      1      -6.3664      2.00000
      2      -4.9530      2.00000
      3      -3.9468      2.00000
      4       1.2928      2.00000
      5       1.7173      2.00000
      6       2.3574      2.00000
      7       2.7603      2.00000
      8       5.2886      2.00000
      9       5.4205      2.00000
     10       6.8555      0.00000
     11       6.9066      0.00000
     12       8.9548      0.00000
     13       9.7632      0.00000
     14      13.3420      0.00000

 k-point     6 :       0.1111    0.1111    0.0000
  band No.  band energies     occupation 
      1      -7.2195      2.00000
      2      -4.2548      2.00000
      3      -4.1341      2.00000
      4       1.9229      2.00000
      5       2.2396      2.00000
      6       3.3296      2.00000
      7       4.4918      2.00000
      8       5.4760      2.00000
      9       5.4835      2.00000
     10       6.7857      0.00000
     11       7.1125      0.00000
     12       7.6600      0.00000
     13      10.5862      0.00000
     14      10.6397      0.00000

 k-point     7 :       0.2222    0.1111    0.0000
  band No.  band energies     occupation 
      1      -6.8933      2.00000
      2      -4.4252      2.00000
      3      -4.1011      2.00000
      4       1.4251      2.00000
      5       1.7945      2.00000
      6       2.9744      2.00000
      7       4.3040      2.00000
      8       4.6131      2.00000
      9       5.1645      2.00000
     10       7.2571      0.00000
     11       7.6742      0.00000
     12       8.1806      0.00000
     13       9.9205      0.00000
     14      10.9774      0.00000

 k-point     8 :       0.3333    0.1111    0.0000
  band No.  band energies     occupation 
      1      -6.4889      2.00000
      2      -4.7506      2.00000
      3      -4.0624      2.00000
      4       1.3166      2.00000
      5       1.6582      2.00000
      6       2.5508      2.00000
      7       3.2591      2.00000
      8       4.6045      2.00000
      9       4.8746      2.00000
     10       7.4282      0.00000
     11       7.6648      0.00000
     12       9.2979      0.00000
     13       9.4736      0.00000
     14      11.9611      0.00000

 k-point     9 :       0.4444    0.1111    0.0000
  band No.  band energies     occupation 
      1      -6.2525      2.00000
      2      -4.9717      2.00000
      3      -4.0450      2.00000
      4       1.3811      2.00000
      5       1.7070      2.00000
      6       2.5154      2.00000
      7       2.5584      2.00000
      8       4.6853      2.00000
      9       4.7037      2.00000
     10       7.4627      0.00000
     11       7.6464      0.00000
     12       9.3102      0.00000
     13       9.8012      0.00000
     14      13.0468      0.00000

 k-point    10 :       0.2222    0.2222    0.0000
  band No.  band energies     occupation 
      1      -6.5391      2.00000
      2      -4.5706      2.00000
      3      -4.2151      2.00000
      4       1.4225      2.00000
      5       1.4998      2.00000
      6       2.9434      2.00000
      7       3.7477      2.00000
      8       4.0927      2.00000
      9       4.1128      2.00000
     10       8.1865      0.00000
     11       8.4169      0.00000
     12       8.5481      0.00000
     13      10.3738      0.00000
     14      10.6708      0.00000

 k-point    11 :       0.3333    0.2222    0.0000
  band No.  band energies     occupation 
      1      -6.2081      2.00000
      2      -4.7804      2.00000
      3      -4.3088      2.00000
      4       1.5335      2.00000
      5       1.6523      2.00000
      6       2.6853      2.00000
      7       3.0004      2.00000
      8       3.7440      2.00000
      9       3.8230      2.00000
     10       8.4138      0.00000
     11       8.6539      0.00000
     12       9.4000      0.00000
     13      10.2762      0.00000
     14      11.6632      0.00000

 k-point    12 :       0.3333    0.3333    0.0000
  band No.  band energies     occupation 
      1      -6.0768      2.00000
      2      -4.6157      2.00000
      3      -4.6157      2.00000
      4       1.7238      2.00000
      5       1.7238      2.00000
      6       2.9799      2.00000
      7       2.9799      2.00000
      8       3.1080      2.00000
      9       3.2596      2.00000
     10       9.0765      0.00000
     11       9.0765      0.00000
     12       9.2942      0.00000
     13      11.0426      0.00000
     14      11.8672      0.00000

 k-point    13 :       0.0000    0.0000    0.2500
  band No.  band energies     occupation 
      1      -7.2584      2.00000
      2      -5.5352      2.00000
      3      -2.7922      2.00000
      4       2.7870      2.00000
      5       3.2658      2.00000
      6       3.6577      2.00000
      7       4.6461      2.00000
      8       4.7771      2.00000
      9       5.1928      2.00000
     10       6.7501      0.00000
     11       6.8253      0.00000
     12       7.1855      0.00000
     13      10.4387      0.00000
     14      11.5546      0.00000

 k-point    14 :       0.1111    0.0000    0.2500
  band No.  band energies     occupation 
      1      -7.1726      2.00000
      2      -5.4790      2.00000
      3      -2.9047      2.00000
      4       2.4521      2.00000
      5       3.1362      2.00000
      6       3.5562      2.00000
      7       4.3072      2.00000
      8       4.7904      2.00000
      9       4.9013      2.00000
     10       6.9960      0.00000
     11       7.2308      0.00000
     12       7.6129      0.00000
     13      10.5347      0.00000
     14      11.5590      0.00000

 k-point    15 :       0.2222    0.0000    0.2500
  band No.  band energies     occupation 
      1      -6.9296      2.00000
      2      -5.3145      2.00000
      3      -3.2676      2.00000
      4       2.0981      2.00000
      5       2.7277      2.00000
      6       3.2054      2.00000
      7       3.6684      2.00000
      8       4.2894      2.00000
      9       4.7192      2.00000
     10       7.5452      0.00000
     11       8.0175      0.00000
     12       8.4079      0.00000
     13      10.8678      0.00000
     14      11.2885      0.00000

 k-point    16 :       0.3333   -0.0000    0.2500
  band No.  band energies     occupation 
      1      -6.5773      2.00000
      2      -5.0991      2.00000
      3      -3.7844      2.00000
      4       1.7596      2.00000
      5       2.1345      2.00000
      6       2.8164      2.00000
      7       3.1777      2.00000
      8       4.3133      2.00000
      9       4.6424      2.00000
     10       7.5919      0.00000
     11       8.1646      0.00000
     12       9.3041      0.00000
     13      10.3339      0.00000
     14      11.8034      0.00000

 k-point    17 :       0.4444    0.0000    0.2500
  band No.  band energies     occupation 
      1      -6.2348      2.00000
      2      -5.0735      2.00000
      3      -4.0648      2.00000
      4       1.0738      2.00000
      5       1.8276      2.00000
      6       2.5331      2.00000
      7       3.6474      2.00000
      8       4.3645      2.00000
      9       4.6048      2.00000
     10       7.4539      0.00000
     11       8.1064      0.00000
     12       9.1220      0.00000
     13       9.8297      0.00000
     14      12.3091      0.00000

 k-point    18 :      -0.4444   -0.0000    0.2500
  band No.  band energies     occupation 
      1      -6.1870      2.00000
      2      -5.2635      2.00000
      3      -3.8382      2.00000
      4       0.7006      2.00000
      5       1.7085      2.00000
      6       2.4958      2.00000
      7       4.4327      2.00000
      8       4.5097      2.00000
      9       4.7429      2.00000
     10       7.2858      0.00000
     11       7.9074      0.00000
     12       8.3091      0.00000
     13       9.5203      0.00000
     14      12.9236      0.00000

 k-point    19 :      -0.3333    0.0000    0.2500
  band No.  band energies     occupation 
      1      -6.5352      2.00000
      2      -5.3058      2.00000
      3      -3.4583      2.00000
      4       0.9017      2.00000
      5       1.7905      2.00000
      6       2.6486      2.00000
      7       4.7201      2.00000
      8       4.8093      2.00000
      9       5.6192      2.00000
     10       6.9622      0.00000
     11       7.4074      0.00000
     12       7.6474      0.00000
     13       9.4381      0.00000
     14      12.9319      0.00000

 k-point    20 :      -0.2222   -0.0000    0.2500
  band No.  band energies     occupation 
      1      -6.9164      2.00000
      2      -5.3834      2.00000
      3      -3.1150      2.00000
      4       1.6598      2.00000
      5       2.0880      2.00000
      6       2.9546      2.00000
      7       4.9989      2.00000
      8       5.1263      2.00000
      9       5.7243      2.00000
     10       6.6947      0.00000
     11       7.0969      0.00000
     12       7.3272      0.00000
     13       9.6820      0.00000
     14      12.3041      0.00000

 k-point    21 :      -0.1111   -0.0000    0.2500
  band No.  band energies     occupation 
      1      -7.1709      2.00000
      2      -5.4875      2.00000
      3      -2.8808      2.00000
      4       2.4897      2.00000
      5       2.7593      2.00000
      6       3.3699      2.00000
      7       4.7830      2.00000
      8       5.1126      2.00000
      9       5.3305      2.00000
     10       6.6289      0.00000
     11       6.6783      0.00000
     12       7.6306      0.00000
     13      10.2113      0.00000
     14      11.6163      0.00000

 k-point    22 :       0.1111    0.1111    0.2500
  band No.  band energies     occupation 
      1      -7.0038      2.00000
      2      -5.3898      2.00000
      3      -3.0937      2.00000
      4       2.0906      2.00000
      5       2.3739      2.00000
      6       3.2314      2.00000
      7       4.2816      2.00000
      8       4.8409      2.00000
      9       5.2217      2.00000
     10       7.0436      0.00000
     11       7.5745      0.00000
     12       7.7227      0.00000
     13      10.2434      0.00000
     14      11.6907      0.00000

 k-point    23 :       0.2222    0.1111    0.2500
  band No.  band energies     occupation 
      1      -6.7009      2.00000
      2      -5.2046      2.00000
      3      -3.5396      2.00000
      4       1.7083      2.00000
      5       2.1494      2.00000
      6       3.0198      2.00000
      7       3.2728      2.00000
      8       4.3319      2.00000
      9       5.3856      2.00000
     10       7.2329      0.00000
     11       7.9255      0.00000
     12       8.9039      0.00000
     13      10.6659      0.00000
     14      11.0852      0.00000

 k-point    24 :       0.3333    0.1111    0.2500
  band No.  band energies     occupation 
      1      -6.3384      2.00000
      2      -5.0446      2.00000
      3      -4.0050      2.00000
      4       1.3877      2.00000
      5       1.6404      2.00000
      6       2.7255      2.00000
      7       3.3161      2.00000
      8       3.9469      2.00000
      9       5.4634      2.00000
     10       7.0793      0.00000
     11       8.3160      0.00000
     12       9.2934      0.00000
     13      10.2129      0.00000
     14      11.8790      0.00000

 k-point    25 :       0.4444    0.1111    0.2500
  band No.  band energies     occupation 
      1      -6.1075      2.00000
      2      -5.1549      2.00000
      3      -4.0481      2.00000
      4       0.8725      2.00000
      5       1.5310      2.00000
      6       2.6288      2.00000
      7       3.5226      2.00000
      8       4.1800      2.00000
      9       5.5138      2.00000
     10       6.9432      0.00000
     11       8.3865      0.00000
     12       8.7323      0.00000
     13       9.9265      0.00000
     14      12.6922      0.00000

 k-point    26 :      -0.4444    0.1111    0.2500
  band No.  band energies     occupation 
      1      -6.2939      2.00000
      2      -5.2454      2.00000
      3      -3.7451      2.00000
      4       0.7693      2.00000
      5       1.6942      2.00000
      6       2.6169      2.00000
      7       3.5788      2.00000
      8       5.0751      2.00000
      9       5.5697      2.00000
     10       6.8301      0.00000
     11       7.7364      0.00000
     12       8.3760      0.00000
     13       9.8115      0.00000
     14      12.5585      0.00000

 k-point    27 :      -0.3333    0.1111    0.2500
  band No.  band energies     occupation 
      1      -6.6846      2.00000
      2      -5.2878      2.00000
      3      -3.3912      2.00000
      4       1.2515      2.00000
      5       1.9658      2.00000
      6       2.8176      2.00000
      7       3.8378      2.00000
      8       5.3000      2.00000
      9       5.9236      2.00000
     10       6.6445      0.00000
     11       7.2372      0.00000
     12       8.1691      0.00000
     13       9.8739      0.00000
     14      11.8720      0.00000

 k-point    28 :       0.2222    0.2222    0.2500
  band No.  band energies     occupation 
      1      -6.3598      2.00000
      2      -5.1380      2.00000
      3      -3.8380      2.00000
      4       1.0557      2.00000
      5       1.8324      2.00000
      6       2.5813      2.00000
      7       3.1016      2.00000
      8       4.7624      2.00000
      9       5.7613      2.00000
     10       6.9722      0.00000
     11       7.7853      0.00000
     12       9.0302      0.00000
     13      10.5950      0.00000
     14      11.1704      0.00000

 k-point    29 :       0.3333    0.2222    0.2500
  band No.  band energies     occupation 
      1      -6.0641      2.00000
      2      -5.0619      2.00000
      3      -4.1736      2.00000
      4       1.0534      2.00000
      5       1.3812      2.00000
      6       2.2286      2.00000
      7       3.4428      2.00000
      8       4.2900      2.00000
      9       5.5129      2.00000
     10       7.2241      0.00000
     11       8.4429      0.00000
     12       8.9899      0.00000
     13      10.6385      0.00000
     14      11.7837      0.00000

 k-point    30 :       0.4444    0.2222    0.2500
  band No.  band energies     occupation 
      1      -6.0484      2.00000
      2      -5.1262      2.00000
      3      -4.1054      2.00000
      4       0.8751      2.00000
      5       1.4802      2.00000
      6       2.2481      2.00000
      7       3.3484      2.00000
      8       4.6905      2.00000
      9       5.3165      2.00000
     10       7.4074      0.00000
     11       8.1168      0.00000
     12       8.8911      0.00000
     13      10.5374      0.00000
     14      12.0446      0.00000

 k-point    31 :       0.3333    0.3333    0.2500
  band No.  band energies     occupation 
      1      -5.9326      2.00000
      2      -5.0635      2.00000
      3      -4.2744      2.00000
      4       1.0096      2.00000
      5       1.3807      2.00000
      6       1.8098      2.00000
      7       3.6839      2.00000
      8       4.5648      2.00000
      9       4.9259      2.00000
     10       7.9944      0.00000
     11       8.4610      0.00000
     12       8.5552      0.00000
     13      11.4757      0.00000
     14      11.7616      0.00000

 k-point    32 :       0.0000    0.0000    0.5000
  band No.  band energies     occupation 
      1      -6.5947      2.00000
      2      -6.5947      2.00000
      3      -2.0778      2.00000
      4       2.2841      2.00000
      5       3.4948      2.00000
      6       3.4948      2.00000
      7       4.8666      2.00000
      8       5.2147      2.00000
      9       5.2147      2.00000
     10       6.5007      0.00000
     11       6.5007      0.00000
     12       6.5065      0.00000
     13      10.0981      0.00000
     14      11.2928      0.00000

 k-point    33 :       0.1111    0.0000    0.5000
  band No.  band energies     occupation 
      1      -6.5264      2.00000
      2      -6.5108      2.00000
      3      -2.2694      2.00000
      4       2.2574      2.00000
      5       3.3191      2.00000
      6       3.4322      2.00000
      7       4.2490      2.00000
      8       4.7124      2.00000
      9       4.9459      2.00000
     10       6.7919      0.00000
     11       7.0130      0.00000
     12       7.5006      0.00000
     13      10.3343      0.00000
     14      11.0083      0.00000

 k-point    34 :       0.2222    0.0000    0.5000
  band No.  band energies     occupation 
      1      -6.3415      2.00000
      2      -6.2669      2.00000
      3      -2.7672      2.00000
      4       1.8930      2.00000
      5       2.7126      2.00000
      6       3.1561      2.00000
      7       4.0479      2.00000
      8       4.2323      2.00000
      9       4.6630      2.00000
     10       7.3602      0.00000
     11       7.8091      0.00000
     12       8.3405      0.00000
     13      10.4601      0.00000
     14      11.3473      0.00000

 k-point    35 :       0.3333   -0.0000    0.5000
  band No.  band energies     occupation 
      1      -6.1050      2.00000
      2      -5.8975      2.00000
      3      -3.3997      2.00000
      4       1.0309      2.00000
      5       2.5194      2.00000
      6       2.8557      2.00000
      7       3.7861      2.00000
      8       4.0336      2.00000
      9       5.0137      2.00000
     10       7.7077      0.00000
     11       8.0924      0.00000
     12       8.4407      0.00000
     13      10.4860      0.00000
     14      11.6735      0.00000

 k-point    36 :       0.4444    0.0000    0.5000
  band No.  band energies     occupation 
      1      -5.9305      2.00000
      2      -5.5283      2.00000
      3      -3.9289      2.00000
      4       0.4575      2.00000
      5       2.5142      2.00000
      6       2.6284      2.00000
      7       3.5990      2.00000
      8       3.9018      2.00000
      9       5.7553      2.00000
     10       7.0368      0.00000
     11       8.1383      0.00000
     12       8.7136      0.00000
     13      10.6139      0.00000
     14      11.2833      0.00000

 k-point    37 :       0.1111    0.1111    0.5000
  band No.  band energies     occupation 
      1      -6.3952      2.00000
      2      -6.3510      2.00000
      3      -2.6107      2.00000
      4       2.0977      2.00000
      5       2.9337      2.00000
      6       3.0381      2.00000
      7       3.9771      2.00000
      8       4.1769      2.00000
      9       5.2833      2.00000
     10       6.6465      0.00000
     11       8.0202      0.00000
     12       8.1096      0.00000
     13      10.7562      0.00000
     14      10.7604      0.00000

 k-point    38 :       0.2222    0.1111    0.5000
  band No.  band energies     occupation 
      1      -6.1710      2.00000
      2      -6.0536      2.00000
      3      -3.1625      2.00000
      4       1.4886      2.00000
      5       2.3180      2.00000
      6       2.5372      2.00000
      7       3.9984      2.00000
      8       4.4408      2.00000
      9       5.1929      2.00000
     10       7.0836      0.00000
     11       8.2876      0.00000
     12       8.4189      0.00000
     13      10.5942      0.00000
     14      11.5116      0.00000

 k-point    39 :       0.3333    0.1111    0.5000
  band No.  band energies     occupation 
      1      -5.9475      2.00000
      2      -5.6799      2.00000
      3      -3.7396      2.00000
      4       0.7462      2.00000
      5       2.0484      2.00000
      6       2.2154      2.00000
      7       4.1180      2.00000
      8       4.5747      2.00000
      9       5.4347      2.00000
     10       7.3924      0.00000
     11       7.8203      0.00000
     12       8.4791      0.00000
     13      10.6594      0.00000
     14      11.6560      0.00000

 k-point    40 :       0.4444    0.1111    0.5000
  band No.  band energies     occupation 
      1      -5.8504      2.00000
      2      -5.4594      2.00000
      3      -4.0361      2.00000
      4       0.4513      2.00000
      5       1.9780      2.00000
      6       2.0895      2.00000
      7       4.2836      2.00000
      8       4.3719      2.00000
      9       6.0188      2.00000
     10       6.8050      0.00000
     11       7.9486      0.00000
     12       8.4496      0.00000
     13      10.8057      0.00000
     14      11.3204      0.00000

 k-point    41 :       0.2222    0.2222    0.5000
  band No.  band energies     occupation 
      1      -5.9263      2.00000
      2      -5.7717      2.00000
      3      -3.6446      2.00000
      4       1.1241      2.00000
      5       1.5480      2.00000
      6       1.9215      2.00000
      7       4.5317      2.00000
      8       4.8779      2.00000
      9       5.7027      2.00000
     10       6.8953      0.00000
     11       8.0884      0.00000
     12       8.1121      0.00000
     13      10.9462      0.00000
     14      11.8084      0.00000

 k-point    42 :       0.3333    0.2222    0.5000
  band No.  band energies     occupation 
      1      -5.7340      2.00000
      2      -5.5220      2.00000
      3      -4.0244      2.00000
      4       0.7272      2.00000
      5       1.3153      2.00000
      6       1.5144      2.00000
      7       4.9482      2.00000
      8       5.3372      2.00000
      9       5.9335      2.00000
     10       6.9259      0.00000
     11       7.4683      0.00000
     12       7.8383      0.00000
     13      11.3267      0.00000
     14      11.9604      0.00000

 k-point    43 :       0.3333    0.3333    0.5000
  band No.  band energies     occupation 
      1      -5.5495      2.00000
      2      -5.5495      2.00000
      3      -4.1320      2.00000
      4       0.9502      2.00000
      5       1.0289      2.00000
      6       1.0289      2.00000
      7       5.3195      2.00000
      8       6.1956      1.95682
      9       6.1956      1.95682
     10       6.3277      0.08636
     11       7.2960      0.00000
     12       7.2960      0.00000
     13      12.1324      0.00000
     14      12.5841      0.00000


--------------------------------------------------------------------------------------------------------


 soft charge-density along one line, spin component           1
         0         1         2         3         4         5         6         7         8         9
 total charge-density along one line
 
 pseudopotential strength for first ion, spin component:           1
 51.571  56.111  -0.000  -0.000  -0.044  -0.000  -0.000  -0.064
 56.111  61.054  -0.000  -0.000  -0.048  -0.000  -0.000  -0.070
 -0.000  -0.000  12.701   0.009   0.000  18.307   0.013   0.000
 -0.000  -0.000   0.009  12.715   0.000   0.013  18.327   0.000
 -0.044  -0.048   0.000   0.000  12.715   0.000   0.000  18.327
 -0.000  -0.000  18.307   0.013   0.000  26.398   0.018   0.000
 -0.000  -0.000   0.013  18.327   0.000   0.018  26.427   0.000
 -0.064  -0.070   0.000   0.000  18.327   0.000   0.000  26.427
  0.000   0.000  -0.009   0.000  -0.000  -0.013   0.000  -0.000
  0.014   0.015   0.000  -0.000   0.000   0.000  -0.000   0.000
  0.006   0.007   0.000  -0.000   0.005   0.000  -0.000   0.008
  0.000   0.000   0.000  -0.008  -0.000   0.000  -0.012  -0.000
  0.011   0.012   0.000  -0.000  -0.008   0.000  -0.000  -0.012
 total augmentation occupancy for first ion, spin component:           1
 13.759 -10.112   0.000  -0.000   1.903   0.000   0.000  -0.479   0.000  -0.158  -0.095   0.000  -0.117
-10.112   8.700   0.000   0.000  -1.597   0.000   0.000   0.409   0.000   0.142   0.084   0.000   0.104
  0.000   0.000   2.566   0.188   0.000  -0.514  -0.169   0.000  -0.048   0.000   0.000  -0.046   0.000
 -0.000   0.000   0.188   2.880   0.000  -0.169  -0.793  -0.000  -0.045   0.000   0.000  -0.107  -0.000
  1.903  -1.597   0.000   0.000   2.788   0.000  -0.000  -0.741   0.000  -0.050  -0.013  -0.000  -0.048
  0.000   0.000  -0.514  -0.169   0.000   0.188   0.062   0.000   0.011   0.000   0.000   0.016   0.000
  0.000   0.000  -0.169  -0.793  -0.000   0.062   0.289   0.000   0.016  -0.000   0.000   0.031   0.000
 -0.479   0.409   0.000  -0.000  -0.741   0.000   0.000   0.262   0.000   0.014   0.003   0.000   0.011
 -0.000   0.000  -0.048  -0.045   0.000   0.011   0.016   0.000   0.010   0.000   0.000   0.011   0.000
 -0.158   0.142   0.000   0.000  -0.050   0.000   0.000   0.014   0.000   0.015   0.003   0.000   0.005
 -0.095   0.084   0.000   0.000  -0.013   0.000   0.000   0.003   0.000   0.003   0.007   0.000  -0.000
  0.000   0.000  -0.046  -0.107  -0.000   0.016   0.031  -0.000   0.011   0.000   0.000   0.027   0.000
 -0.117   0.104   0.000  -0.000  -0.048   0.000   0.000   0.011   0.000   0.005  -0.000   0.000   0.010


------------------------ aborting loop because EDIFF is reached ----------------------------------------


    CHARGE:  cpu time    0.0255: real time    0.0256
    FORLOC:  cpu time    0.0009: real time    0.0009
    FORNL :  cpu time    0.0955: real time    0.0958
    STRESS:  cpu time    0.2190: real time    0.2198
    FORCOR:  cpu time    0.0179: real time    0.0180
    FORHAR:  cpu time    0.0038: real time    0.0038
    MIXING:  cpu time    0.0007: real time    0.0007
    OFIELD:  cpu time    0.0000: real time    0.0000

  Hirshfeld charges:
            ion         q(e)     
   ------------------------------
      1     Te         -0.000
      2     Te         -0.000
      3     Te          0.000

  Tkatchenko/Scheffler method for vdW energy calculation
  ---------------------------------------------------------------------------------------------

  Parameters of vdW forcefield:
            C6ts              R0ts           ALPHAts        RELVOL
            (au)              (au)            (au)                
   ---------------------------------------------------------------
   Te        395.494          4.213         37.626          0.999
   Te        395.494          4.213         37.626          0.999
   Te        395.494          4.213         37.626          0.999

  Number of pair interactions contributing to vdW energy:   31461
  Edisp (eV):   -0.70728
    FORVDW:  cpu time    0.1435: real time    0.1439

  FORCE on cell =-STRESS in cart. coord.  units (eV):
  Direction    XX          YY          ZZ          XY          YZ          ZX
  --------------------------------------------------------------------------------------
  Alpha Z     2.33417     2.33417     2.33417
  Ewald    -237.79647  -237.79646  -205.21916    -0.00000    -0.00000     0.00000
  Hartree    10.95804    10.95803    19.04256     0.00000     0.00000    -0.00000
  E(xc)     -70.39205   -70.39205   -69.94930    -0.00000     0.00000    -0.00000
  Local    -111.10183  -111.10187  -143.69698    -0.00004     0.00000    -0.00000
  n-local   331.98689   332.82357   328.46043    -1.28035    -0.68557    -1.19754
  augment   -81.06378   -81.06373   -79.06483     0.00004    -0.00000     0.00000
  Kinetic   151.76954   158.89586   148.98703    -7.76288     0.16940     1.73329
  Fock        0.00000     0.00000     0.00000     0.00000     0.00000     0.00000
  vdW        -0.70515    -0.70515    -0.90679     0.00000    -0.00000    -0.00000
  -------------------------------------------------------------------------------------
  Total      -0.02913    -0.02913    -0.01289     0.00000     0.00000     0.00000
  in kB      -0.46609    -0.46609    -0.20618     0.00000     0.00000     0.00000
  external pressure =       -0.38 kB  Pullay stress =        0.00 kB


 VOLUME and BASIS-vectors are now :
 -----------------------------------------------------------------------------
  energy-cutoff  :      520.00
  volume of cell :      100.14
      direct lattice vectors                 reciprocal lattice vectors
     4.418999683  0.000000000  0.000000000     0.226295558  0.130651801 -0.000000000
    -2.209499842  3.826965985 -0.000000000    -0.000000000  0.261303603 -0.000000000
     0.000000000  0.000000000  5.921686196    -0.000000000  0.000000000  0.168870819

  length of vectors
     4.418999683  4.418999683  5.921686196     0.261303603  0.261303603  0.168870819


 FORCES acting on ions
    electron-ion (+dipol)            ewald-force                    non-local-force                 convergence-correction
 -----------------------------------------------------------------------------------------------
   -.963E+01 0.111E-04 -.913E-06   0.142E+02 0.160E-05 0.141E-05   -.453E+01 0.277E-16 0.278E-16   -.114E-02 0.192E-07 -.727E-09
   0.482E+01 -.834E+01 -.185E-04   -.709E+01 0.123E+02 -.811E-05   0.227E+01 -.393E+01 -.555E-16   0.572E-03 -.991E-03 0.100E-08
   0.482E+01 0.834E+01 0.191E-04   -.709E+01 -.123E+02 0.670E-05   0.227E+01 0.393E+01 0.000E+00   0.572E-03 0.991E-03 -.247E-09
 -----------------------------------------------------------------------------------------------
   0.259E-04 -.837E-05 -.316E-06   -.888E-15 0.000E+00 0.173E-17   -.888E-15 -.444E-15 -.278E-16   0.383E-08 0.835E-08 0.291E-10
 
 
 POSITION                                       TOTAL-FORCE (eV/Angst)
 -----------------------------------------------------------------------------------
      1.22967      0.00000      1.97390        -0.004351      0.000000     -0.000000
     -0.61483      1.06492      3.94779         0.002175     -0.003768      0.000000
      1.59467      2.76204      0.00000         0.002175      0.003768     -0.000000
 -----------------------------------------------------------------------------------
    total drift:                                0.000026     -0.000008     -0.000000


--------------------------------------------------------------------------------------------------------



  FREE ENERGIE OF THE ION-ELECTRON SYSTEM (eV)
  ---------------------------------------------------
  free  energy   TOTEN  =       -10.11763144 eV

  energy  without entropy=      -10.11754633  energy(sigma->0) =      -10.11758888
 
 d Force =-0.1594936E-04[-0.230E-04,-0.887E-05]  d Energy = 0.1386903E-03-0.155E-03
 d Force = 0.7559711E-01[ 0.750E-01, 0.762E-01]  d Ewald  = 0.6039319E+00-0.528E+00


--------------------------------------------------------------------------------------------------------


    POTLOK:  cpu time    0.0197: real time    0.0198


--------------------------------------------------------------------------------------------------------


 Conjugate gradient step on ions:
 trial-energy change:   -0.000139  1 .order   -0.000152   -0.000243   -0.000061
  (g-gl).g = 0.206E-03      g.g   = 0.156E-03  gl.gl    = 0.430E-03
 g(Force)  = 0.407E-06   g(Stress)= 0.155E-03 ortho     =-0.905E-05
 gamma     =   0.47910
 trial     =   1.60766
 opt step  =   2.15124  (harmonic =   2.15124) maximal distance =0.00236504
 next E    =   -10.117655   (d E  =  -0.00016)


--------------------------------------------------------------------------------------------------------


  
 reached required accuracy - stopping structural energy minimisation
 writing wavefunctions
     LOOP+:  cpu time    2.0414: real time    2.2072
    4ORBIT:  cpu time    0.0000: real time    0.0000

 total amount of memory used by VASP MPI-rank0    48763. kBytes
=======================================================================

   base      :      30000. kBytes
   nonl-proj :       6255. kBytes
   fftplans  :       2372. kBytes
   grid      :       3330. kBytes
   one-center:         16. kBytes
   wavefun   :       6790. kBytes
 
  
  
 General timing and accounting informations for this job:
 ========================================================
  
                  Total CPU time used (sec):       45.250
                            User time (sec):       44.602
                          System time (sec):        0.648
                         Elapsed time (sec):       46.801
  
                   Maximum memory used (kb):       82856.
                   Average memory used (kb):           0.
  
                          Minor page faults:        77113
                          Major page faults:            0
                 Voluntary context switches:         1465
