Phosphorus - white                      
   1.00000000000000     
     5.5469767287519502    0.0075257247958173    0.0118897478535185
    -2.0092648703605547   10.7822360639718884   -0.0214059392274249
    -1.8392350646793350   -1.2206008705393234   10.8989551765023638
   P 
    24
Direct
  0.0729599286284352  0.0001972095875096  0.1777348889675554
  0.9270400493715629  0.9998027784124894  0.8222651260324492
  0.8327190248013134  0.9465326284811655  0.3115955464370228
  0.1672809751986866  0.0534673565188368  0.6884044535629772
  0.0054894820549297  0.1437665046390996  0.3117446067770519
  0.9945104919450751  0.8562335253609026  0.6882553932229553
  0.2382344998118298  0.0102360092014584  0.3730312627032027
  0.7617655301881656  0.9897640187985441  0.6269687672967997
  0.7807157367677476  0.3744725991789828  0.0579741082801199
  0.2192842632322526  0.6255274008210171  0.9420259147198856
  0.5925076264589816  0.1771329149417917  0.0315434387353411
  0.4074923735410185  0.8228670850582085  0.9684565492646576
  0.5101597859819642  0.3071477412062745  0.1739960958311175
  0.4898402140180358  0.6928522587937254  0.8260039191688869
  0.3803292722869611  0.3215354591799536  0.9788835450121527
  0.6196707277130390  0.6784645408200464  0.0211164399878425
  0.3099764776844343  0.6884541470628918  0.4719726949734226
  0.6900234923155630  0.3115458529371082  0.5280273050265774
  0.9287302730545043  0.6260967273468535  0.3664714429818560
  0.0712697419454934  0.3739032726531467  0.6335285270181416
  0.2049965291386610  0.5062246137246645  0.3589815201891507
  0.7950034858613365  0.4937753862753354  0.6410184498108470
  0.2424090655766778  0.6797039406074701  0.2705509859067685
  0.7575909194233176  0.3202960593925301  0.7294490140932314
 
  0.00000000E+00  0.00000000E+00  0.00000000E+00
  0.00000000E+00  0.00000000E+00  0.00000000E+00
  0.00000000E+00  0.00000000E+00  0.00000000E+00
  0.00000000E+00  0.00000000E+00  0.00000000E+00
  0.00000000E+00  0.00000000E+00  0.00000000E+00
  0.00000000E+00  0.00000000E+00  0.00000000E+00
  0.00000000E+00  0.00000000E+00  0.00000000E+00
  0.00000000E+00  0.00000000E+00  0.00000000E+00
  0.00000000E+00  0.00000000E+00  0.00000000E+00
  0.00000000E+00  0.00000000E+00  0.00000000E+00
  0.00000000E+00  0.00000000E+00  0.00000000E+00
  0.00000000E+00  0.00000000E+00  0.00000000E+00
  0.00000000E+00  0.00000000E+00  0.00000000E+00
  0.00000000E+00  0.00000000E+00  0.00000000E+00
  0.00000000E+00  0.00000000E+00  0.00000000E+00
  0.00000000E+00  0.00000000E+00  0.00000000E+00
  0.00000000E+00  0.00000000E+00  0.00000000E+00
  0.00000000E+00  0.00000000E+00  0.00000000E+00
  0.00000000E+00  0.00000000E+00  0.00000000E+00
  0.00000000E+00  0.00000000E+00  0.00000000E+00
  0.00000000E+00  0.00000000E+00  0.00000000E+00
  0.00000000E+00  0.00000000E+00  0.00000000E+00
  0.00000000E+00  0.00000000E+00  0.00000000E+00
  0.00000000E+00  0.00000000E+00  0.00000000E+00
