Phosphorus                              
   1.00000000000000     
    12.9825496674000007    0.0000000000000000    0.0000000000000000
     0.0848524310000000   12.9822723716000006    0.0000000000000000
    -8.8922368229999993   -8.8343068928000008   43.4272174445999966
   P 
   168
Selective dynamics
Direct
  0.5777850150878763  0.9305449721212682  0.0165199991207174   F   F   F
  0.0777850151013695  0.4305449724139763  0.0165199991207174   F   F   F
  0.3279800415280647  0.9224300382096331  0.0220999997115712   F   F   F
  0.8279800411668958  0.4224300086154287  0.0220999997115712   F   F   F
  0.8288949726919697  0.9197050333007581  0.0223200004521686   F   F   F
  0.3288949727845036  0.4197050332853536  0.0223200004521686   F   F   F
  0.5789450407300549  0.4201349913779637  0.0224849991424279   F   F   F
  0.0789450407050794  0.9201350211262280  0.0224849991424279   F   F   F
  0.4711499214064858  0.8339999918017540  0.0330849997661673   F   F   F
  0.9711499809351594  0.3339999914012068  0.0330849997661673   F   F   F
  0.7041900157816130  0.8315500616125533  0.0342100001892902   F   F   F
  0.2041900158006484  0.3315500021314364  0.0342100001892902   F   F   F
  0.2159349918149758  0.8252649904052163  0.0362249985278638   F   F   F
  0.7159349918001752  0.3252649903127818  0.0362249985278638   F   F   F
  0.4636250138396960  0.3248450159991307  0.0367299988776608   F   F   F
  0.9636250139012219  0.8248450160145353  0.0367299988776608   F   F   F
  0.5999749898629290  0.0846550166983633  0.0520099997629657   F   F   F
  0.0999749899149833  0.5846550464466205  0.0520099997629657   F   F   F
  0.8525500301761255  0.0715599954113486  0.0581699982326214   F   F   F
  0.3525500297655171  0.5715600252366357  0.0581699982326214   F   F   F
  0.3508249521494875  0.0734150111823766  0.0583599992155399   F   F   F
  0.8508249524783338  0.5734150410076637  0.0583599992155399   F   F   F
  0.1032450198931585  0.0706249996715727  0.0584749989160471   F   F   F
  0.6032450199058488  0.5706250071587036  0.0584749989160471   F   F   F
  0.5321850180391507  0.8863750102488339  0.0836599990693543   F   F   F
  0.0321850180561682  0.3863750100023395  0.0836599990693543   F   F   F
  0.7099500298223873  0.8861100671219191  0.0847000032569980   F   F   F
  0.2099500298404138  0.3861100077948620  0.0847000032569980   F   F   F
  0.2675250172458945  0.8784750100899501  0.0860949978148966   F   F   F
  0.7675250172285786  0.3784750103826582  0.0860949978148966   F   F   F
  0.5076650380971302  0.0583449900260007  0.0861200019727519   F   F   F
  0.0076650380761905  0.5583449602315227  0.0861200019727519   F   F   F
  0.4804649949198136  0.3799149989968953  0.0867850035477815   F   F   F
  0.9804649952103972  0.8799149993204125  0.0867850035477815   F   F   F
  0.7366750240480329  0.0579549967944502  0.0869000032482887   F   F   F
  0.2366750240225528  0.5579550266197373  0.0869000032482887   F   F   F
  0.4989149570447609  0.5512250066111406  0.0901750028077615   F   F   F
  0.9989149571064857  0.0512250065957360  0.0901750028077615   F   F   F
  0.2510800361872043  0.0498099997395869  0.0907350033427008   F   F   F
  0.7510799765250198  0.5498099922832651  0.0907350033427008   F   F   F
  0.6343899965026623  0.3114299774076343  0.1003000065697677   F   F   F
  0.1343899965179673  0.8114299774230389  0.1003000065697677   F   F   F
  0.1885700226011764  0.8656100034749130  0.1497000008875418   F   F   F
  0.6885700225858713  0.3656100034595084  0.1497000008875418   F   F   F
  0.4501900077012735  0.2489200234151738  0.1592649966538460   F   F   F
  0.9501900076812291  0.7489200830503435  0.1592649966538460   F   F   F
  0.9487749336397542  0.0010850140024345  0.1598249971887853   F   F   F
  0.4487749338508920  0.5010850429804137  0.1598249971887853   F   F   F
  0.4420449733853076  0.7633249759783496  0.1631000041859849   F   F   F
  0.9420449736010852  0.2633249759629450  0.1631000041859849   F   F   F
  0.1200850009614172  0.0195349994882577  0.1632149964487652   F   F   F
  0.6200850009866841  0.5195350050496899  0.1632149964487652   F   F   F
  0.4416550397915344  0.9923349619908421  0.1638799905860608   F   F   F
  0.9416550401618622  0.4923349618984076  0.1638799905860608   F   F   F
  0.6215249896065842  0.2324749827487338  0.1639049947208875   F   F   F
  0.1215249896218893  0.7324749827641384  0.1639049947208875   F   F   F
  0.6138899922165422  0.7900499701433930  0.1652999967395488   F   F   F
  0.1138899922320462  0.2900499701279884  0.1652999967395488   F   F   F
  0.6136249900178186  0.9678149819375790  0.1663399934664298   F   F   F
  0.1136249899562998  0.4678149819221744  0.1663399934664298   F   F   F
  0.4293750524476607  0.3967550098640160  0.1915250122486114   F   F   F
  0.9293750526994771  0.8967550396893031  0.1915250122486114   F   F   F
  0.4265849590280339  0.1491750180829428  0.1916400045113846   F   F   F
  0.9265850185132081  0.6491750479082299  0.1916400045113846   F   F   F
  0.4284399747628100  0.6474499702476635  0.1918300092246881   F   F   F
  0.9284400346741037  0.1474499702322589  0.1918300092246881   F   F   F
  0.4153450131861334  0.9000250101463863  0.1979900002566026   F   F   F
  0.9153450724812089  0.4000250101309746  0.1979900002566026   F   F   F
  0.1751549839709696  0.0363749973413334  0.2132699936581304   F   F   F
  0.6751549840284596  0.5363749861876599  0.2132699936581304   F   F   F
  0.6747350096576312  0.2840650081860119  0.2137750238279281   F   F   F
  0.1747350096729363  0.7840650082014164  0.2137750238279281   F   F   F
  0.6684499978854319  0.7958099841789590  0.2157900035376343   F   F   F
  0.1684499979004315  0.2958099842405773  0.2157900035376343   F   F   F
  0.6660000085716788  0.0288500171151185  0.2169149816015050   F   F   F
  0.1660000085749047  0.5288500189791989  0.2169149816015050   F   F   F
  0.0798649787857499  0.9210550188781710  0.2275149971237340   F   F   F
  0.5798649787704448  0.4210550188627664  0.2275149971237340   F   F   F
  0.5802949666847610  0.6711050272132226  0.2276799827806926   F   F   F
  0.0802949667002650  0.1711050271978181  0.2276799827806926   F   F   F
  0.5775699615284395  0.1720200031708004  0.2279000133182763   F   F   F
  0.0775699615276366  0.6720199585098996  0.2279000133182763   F   F   F
  0.5694550276295445  0.9222150444703487  0.2334800064713960   F   F   F
  0.0694550275720545  0.4222149849122090  0.2334800064713960   F   F   F
  0.9400109956150277  0.5779560691901704  0.2671265642038902   T   T   T
  0.4400109955530043  0.0779560692517958  0.2671265642038902   T   T   T
  0.9283006452612395  0.3277919150907295  0.2732968719690038   T   T   T
  0.4283006154673012  0.8277919151061343  0.2732968719690038   T   T   T
  0.9254701986391797  0.8309394182413886  0.2735141146716689   T   T   T
  0.4254701986546833  0.3309394182259839  0.2735141146716689   T   T   T
  0.4245396867479168  0.5803380603210324  0.2739230960660656   T   T   T
  0.9245397165418627  0.0803380603056282  0.2739230960660656   T   T   T
  0.8412093919113853  0.4722184327879628  0.2835835953975080   T   T   T
  0.3412093919639437  0.9722184624591973  0.2835835953975080   T   T   T
  0.8390362475036860  0.7036247301638243  0.2847741202661359   T   T   T
  0.3390361879007041  0.2036247301484197  0.2847741202661359   T   T   T
  0.8304701329839186  0.2177908091606482  0.2881234655122800   T   T   T
  0.3304701329423307  0.7177907943096301  0.2881234655122800   T   T   T
  0.3303688923149531  0.4644691623725188  0.2885560480562280   T   T   T
  0.8303688922994412  0.9644691623879236  0.2885560480562280   T   T   T
  0.0936096321870644  0.6006844001552364  0.3030933396017890   T   T   T
  0.5936096619804979  0.1006844002168617  0.3030933396017890   T   T   T
  0.0787802885428607  0.8545301721771860  0.3094623270930135   T   T   T
  0.5787803183367988  0.3545301721617816  0.3094623270930135   T   T   T
  0.0802690395647520  0.3519264488810973  0.3097142831999135   T   T   T
  0.5802690693992762  0.8519264190866193  0.3097142831999135   T   T   T
  0.0770710286655784  0.1047309754498691  0.3098869081870257   T   T   T
  0.5770710361296953  0.6047309978034295  0.3098869081870257   T   T   T
  0.8924031557153357  0.5328385969468591  0.3344867299899899   T   T   T
  0.3924031556538171  0.0328385969314477  0.3344867299899899   T   T   T
  0.8923639320389137  0.7106322455321140  0.3354060948386696   T   T   T
  0.3923638724359318  0.2106322455167093  0.3354060948386696   T   T   T
  0.8849694910439464  0.2690805303697154  0.3383496105247817   T   T   T
  0.3849694910597488  0.7690805303080905  0.3383496105247817   T   T   T
  0.0652913544329713  0.5089873872597376  0.3372087183237998   T   T   T
  0.5652913245958325  0.0089873891700389  0.3372087183237998   T   T   T
  0.3861195438567323  0.4813447883734784  0.3388016081168307   T   T   T
  0.8861195439182505  0.9813447883888831  0.3388016081168307   T   T   T
  0.0654509215956019  0.7375011186208502  0.3379235856353202   T   T   T
  0.5654509513895468  0.2375011186054454  0.3379235856353202   T   T   T
  0.5581919573026896  0.5001315216612713  0.3417507342908641   T   T   T
  0.0581919572817498  0.0001314918668004  0.3417507342908641   T   T   T
  0.0568973490601692  0.2523764310889647  0.3422956974305720   T   T   T
  0.5568973416138733  0.7523764012944864  0.3422956974305720   T   T   T
  0.3182194606196883  0.6355354645519855  0.3527279484191952   T   T   T
  0.8182194606809082  0.1355354646136040  0.3527279484191952   T   T   T
  0.8707035924409340  0.1917325820790259  0.4022914162397841   T   T   T
  0.3707035924924834  0.6917326119043131  0.4022914162397841   T   T   T
  0.2521120354349696  0.4532327638194024  0.4111252706339223   T   T   T
  0.7521120950379518  0.9532327638348075  0.4111252706339223   T   T   T
  0.0053515093288077  0.9522448230813186  0.4117698126872533   T   T   T
  0.5053515383524820  0.4522448230659139  0.4117698126872533   T   T   T
  0.7689252957071896  0.4458689749440495  0.4163437126984992   T   T   T
  0.2689252956862499  0.9458689451495720  0.4163437126984992   T   T   T
  0.0251740391714495  0.1247066431116783  0.4166176977464141   T   T   T
  0.5251740447793799  0.6247066430500530  0.4166176977464141   T   T   T
  0.9951664966448934  0.4461167641176374  0.4166641589462882   T   T   T
  0.4951664966964359  0.9461167939429245  0.4166641589462882   T   T   T
  0.2370147396450615  0.6253035084791403  0.4167857763948307   T   T   T
  0.7370147396297566  0.1253035084637354  0.4167857763948307   T   T   T
  0.7956378010106010  0.6196134577693070  0.4214420379373196   T   T   T
  0.2956378010261051  0.1196134577539027  0.4214420379373196   T   T   T
  0.9725145151745758  0.6196097666707999  0.4215390313069572   T   T   T
  0.4725145151900798  0.1196097666554022  0.4215390313069572   T   T   T
  0.3997570827240091  0.4286274843475603  0.4429423744189498   T   T   T
  0.8997571125539933  0.9286275141728485  0.4429423744189498   T   T   T
  0.1524230239507462  0.4267069073231903  0.4433123271001790   T   T   T
  0.6524230537807307  0.9267069371484775  0.4433123271001790   T   T   T
  0.6499765110211790  0.4267641838048266  0.4436742235403886   T   T   T
  0.1499765110732338  0.9267642135530844  0.4436742235403886   T   T   T
  0.9053198639443799  0.4124831853261235  0.4505945124584614   T   T   T
  0.4053198639556489  0.9124832448842634  0.4505945124584614   T   T   T
  0.0423386554252885  0.1744493228323145  0.4671826961940327   T   T   T
  0.5423386442615893  0.6744493079042662  0.4671826961940327   T   T   T
  0.2885216964874650  0.6743919814050583  0.4673335490785190   T   T   T
  0.7885216964721600  0.1743919813896536  0.4673335490785190   T   T   T
  0.8043283071223132  0.6641718981946186  0.4724918990464841   T   T   T
  0.3043283071378169  0.1641718981792145  0.4724918990464841   T   T   T
  0.0341186439361847  0.6640310574914992  0.4725856765342172   T   T   T
  0.5341186458465426  0.1640310574760946  0.4725856765342172   T   T   T
  0.9251633252823286  0.0779008619556323  0.4804894220527033   T   T   T
  0.4251633252895831  0.5779008396328873  0.4804894220527033   T   T   T
  0.6737346165094609  0.5759012977029752  0.4816676226368868   T   T   T
  0.1737346164962729  0.0759012902928673  0.4816676226368868   T   T   T
  0.1783100373047635  0.5752949344420262  0.4815759483282166   T   T   T
  0.6783099925652698  0.0752949418983481  0.4815759483282166   T   T   T
  0.9307933909685210  0.5620590522164177  0.4887513892282178   T   T   T
  0.4307933313655386  0.0620590522010131  0.4887513892282178   T   T   T
 
  0.00000000E+00  0.00000000E+00  0.00000000E+00
  0.00000000E+00  0.00000000E+00  0.00000000E+00
  0.00000000E+00  0.00000000E+00  0.00000000E+00
  0.00000000E+00  0.00000000E+00  0.00000000E+00
  0.00000000E+00  0.00000000E+00  0.00000000E+00
  0.00000000E+00  0.00000000E+00  0.00000000E+00
  0.00000000E+00  0.00000000E+00  0.00000000E+00
  0.00000000E+00  0.00000000E+00  0.00000000E+00
  0.00000000E+00  0.00000000E+00  0.00000000E+00
  0.00000000E+00  0.00000000E+00  0.00000000E+00
  0.00000000E+00  0.00000000E+00  0.00000000E+00
  0.00000000E+00  0.00000000E+00  0.00000000E+00
  0.00000000E+00  0.00000000E+00  0.00000000E+00
  0.00000000E+00  0.00000000E+00  0.00000000E+00
  0.00000000E+00  0.00000000E+00  0.00000000E+00
  0.00000000E+00  0.00000000E+00  0.00000000E+00
  0.00000000E+00  0.00000000E+00  0.00000000E+00
  0.00000000E+00  0.00000000E+00  0.00000000E+00
  0.00000000E+00  0.00000000E+00  0.00000000E+00
  0.00000000E+00  0.00000000E+00  0.00000000E+00
  0.00000000E+00  0.00000000E+00  0.00000000E+00
  0.00000000E+00  0.00000000E+00  0.00000000E+00
  0.00000000E+00  0.00000000E+00  0.00000000E+00
  0.00000000E+00  0.00000000E+00  0.00000000E+00
  0.00000000E+00  0.00000000E+00  0.00000000E+00
  0.00000000E+00  0.00000000E+00  0.00000000E+00
  0.00000000E+00  0.00000000E+00  0.00000000E+00
  0.00000000E+00  0.00000000E+00  0.00000000E+00
  0.00000000E+00  0.00000000E+00  0.00000000E+00
  0.00000000E+00  0.00000000E+00  0.00000000E+00
  0.00000000E+00  0.00000000E+00  0.00000000E+00
  0.00000000E+00  0.00000000E+00  0.00000000E+00
  0.00000000E+00  0.00000000E+00  0.00000000E+00
  0.00000000E+00  0.00000000E+00  0.00000000E+00
  0.00000000E+00  0.00000000E+00  0.00000000E+00
  0.00000000E+00  0.00000000E+00  0.00000000E+00
  0.00000000E+00  0.00000000E+00  0.00000000E+00
  0.00000000E+00  0.00000000E+00  0.00000000E+00
  0.00000000E+00  0.00000000E+00  0.00000000E+00
  0.00000000E+00  0.00000000E+00  0.00000000E+00
  0.00000000E+00  0.00000000E+00  0.00000000E+00
  0.00000000E+00  0.00000000E+00  0.00000000E+00
  0.00000000E+00  0.00000000E+00  0.00000000E+00
  0.00000000E+00  0.00000000E+00  0.00000000E+00
  0.00000000E+00  0.00000000E+00  0.00000000E+00
  0.00000000E+00  0.00000000E+00  0.00000000E+00
  0.00000000E+00  0.00000000E+00  0.00000000E+00
  0.00000000E+00  0.00000000E+00  0.00000000E+00
  0.00000000E+00  0.00000000E+00  0.00000000E+00
  0.00000000E+00  0.00000000E+00  0.00000000E+00
  0.00000000E+00  0.00000000E+00  0.00000000E+00
  0.00000000E+00  0.00000000E+00  0.00000000E+00
  0.00000000E+00  0.00000000E+00  0.00000000E+00
  0.00000000E+00  0.00000000E+00  0.00000000E+00
  0.00000000E+00  0.00000000E+00  0.00000000E+00
  0.00000000E+00  0.00000000E+00  0.00000000E+00
  0.00000000E+00  0.00000000E+00  0.00000000E+00
  0.00000000E+00  0.00000000E+00  0.00000000E+00
  0.00000000E+00  0.00000000E+00  0.00000000E+00
  0.00000000E+00  0.00000000E+00  0.00000000E+00
  0.00000000E+00  0.00000000E+00  0.00000000E+00
  0.00000000E+00  0.00000000E+00  0.00000000E+00
  0.00000000E+00  0.00000000E+00  0.00000000E+00
  0.00000000E+00  0.00000000E+00  0.00000000E+00
  0.00000000E+00  0.00000000E+00  0.00000000E+00
  0.00000000E+00  0.00000000E+00  0.00000000E+00
  0.00000000E+00  0.00000000E+00  0.00000000E+00
  0.00000000E+00  0.00000000E+00  0.00000000E+00
  0.00000000E+00  0.00000000E+00  0.00000000E+00
  0.00000000E+00  0.00000000E+00  0.00000000E+00
  0.00000000E+00  0.00000000E+00  0.00000000E+00
  0.00000000E+00  0.00000000E+00  0.00000000E+00
  0.00000000E+00  0.00000000E+00  0.00000000E+00
  0.00000000E+00  0.00000000E+00  0.00000000E+00
  0.00000000E+00  0.00000000E+00  0.00000000E+00
  0.00000000E+00  0.00000000E+00  0.00000000E+00
  0.00000000E+00  0.00000000E+00  0.00000000E+00
  0.00000000E+00  0.00000000E+00  0.00000000E+00
  0.00000000E+00  0.00000000E+00  0.00000000E+00
  0.00000000E+00  0.00000000E+00  0.00000000E+00
  0.00000000E+00  0.00000000E+00  0.00000000E+00
  0.00000000E+00  0.00000000E+00  0.00000000E+00
  0.00000000E+00  0.00000000E+00  0.00000000E+00
  0.00000000E+00  0.00000000E+00  0.00000000E+00
  0.00000000E+00  0.00000000E+00  0.00000000E+00
  0.00000000E+00  0.00000000E+00  0.00000000E+00
  0.00000000E+00  0.00000000E+00  0.00000000E+00
  0.00000000E+00  0.00000000E+00  0.00000000E+00
  0.00000000E+00  0.00000000E+00  0.00000000E+00
  0.00000000E+00  0.00000000E+00  0.00000000E+00
  0.00000000E+00  0.00000000E+00  0.00000000E+00
  0.00000000E+00  0.00000000E+00  0.00000000E+00
  0.00000000E+00  0.00000000E+00  0.00000000E+00
  0.00000000E+00  0.00000000E+00  0.00000000E+00
  0.00000000E+00  0.00000000E+00  0.00000000E+00
  0.00000000E+00  0.00000000E+00  0.00000000E+00
  0.00000000E+00  0.00000000E+00  0.00000000E+00
  0.00000000E+00  0.00000000E+00  0.00000000E+00
  0.00000000E+00  0.00000000E+00  0.00000000E+00
  0.00000000E+00  0.00000000E+00  0.00000000E+00
  0.00000000E+00  0.00000000E+00  0.00000000E+00
  0.00000000E+00  0.00000000E+00  0.00000000E+00
  0.00000000E+00  0.00000000E+00  0.00000000E+00
  0.00000000E+00  0.00000000E+00  0.00000000E+00
  0.00000000E+00  0.00000000E+00  0.00000000E+00
  0.00000000E+00  0.00000000E+00  0.00000000E+00
  0.00000000E+00  0.00000000E+00  0.00000000E+00
  0.00000000E+00  0.00000000E+00  0.00000000E+00
  0.00000000E+00  0.00000000E+00  0.00000000E+00
  0.00000000E+00  0.00000000E+00  0.00000000E+00
  0.00000000E+00  0.00000000E+00  0.00000000E+00
  0.00000000E+00  0.00000000E+00  0.00000000E+00
  0.00000000E+00  0.00000000E+00  0.00000000E+00
  0.00000000E+00  0.00000000E+00  0.00000000E+00
  0.00000000E+00  0.00000000E+00  0.00000000E+00
  0.00000000E+00  0.00000000E+00  0.00000000E+00
  0.00000000E+00  0.00000000E+00  0.00000000E+00
  0.00000000E+00  0.00000000E+00  0.00000000E+00
  0.00000000E+00  0.00000000E+00  0.00000000E+00
  0.00000000E+00  0.00000000E+00  0.00000000E+00
  0.00000000E+00  0.00000000E+00  0.00000000E+00
  0.00000000E+00  0.00000000E+00  0.00000000E+00
  0.00000000E+00  0.00000000E+00  0.00000000E+00
  0.00000000E+00  0.00000000E+00  0.00000000E+00
  0.00000000E+00  0.00000000E+00  0.00000000E+00
  0.00000000E+00  0.00000000E+00  0.00000000E+00
  0.00000000E+00  0.00000000E+00  0.00000000E+00
  0.00000000E+00  0.00000000E+00  0.00000000E+00
  0.00000000E+00  0.00000000E+00  0.00000000E+00
  0.00000000E+00  0.00000000E+00  0.00000000E+00
  0.00000000E+00  0.00000000E+00  0.00000000E+00
  0.00000000E+00  0.00000000E+00  0.00000000E+00
  0.00000000E+00  0.00000000E+00  0.00000000E+00
  0.00000000E+00  0.00000000E+00  0.00000000E+00
  0.00000000E+00  0.00000000E+00  0.00000000E+00
  0.00000000E+00  0.00000000E+00  0.00000000E+00
  0.00000000E+00  0.00000000E+00  0.00000000E+00
  0.00000000E+00  0.00000000E+00  0.00000000E+00
  0.00000000E+00  0.00000000E+00  0.00000000E+00
  0.00000000E+00  0.00000000E+00  0.00000000E+00
  0.00000000E+00  0.00000000E+00  0.00000000E+00
  0.00000000E+00  0.00000000E+00  0.00000000E+00
  0.00000000E+00  0.00000000E+00  0.00000000E+00
  0.00000000E+00  0.00000000E+00  0.00000000E+00
  0.00000000E+00  0.00000000E+00  0.00000000E+00
  0.00000000E+00  0.00000000E+00  0.00000000E+00
  0.00000000E+00  0.00000000E+00  0.00000000E+00
  0.00000000E+00  0.00000000E+00  0.00000000E+00
  0.00000000E+00  0.00000000E+00  0.00000000E+00
  0.00000000E+00  0.00000000E+00  0.00000000E+00
  0.00000000E+00  0.00000000E+00  0.00000000E+00
  0.00000000E+00  0.00000000E+00  0.00000000E+00
  0.00000000E+00  0.00000000E+00  0.00000000E+00
  0.00000000E+00  0.00000000E+00  0.00000000E+00
  0.00000000E+00  0.00000000E+00  0.00000000E+00
  0.00000000E+00  0.00000000E+00  0.00000000E+00
  0.00000000E+00  0.00000000E+00  0.00000000E+00
  0.00000000E+00  0.00000000E+00  0.00000000E+00
  0.00000000E+00  0.00000000E+00  0.00000000E+00
  0.00000000E+00  0.00000000E+00  0.00000000E+00
  0.00000000E+00  0.00000000E+00  0.00000000E+00
  0.00000000E+00  0.00000000E+00  0.00000000E+00
  0.00000000E+00  0.00000000E+00  0.00000000E+00
  0.00000000E+00  0.00000000E+00  0.00000000E+00
  0.00000000E+00  0.00000000E+00  0.00000000E+00
  0.00000000E+00  0.00000000E+00  0.00000000E+00
  0.00000000E+00  0.00000000E+00  0.00000000E+00
  0.00000000E+00  0.00000000E+00  0.00000000E+00
