VP-vac                           
   1.00000000000000     
    12.9825496674000007    0.0000000000000000    0.0000000000000000
     0.0848524310000000   12.9822723716000006    0.0000000000000000
    -8.8922368229999993   -8.8343068928000008   43.4272174445999966
   P 
   168
Selective dynamics
Direct
  0.5777850150878763  0.9305449721212682  0.0165199991207174   F   F   F
  0.0777850151013695  0.4305449724139763  0.0165199991207174   F   F   F
  0.3279800415280647  0.9224300382096331  0.0220999997115712   F   F   F
  0.8279800411668958  0.4224300086154287  0.0220999997115712   F   F   F
  0.8288949726919697  0.9197050333007581  0.0223200004521686   F   F   F
  0.3288949727845036  0.4197050332853536  0.0223200004521686   F   F   F
  0.5789450407300549  0.4201349913779637  0.0224849991424279   F   F   F
  0.0789450407050794  0.9201350211262280  0.0224849991424279   F   F   F
  0.4711499214064858  0.8339999918017540  0.0330849997661673   F   F   F
  0.9711499809351594  0.3339999914012068  0.0330849997661673   F   F   F
  0.7041900157816130  0.8315500616125533  0.0342100001892902   F   F   F
  0.2041900158006484  0.3315500021314364  0.0342100001892902   F   F   F
  0.2159349918149758  0.8252649904052163  0.0362249985278638   F   F   F
  0.7159349918001752  0.3252649903127818  0.0362249985278638   F   F   F
  0.4636250138396960  0.3248450159991307  0.0367299988776608   F   F   F
  0.9636250139012219  0.8248450160145353  0.0367299988776608   F   F   F
  0.5999749898629290  0.0846550166983633  0.0520099997629657   F   F   F
  0.0999749899149833  0.5846550464466205  0.0520099997629657   F   F   F
  0.8525500301761255  0.0715599954113486  0.0581699982326214   F   F   F
  0.3525500297655171  0.5715600252366357  0.0581699982326214   F   F   F
  0.3508249521494875  0.0734150111823766  0.0583599992155399   F   F   F
  0.8508249524783338  0.5734150410076637  0.0583599992155399   F   F   F
  0.1032450198931585  0.0706249996715727  0.0584749989160471   F   F   F
  0.6032450199058488  0.5706250071587036  0.0584749989160471   F   F   F
  0.5321850180391507  0.8863750102488339  0.0836599990693543   F   F   F
  0.0321850180561682  0.3863750100023395  0.0836599990693543   F   F   F
  0.7099500298223873  0.8861100671219191  0.0847000032569980   F   F   F
  0.2099500298404138  0.3861100077948620  0.0847000032569980   F   F   F
  0.2675250172458945  0.8784750100899501  0.0860949978148966   F   F   F
  0.7675250172285786  0.3784750103826582  0.0860949978148966   F   F   F
  0.5076650380971302  0.0583449900260007  0.0861200019727519   F   F   F
  0.0076650380761905  0.5583449602315227  0.0861200019727519   F   F   F
  0.4804649949198136  0.3799149989968953  0.0867850035477815   F   F   F
  0.9804649952103972  0.8799149993204125  0.0867850035477815   F   F   F
  0.7366750240480329  0.0579549967944502  0.0869000032482887   F   F   F
  0.2366750240225528  0.5579550266197373  0.0869000032482887   F   F   F
  0.4989149570447609  0.5512250066111406  0.0901750028077615   F   F   F
  0.9989149571064857  0.0512250065957360  0.0901750028077615   F   F   F
  0.2510800361872043  0.0498099997395869  0.0907350033427008   F   F   F
  0.7510799765250198  0.5498099922832651  0.0907350033427008   F   F   F
  0.6343899965026623  0.3114299774076343  0.1003000065697677   F   F   F
  0.1343899965179673  0.8114299774230389  0.1003000065697677   F   F   F
  0.1885700226011764  0.8656100034749130  0.1497000008875418   F   F   F
  0.6885700225858713  0.3656100034595084  0.1497000008875418   F   F   F
  0.4501900077012735  0.2489200234151738  0.1592649966538460   F   F   F
  0.9501900076812291  0.7489200830503435  0.1592649966538460   F   F   F
  0.9487749336397542  0.0010850140024345  0.1598249971887853   F   F   F
  0.4487749338508920  0.5010850429804137  0.1598249971887853   F   F   F
  0.4420449733853076  0.7633249759783496  0.1631000041859849   F   F   F
  0.9420449736010852  0.2633249759629450  0.1631000041859849   F   F   F
  0.1200850009614172  0.0195349994882577  0.1632149964487652   F   F   F
  0.6200850009866841  0.5195350050496899  0.1632149964487652   F   F   F
  0.4416550397915344  0.9923349619908421  0.1638799905860608   F   F   F
  0.9416550401618622  0.4923349618984076  0.1638799905860608   F   F   F
  0.6215249896065842  0.2324749827487338  0.1639049947208875   F   F   F
  0.1215249896218893  0.7324749827641384  0.1639049947208875   F   F   F
  0.6138899922165422  0.7900499701433930  0.1652999967395488   F   F   F
  0.1138899922320462  0.2900499701279884  0.1652999967395488   F   F   F
  0.6136249900178186  0.9678149819375790  0.1663399934664298   F   F   F
  0.1136249899562998  0.4678149819221744  0.1663399934664298   F   F   F
  0.4293750524476607  0.3967550098640160  0.1915250122486114   F   F   F
  0.9293750526994771  0.8967550396893031  0.1915250122486114   F   F   F
  0.4265849590280339  0.1491750180829428  0.1916400045113846   F   F   F
  0.9265850185132081  0.6491750479082299  0.1916400045113846   F   F   F
  0.4284399747628100  0.6474499702476635  0.1918300092246881   F   F   F
  0.9284400346741037  0.1474499702322589  0.1918300092246881   F   F   F
  0.4153450131861334  0.9000250101463863  0.1979900002566026   F   F   F
  0.9153450724812089  0.4000250101309746  0.1979900002566026   F   F   F
  0.1751549839709696  0.0363749973413334  0.2132699936581304   F   F   F
  0.6751549840284596  0.5363749861876599  0.2132699936581304   F   F   F
  0.6747350096576312  0.2840650081860119  0.2137750238279281   F   F   F
  0.1747350096729363  0.7840650082014164  0.2137750238279281   F   F   F
  0.6684499978854319  0.7958099841789590  0.2157900035376343   F   F   F
  0.1684499979004315  0.2958099842405773  0.2157900035376343   F   F   F
  0.6660000085716788  0.0288500171151185  0.2169149816015050   F   F   F
  0.1660000085749047  0.5288500189791989  0.2169149816015050   F   F   F
  0.0798649787857499  0.9210550188781710  0.2275149971237340   F   F   F
  0.5798649787704448  0.4210550188627664  0.2275149971237340   F   F   F
  0.5802949666847610  0.6711050272132226  0.2276799827806926   F   F   F
  0.0802949667002650  0.1711050271978181  0.2276799827806926   F   F   F
  0.5775699615284395  0.1720200031708004  0.2279000133182763   F   F   F
  0.0775699615276366  0.6720199585098996  0.2279000133182763   F   F   F
  0.5694550276295445  0.9222150444703487  0.2334800064713960   F   F   F
  0.0694550275720545  0.4222149849122090  0.2334800064713960   F   F   F
  0.9309490287178176  0.5776150798067529  0.2663632304583378   T   T   T
  0.4309490286557942  0.0776150798683783  0.2663632304583378   T   T   T
  0.9223456173390621  0.3279432665138770  0.2719983434904825   T   T   T
  0.4223455875451240  0.8279432665292815  0.2719983434904825   T   T   T
  0.9194363687954713  0.8288998103116306  0.2722321974994094   T   T   T
  0.4194363688109754  0.3288998102962261  0.2722321974994094   T   T   T
  0.4200614435649036  0.5789162382797707  0.2723307874825739   T   T   T
  0.9200614733588487  0.0789162382643662  0.2723307874825739   T   T   T
  0.8337229303536607  0.4710567206907942  0.2829909912418518   T   T   T
  0.3337229304062195  0.9710567503620287  0.2829909912418518   T   T   T
  0.8313340615712910  0.7040494448747012  0.2841951715180315   T   T   T
  0.3313340019683088  0.2040494448592965  0.2841951715180315   T   T   T
  0.8249847909800356  0.2159137182518141  0.2861481552962001   T   T   T
  0.3249847909384476  0.7159137034007957  0.2861481552962001   T   T   T
  0.3247426190758300  0.4634034552377800  0.2867146811633192   T   T   T
  0.8247426190603188  0.9634034552531845  0.2867146811633192   T   T   T
  0.0851008298539596  0.5998706184456373  0.3019528825144125   T   T   T
  0.5851008596473931  0.0998706185072628  0.3019528825144125   T   T   T
  0.0719331593670556  0.8526660149174915  0.3082293157851909   T   T   T
  0.5719331891609936  0.3526660149020869  0.3082293157851909   T   T   T
  0.0737047829283681  0.3511558639577667  0.3083966878472031   T   T   T
  0.5737048127628924  0.8511558341632887  0.3083966878472031   T   T   T
  0.0711115722122078  0.1034555995222571  0.3084921042841255   T   T   T
  0.5711115796763242  0.6034556218758179  0.3084921042841255   T   T   T
  0.8860935165176040  0.5321220238742244  0.3337945990414284   T   T   T
  0.3860935164560852  0.0321220238588127  0.3337945990414284   T   T   T
  0.8856952302238456  0.7101239706978788  0.3347597860583064   T   T   T
  0.3856951706208634  0.2101239706824743  0.3347597860583064   T   T   T
  0.8783296141290931  0.2677120301434417  0.3362211129202249   T   T   T
  0.3783296141448954  0.7677120300818163  0.3362211129202249   T   T   T
  0.0587375520518565  0.5076572908986626  0.3361425269680335   T   T   T
  0.5587375222147174  0.0076572928089638  0.3361425269680335   T   T   T
  0.3794821963039767  0.4804460134240700  0.3368376039387104   T   T   T
  0.8794821963654954  0.9804460134394746  0.3368376039387104   T   T   T
  0.0583739252233727  0.7366979503385067  0.3369840532657387   T   T   T
  0.5583739550173178  0.2366979503231022  0.3369840532657387   T   T   T
  0.5515807765856789  0.4988395156488892  0.3402422780154177   T   T   T
  0.0515807765647394  0.9988394858544184  0.3402422780154177   T   T   T
  0.0501438250645476  0.2510121789632684  0.3408084237931487   T   T   T
  0.5501438176182517  0.7510121491687903  0.3408084237931487   T   T   T
  0.3112090642369182  0.6342669841191390  0.3502967910816265   T   T   T
  0.8112090642981385  0.1342669841807572  0.3502967910816265   T   T   T
  0.8656611412406544  0.1886773757541598  0.3996526828415838   T   T   T
  0.3656611412922043  0.6886774055794469  0.3996526828415838   T   T   T
  0.2489877311344010  0.4499802861884525  0.4091752856994853   T   T   T
  0.7489877907373831  0.9499802862038571  0.4091752856994853   T   T   T
  0.0011563895277552  0.9485707783939291  0.4097465014950270   T   T   T
  0.5011564185514295  0.4485707783785244  0.4097465014950270   T   T   T
  0.7634669331182998  0.4417907440051262  0.4130224711294295   T   T   T
  0.2634669330973602  0.9417907142106482  0.4130224711294295   T   T   T
  0.0194836713566739  0.1205132511368523  0.4131530333554615   T   T   T
  0.5194836769646041  0.6205132510752269  0.4131530333554615   T   T   T
  0.9921557997239995  0.4414468810173626  0.4138332425162047   T   T   T
  0.4921557997755492  0.9414469108426496  0.4138332425162047   T   T   T
  0.2323097725660062  0.6216130721532532  0.4137567977443034   T   T   T
  0.7323097725507011  0.1216130721378487  0.4137567977443034   T   T   T
  0.7897894477762487  0.6141723166697186  0.4151774366652638   T   T   T
  0.2897894477917528  0.1141723166543141  0.4151774366652638   T   T   T
  0.9678133888325338  0.6138315335678576  0.4161334483528712   T   T   T
  0.4678133888480378  0.1138315335524532  0.4161334483528712   T   T   T
  0.3965197547341042  0.4288057880206609  0.4414591339691482   T   T   T
  0.8965197845640881  0.9288058178459482  0.4414591339691482   T   T   T
  0.1488155454304630  0.4261601124877289  0.4414885863846237   T   T   T
  0.6488155752604470  0.9261601423130162  0.4414885863846237   T   T   T
  0.6471896737435329  0.4278811772523596  0.4416622625138621   T   T   T
  0.1471896737955872  0.9278812070006167  0.4416622625138621   T   T   T
  0.9001350724411619  0.4148219141968264  0.4479725061387717   T   T   T
  0.4001350724524310  0.9148219737549662  0.4479725061387717   T   T   T
  0.0366913792714936  0.1752464152271795  0.4633305731750081   T   T   T
  0.5366913681077942  0.6752464002991313  0.4633305731750081   T   T   T
  0.2839505515421819  0.6748964487020515  0.4639298313928499   T   T   T
  0.7839505515268766  0.1748964486866469  0.4639298313928499   T   T   T
  0.7963597460463124  0.6684795990967046  0.4658813849614398   T   T   T
  0.2963597460618165  0.1684795990812999  0.4658813849614398   T   T   T
  0.0286971535003170  0.6662231337540965  0.4670204955418676   T   T   T
  0.5286971554106750  0.1662231337386919  0.4670204955418676   T   T   T
  0.9212093907291832  0.0801022386342047  0.4777521091555151   T   T   T
  0.4212093907364379  0.5801022163114601  0.4777521091555151   T   T   T
  0.6710434067476340  0.5808394124923909  0.4778718530579595   T   T   T
  0.1710434067344463  0.0808394050822827  0.4778718530579595   T   T   T
  0.1720119008881003  0.5780601284744539  0.4781683309544842   T   T   T
  0.6720118561486065  0.0780601359307756  0.4781683309544842   T   T   T
  0.9227904431359468  0.5697146126606383  0.4839056629047848   T   T   T
  0.4227903835329648  0.0697146126452337  0.4839056629047848   T   T   T
 